# vtk DataFile Version 3.0
vtk output
ASCII
DATASET UNSTRUCTURED_GRID
FIELD FieldData 2
TIME 1 1 double
0.00190005
CYCLE 1 1 int
0
POINTS 10238 float
-0.05 -0.049 0
-0.049 -0.049 0
-0.049 -0.048 0
-0.05 -0.048 0
-0.05 -0.05 0
-0.049 -0.05 0
-0.048 -0.05 0
-0.048 -0.049 0
-0.049 -0.047 0
-0.05 -0.047 0
-0.0480001 -0.048 7.76055e-08
-0.048 -0.0470001 -2.1486e-07
-0.047 -0.05 0
-0.047 -0.049 0
-0.047 -0.0480001 -1.13051e-07
-0.049 -0.046 0
-0.05 -0.046 0
-0.048 -0.0459997 -1.12073e-07
-0.0470002 -0.0470003 1.92921e-07
-0.0470001 -0.046 -1.41146e-07
-0.046 -0.05 0
-0.046 -0.049 0
-0.0460001 -0.048 1.04976e-07
-0.0459998 -0.047 3.94701e-07
-0.049 -0.045 0
-0.05 -0.045 0
-0.048 -0.0450001 -3.38912e-07
-0.047 -0.0450001 4.02694e-08
-0.0459998 -0.046 3.38967e-07
-0.0459999 -0.0450001 6.62695e-07
-0.045 -0.05 0
-0.045 -0.049 0
-0.0450001 -0.0480001 2.35418e-07
-0.045 -0.047 6.99463e-07
-0.045 -0.046 1.43083e-06
-0.049 -0.044 0
-0.05 -0.044 0
-0.0479999 -0.044 -1.72188e-07
-0.047 -0.0440001 -4.33101e-07
-0.046 -0.0440001 -1.76226e-07
-0.0450001 -0.0450001 1.08454e-06
-0.0450001 -0.0440001 1.2437e-06
-0.044 -0.05 0
-0.044 -0.049 0
-0.0439998 -0.0480001 1.29386e-07
-0.0439999 -0.0469999 1.25485e-06
-0.0439997 -0.0460002 1.39176e-06
-0.0439999 -0.0449999 2.71739e-06
-0.049 -0.043 0
-0.05 -0.043 0
-0.048 -0.0430003 -7.06895e-08
-0.0470001 -0.043 2.6172e-07
-0.0459999 -0.0430002 5.04233e-07
-0.045 -0.043 -5.29199e-08
-0.0439998 -0.0440003 8.45768e-07
-0.0439998 -0.0430001 1.48284e-06
-0.043 -0.05 0
-0.043 -0.049 0
-0.043 -0.0479999 -1.32297e-07
-0.0429998 -0.0470003 3.14961e-07
-0.0430001 -0.0460001 1.17144e-06
-0.0430002 -0.0450004 1.51378e-06
-0.0430001 -0.044 1.22707e-06
-0.049 -0.042 0
-0.05 -0.042 0
-0.048 -0.0420002 4.22708e-07
-0.0470003 -0.0420004 4.6632e-07
-0.046 -0.042 5.56495e-09
-0.0450001 -0.042 9.45274e-07
-0.0440001 -0.042 -5.32423e-07
-0.0430001 -0.0430001 -6.79272e-07
-0.0429998 -0.0419999 -5.22914e-07
-0.042 -0.05 0
-0.042 -0.049 0
-0.0419998 -0.0480001 -5.80739e-07
-0.0419998 -0.0469999 -1.15186e-06
-0.0419998 -0.0460001 -7.45379e-07
-0.0419998 -0.0450002 -6.001e-08
-0.0419999 -0.0440001 -1.43443e-06
-0.0419997 -0.0430001 -2.52843e-06
-0.049 -0.041 0
-0.05 -0.041 0
-0.0479999 -0.0410003 2.69171e-07
-0.0470001 -0.0410003 8.0157e-07
-0.046 -0.0410002 7.23196e-07
-0.0449999 -0.0410003 -3.9775e-07
-0.0439999 -0.0410002 1.22142e-06
-0.0430001 -0.0410001 -1.42642e-06
-0.0419998 -0.0420002 -4.53683e-06
-0.0419993 -0.0410002 -3.61479e-06
-0.041 -0.05 0
-0.041 -0.049 0
-0.0409999 -0.0479999 -9.68001e-07
-0.0409997 -0.0470002 -9.73473e-07
-0.0409998 -0.0459999 -1.24964e-06
-0.041 -0.0450002 -4.9222e-07
-0.041 -0.0440001 -1.90434e-06
-0.0410003 -0.0430002 -3.87168e-06
-0.0409999 -0.0420004 -5.1065e-06
-0.049 -0.04 0
-0.05 -0.04 0
-0.0480003 -0.0400003 -1.00776e-08
-0.0470004 -0.0400003 -3.43131e-07
-0.0459998 -0.0400002 -8.86936e-07
-0.0449999 -0.0400003 2.05101e-07
-0.0439997 -0.0399999 -6.9684e-07
-0.0429998 -0.0400002 -3.28985e-07
-0.0419999 -0.0400001 -4.20825e-06
-0.0410003 -0.041 -5.57528e-06
-0.0409998 -0.0400003 -5.07692e-06
-0.04 -0.05 0
-0.04 -0.049 0
-0.0399998 -0.0480002 -2.75915e-07
-0.0399999 -0.0470005 -1.0559e-06
-0.0399998 -0.0460002 -6.7707e-07
-0.0399998 -0.0450002 -8.82241e-07
-0.0399998 -0.0440001 -1.98757e-06
-0.0399999 -0.0430003 -3.9799e-06
-0.0399997 -0.042 -5.82385e-06
-0.0399996 -0.0410003 -6.13809e-06
-0.049 -0.039 0
-0.05 -0.039 0
-0.048 -0.0389999 -6.50907e-07
-0.0470002 -0.0390003 -7.26587e-07
-0.046 -0.0390003 -4.4901e-07
-0.0450002 -0.0390003 -1.52114e-06
-0.0439999 -0.0390003 6.96272e-07
-0.0430002 -0.0390001 -2.09639e-06
-0.0419994 -0.0390002 -3.96604e-06
-0.0410001 -0.039 -6.72143e-06
-0.0399997 -0.04 -6.77834e-06
-0.0399996 -0.0390004 -7.724e-06
-0.039 -0.05 0
-0.039 -0.049 0
-0.0389999 -0.0480001 -5.47536e-07
-0.039 -0.0470003 -6.62069e-07
-0.0389998 -0.046 -1.24285e-06
-0.039 -0.0450002 -1.09741e-06
-0.039 -0.0440001 -2.262e-06
-0.039 -0.043 -3.76094e-06
-0.0390003 -0.0420003 -5.20337e-06
-0.0389999 -0.041 -6.11954e-06
-0.0390001 -0.0400005 -6.68732e-06
-0.049 -0.038 0
-0.05 -0.038 0
-0.0480001 -0.0380001 -7.4938e-07
-0.0470003 -0.038 -1.28764e-06
-0.046 -0.0380004 -8.76609e-07
-0.0450003 -0.0380003 2.24032e-07
-0.0439999 -0.0380003 -7.53421e-07
-0.043 -0.0380001 -1.55768e-06
-0.0419999 -0.0380002 -5.97269e-06
-0.0409997 -0.0380003 -7.747e-06
-0.0399998 -0.0380001 -1.00369e-05
-0.0389997 -0.0390001 -7.95501e-06
-0.0389999 -0.0380002 -9.70473e-06
-0.038 -0.05 0
-0.038 -0.049 0
-0.038 -0.048 -2.64072e-07
-0.038 -0.0470001 -1.13312e-06
-0.038 -0.0459999 -1.54668e-06
-0.0380001 -0.0450001 -2.25266e-06
-0.0380003 -0.0440001 -3.44067e-06
-0.038 -0.0430001 -4.9081e-06
-0.0380001 -0.0419999 -7.38593e-06
-0.0379999 -0.0410003 -8.38101e-06
-0.0380001 -0.0399999 -9.85319e-06
-0.0379998 -0.0390001 -9.68996e-06
-0.049 -0.037 0
-0.05 -0.037 0
-0.048 -0.0370001 -1.30237e-06
-0.0470002 -0.0370001 -1.1567e-06
-0.0460001 -0.0370003 -8.62323e-08
-0.0450001 -0.0370003 -6.96337e-07
-0.0439999 -0.037 8.8591e-07
-0.0430004 -0.037 -3.29437e-06
-0.0419997 -0.0369999 -6.16522e-06
-0.0410002 -0.037 -1.00152e-05
-0.0399998 -0.0370002 -1.13166e-05
-0.0390002 -0.0370001 -1.20855e-05
-0.038 -0.038 -1.15479e-05
-0.0379999 -0.0370002 -1.30116e-05
-0.037 -0.05 0
-0.037 -0.049 0
-0.0370001 -0.0480001 -1.34442e-07
-0.0369999 -0.0469999 -1.5427e-07
-0.037 -0.0460002 -1.16607e-06
-0.0369998 -0.045 -2.28813e-06
-0.0369998 -0.044 -3.79088e-06
-0.037 -0.043 -5.93203e-06
-0.0369999 -0.0420003 -8.04163e-06
-0.037 -0.0409999 -1.05035e-05
-0.0369997 -0.0400003 -1.18177e-05
-0.0370001 -0.0389999 -1.2624e-05
-0.0369998 -0.0380003 -1.3701e-05
-0.049 -0.036 0
-0.05 -0.036 0
-0.0480003 -0.0360001 -1.47998e-06
-0.047 -0.036 -2.6996e-06
-0.046 -0.0360002 -1.84529e-06
-0.0450003 -0.0360002 -1.32123e-07
-0.0439999 -0.0360001 -7.36888e-07
-0.0430001 -0.0360001 -2.28332e-06
-0.0420001 -0.0360003 -6.81084e-06
-0.0409998 -0.0360004 -8.69176e-06
-0.0399999 -0.0360004 -1.15706e-05
-0.0389998 -0.0360001 -1.28216e-05
-0.0379998 -0.0360001 -1.62871e-05
-0.0369998 -0.0370001 -1.64559e-05
-0.0370001 -0.0360004 -1.95646e-05
-0.036 -0.05 0
-0.036 -0.049 0
-0.0360002 -0.0480001 7.62282e-07
-0.0360002 -0.0470001 5.70121e-07
-0.0360003 -0.0459998 3.39827e-07
-0.036 -0.045 -2.40847e-06
-0.0360003 -0.0439997 -3.6537e-06
-0.036 -0.0430001 -6.80977e-06
-0.0360003 -0.0419998 -8.71916e-06
-0.0359999 -0.0410003 -1.23898e-05
-0.0360001 -0.04 -1.36121e-05
-0.036 -0.0390002 -1.57994e-05
-0.0359999 -0.0379999 -1.62089e-05
-0.036 -0.0370003 -2.00077e-05
-0.049 -0.035 0
-0.05 -0.035 0
-0.0479999 -0.035 -2.07669e-06
-0.0470001 -0.0350003 -3.80719e-06
-0.0459997 -0.0350001 -3.22252e-06
-0.0450002 -0.0350003 -3.36747e-06
-0.0439999 -0.0350001 -6.20017e-07
-0.0430002 -0.0350001 -4.34539e-06
-0.0419998 -0.0350002 -5.72411e-06
-0.0410003 -0.035 -9.06015e-06
-0.0399998 -0.0350003 -1.01273e-05
-0.0390001 -0.0350003 -1.42369e-05
-0.0379997 -0.0350001 -1.79758e-05
-0.0369999 -0.035 -2.37771e-05
-0.0359998 -0.036 -2.27833e-05
-0.0359999 -0.035 -2.73993e-05
-0.035 -0.05 0
-0.035 -0.049 0
-0.0350002 -0.048 4.5975e-07
-0.0350003 -0.0469999 1.18633e-06
-0.0350001 -0.0460002 -4.15912e-07
-0.0349998 -0.0449999 -1.92907e-06
-0.0350001 -0.044 -4.5316e-06
-0.0349998 -0.043 -5.70152e-06
-0.035 -0.0420002 -8.6255e-06
-0.0349998 -0.0409999 -1.03172e-05
-0.035 -0.0400004 -1.40794e-05
-0.0350001 -0.0389998 -1.44344e-05
-0.0350003 -0.0380002 -1.79085e-05
-0.035 -0.0369999 -1.94408e-05
-0.0350001 -0.0360001 -2.50394e-05
-0.049 -0.034 0
-0.05 -0.034 0
-0.0480003 -0.0340002 -1.79352e-06
-0.047 -0.034 -4.62282e-06
-0.0460001 -0.0339999 -5.4694e-06
-0.0449997 -0.0340001 -3.81312e-06
-0.044 -0.0340002 -4.05991e-06
-0.043 -0.0340002 -4.50034e-06
-0.0419999 -0.0340002 -7.58694e-06
-0.0409999 -0.0340003 -7.54384e-06
-0.0400002 -0.0340003 -1.11674e-05
-0.0390001 -0.0340002 -1.43762e-05
-0.038 -0.0340003 -2.20459e-05
-0.0370002 -0.0340001 -2.55678e-05
-0.0359996 -0.0340004 -2.98402e-05
-0.0349999 -0.0350001 -2.80664e-05
-0.0350002 -0.0340004 -3.16109e-05
-0.034 -0.05 0
-0.034 -0.049 0
-0.0340002 -0.0480001 1.03755e-07
-0.0340002 -0.0470001 -1.25687e-06
-0.034 -0.0460001 -2.13493e-06
-0.0340004 -0.0450003 -5.04499e-06
-0.0339999 -0.044 -5.78105e-06
-0.0340006 -0.0430003 -7.93072e-06
-0.0339999 -0.0419999 -9.01722e-06
-0.0340003 -0.0410002 -1.24773e-05
-0.0339997 -0.04 -1.43121e-05
-0.0340002 -0.0390001 -1.76857e-05
-0.0339995 -0.038 -1.8906e-05
-0.034 -0.0370003 -2.3288e-05
-0.0339997 -0.0360001 -2.66656e-05
-0.0340002 -0.0350001 -3.20645e-05
-0.049 -0.033 0
-0.05 -0.033 0
-0.0480002 -0.033 -1.23578e-06
-0.0469999 -0.0330004 -3.39543e-06
-0.0459999 -0.0330002 -4.61822e-06
-0.0450002 -0.0330003 -6.03685e-06
-0.044 -0.033 -4.41722e-06
-0.0430003 -0.0330001 -7.91358e-06
-0.042 -0.033 -8.07424e-06
-0.0410002 -0.033 -1.06166e-05
-0.0399998 -0.0330003 -1.15824e-05
-0.0390003 -0.0330003 -1.75997e-05
-0.0379997 -0.033 -2.27131e-05
-0.0370002 -0.0330002 -2.9082e-05
-0.0359998 -0.033 -3.15564e-05
-0.0350002 -0.0330001 -3.37255e-05
-0.0339998 -0.0340003 -3.56194e-05
-0.0340001 -0.033 -3.88261e-05
-0.033 -0.05 0
-0.033 -0.049 0
-0.0329999 -0.048 -1.08383e-06
-0.0329999 -0.0470001 -2.4757e-06
-0.0330002 -0.046 -5.03739e-06
-0.0330001 -0.0449999 -6.23395e-06
-0.0330002 -0.0440002 -8.44628e-06
-0.0329998 -0.0430002 -8.74973e-06
-0.0330002 -0.0420002 -1.15844e-05
-0.0329999 -0.0409999 -1.28247e-05
-0.0330004 -0.0400003 -1.76199e-05
-0.0329997 -0.039 -1.87982e-05
-0.0330004 -0.0380002 -2.39958e-05
-0.0329996 -0.0369999 -2.55193e-05
-0.033 -0.0360002 -3.20254e-05
-0.0329995 -0.0349999 -3.45932e-05
-0.0330001 -0.0340004 -4.0004e-05
-0.049 -0.032 0
-0.05 -0.032 0
-0.0480001 -0.032 -2.34218e-07
-0.0469999 -0.032 -2.20264e-06
-0.0460003 -0.0320001 -4.48475e-06
-0.0450001 -0.032 -4.99684e-06
-0.0440003 -0.0320002 -7.59329e-06
-0.0429999 -0.0320002 -8.47776e-06
-0.0420004 -0.032 -1.12674e-05
-0.0410002 -0.0320003 -1.08869e-05
-0.0400001 -0.0320002 -1.55613e-05
-0.039 -0.0320002 -1.85339e-05
-0.038 -0.0320004 -2.69299e-05
-0.0370003 -0.0320002 -2.90858e-05
-0.036 -0.0320004 -3.38192e-05
-0.0350003 -0.0320003 -3.55517e-05
-0.0339999 -0.0320005 -4.2664e-05
-0.0329999 -0.0330002 -4.31502e-05
-0.0330003 -0.0320003 -4.78115e-05
-0.032 -0.05 0
-0.032 -0.049 0
-0.0320001 -0.048 -6.63784e-07
-0.0320004 -0.047 -3.28557e-06
-0.0320002 -0.046 -3.88202e-06
-0.0320001 -0.0450002 -6.87202e-06
-0.0319999 -0.0439998 -6.9805e-06
-0.0320003 -0.043 -1.04364e-05
-0.032 -0.042 -1.12848e-05
-0.0320003 -0.041 -1.64321e-05
-0.0319996 -0.0400001 -1.8183e-05
-0.032 -0.0390001 -2.44764e-05
-0.0319993 -0.0380002 -2.5704e-05
-0.0319999 -0.0370002 -3.17054e-05
-0.0319993 -0.0360001 -3.31887e-05
-0.0319999 -0.035 -3.91739e-05
-0.0319997 -0.0340003 -4.19158e-05
-0.032 -0.0330002 -4.79002e-05
-0.049 -0.031 0
-0.05 -0.031 0
-0.048 -0.031 2.12244e-07
-0.047 -0.0309999 -7.39177e-07
-0.046 -0.031 -2.72174e-06
-0.0449999 -0.0310002 -6.37907e-06
-0.0440002 -0.0310001 -7.44476e-06
-0.0430004 -0.0310001 -1.09643e-05
-0.0420004 -0.0310002 -1.09551e-05
-0.0410001 -0.0310003 -1.41629e-05
-0.0399999 -0.0310002 -1.65215e-05
-0.0390004 -0.0310003 -2.24471e-05
-0.0379999 -0.0310003 -2.70503e-05
-0.0370005 -0.0310003 -3.31886e-05
-0.0359997 -0.031 -3.5828e-05
-0.0350004 -0.0310003 -3.94984e-05
-0.0340002 -0.0310004 -4.60786e-05
-0.0330001 -0.0310001 -5.23075e-05
-0.0319998 -0.0320004 -5.22712e-05
-0.0320001 -0.0310002 -5.77852e-05
-0.031 -0.05 0
-0.031 -0.049 0
-0.031 -0.0480001 -1.06942e-06
-0.031 -0.0469999 -2.17909e-06
-0.0310002 -0.0459999 -4.34039e-06
-0.031 -0.0449999 -4.81911e-06
-0.0310002 -0.044 -7.8437e-06
-0.0309997 -0.0429998 -9.13276e-06
-0.0309999 -0.042 -1.39524e-05
-0.0309999 -0.0409999 -1.62098e-05
-0.031 -0.0400001 -2.31239e-05
-0.0309997 -0.0389999 -2.56794e-05
-0.0309996 -0.038 -3.25221e-05
-0.0309997 -0.0370001 -3.34893e-05
-0.0309997 -0.0360003 -3.9465e-05
-0.0309998 -0.0349999 -4.06614e-05
-0.031 -0.0340004 -4.7041e-05
-0.0310001 -0.0330003 -5.12047e-05
-0.031 -0.0320005 -5.77036e-05
-0.049 -0.03 0
-0.05 -0.03 0
-0.048 -0.0300004 4.57199e-07
-0.0469998 -0.0300002 -5.95409e-07
-0.0460002 -0.0300003 -2.67588e-06
-0.045 -0.0300001 -5.43549e-06
-0.0440004 -0.0299999 -9.58849e-06
-0.043 -0.0300002 -1.06034e-05
-0.0420005 -0.0300002 -1.20852e-05
-0.0410001 -0.0300005 -1.35852e-05
-0.0400003 -0.0300003 -1.94208e-05
-0.0390002 -0.0300003 -2.34553e-05
-0.0380004 -0.0300003 -3.09411e-05
-0.0370002 -0.0300001 -3.41074e-05
-0.036 -0.0300004 -3.94097e-05
-0.035 -0.0300001 -4.24258e-05
-0.034 -0.0300004 -5.08093e-05
-0.0330004 -0.0300005 -5.70847e-05
-0.032 -0.0300004 -6.15816e-05
-0.0310003 -0.0310001 -6.19903e-05
-0.0309998 -0.0300006 -6.66507e-05
-0.03 -0.05 0
-0.03 -0.049 0
-0.03 -0.048 -8.97755e-07
-0.0300003 -0.0469999 -3.05195e-06
-0.03 -0.0460001 -3.77085e-06
-0.0300002 -0.045 -5.60557e-06
-0.0299999 -0.044 -6.89565e-06
-0.0300001 -0.0430001 -1.03187e-05
-0.0299997 -0.0420001 -1.33522e-05
-0.0300002 -0.0410001 -1.83938e-05
-0.03 -0.0400001 -2.24076e-05
-0.0299998 -0.0390001 -2.89071e-05
-0.0299998 -0.0380001 -3.20781e-05
-0.0299997 -0.037 -3.71074e-05
-0.0299997 -0.0360001 -3.97548e-05
-0.0299995 -0.0350003 -4.4929e-05
-0.0299999 -0.0340003 -5.03226e-05
-0.0299997 -0.0330004 -5.64099e-05
-0.0299999 -0.0320005 -6.2769e-05
-0.0299998 -0.0310004 -6.67443e-05
-0.049 -0.029 0
-0.05 -0.029 0
-0.0479999 -0.0290002 -8.87878e-09
-0.047 -0.0290003 -3.46312e-08
-0.0459999 -0.029 -1.50492e-06
-0.0450001 -0.0290002 -5.87753e-06
-0.0440002 -0.0290002 -9.12571e-06
-0.0430004 -0.0290004 -1.14114e-05
-0.0420003 -0.0290006 -1.17183e-05
-0.0409999 -0.0290001 -1.57105e-05
-0.0400002 -0.0290001 -2.07883e-05
-0.0390005 -0.0290005 -2.67752e-05
-0.0380001 -0.0290001 -3.17817e-05
-0.0370004 -0.0290003 -3.83319e-05
-0.0359999 -0.0290003 -4.17498e-05
-0.0350002 -0.0290004 -4.61444e-05
-0.034 -0.0290003 -5.36685e-05
-0.0330001 -0.0290001 -6.0906e-05
-0.0319999 -0.0290001 -6.60583e-05
-0.0310002 -0.0289999 -6.99056e-05
-0.0299999 -0.0300006 -7.14361e-05
-0.0299995 -0.0290005 -7.44884e-05
-0.029 -0.05 0
-0.029 -0.049 0
-0.0290002 -0.0480001 -1.19581e-06
-0.0289997 -0.0469999 -3.37673e-06
-0.029 -0.0460002 -4.85883e-06
-0.0289999 -0.0450004 -6.17887e-06
-0.029 -0.044 -8.01944e-06
-0.0289998 -0.043 -1.07063e-05
-0.0290001 -0.0419998 -1.41014e-05
-0.0289997 -0.0410001 -1.76851e-05
-0.0289998 -0.0399998 -2.30382e-05
-0.0289998 -0.0390002 -2.78339e-05
-0.0289996 -0.0379999 -3.38663e-05
-0.0289995 -0.037 -3.79484e-05
-0.0289995 -0.0360001 -4.36224e-05
-0.0289997 -0.0350001 -4.83486e-05
-0.0289998 -0.0340004 -5.43332e-05
-0.0289998 -0.0330002 -6.07378e-05
-0.029 -0.0320004 -6.50848e-05
-0.029 -0.0310006 -7.08573e-05
-0.0289997 -0.0300007 -7.39404e-05
-0.049 -0.028 0
-0.05 -0.028 0
-0.0480001 -0.0280005 -1.40602e-07
-0.0469998 -0.028 -8.3642e-07
-0.0460001 -0.0280001 -1.02421e-06
-0.0449999 -0.0279999 -4.57313e-06
-0.0440005 -0.0280001 -9.52179e-06
-0.0429998 -0.0280001 -1.12114e-05
-0.0420007 -0.0280003 -1.2619e-05
-0.0409998 -0.0280003 -1.67507e-05
-0.0400004 -0.0280002 -2.35724e-05
-0.0390002 -0.0280001 -2.8806e-05
-0.0380003 -0.0280004 -3.53894e-05
-0.0370003 -0.0280005 -3.92909e-05
-0.0359998 -0.0280004 -4.41838e-05
-0.0349999 -0.0280004 -4.74693e-05
-0.0340001 -0.0280003 -5.6762e-05
-0.0330003 -0.0280005 -6.43747e-05
-0.0319998 -0.0280005 -6.94987e-05
-0.0309997 -0.0280006 -7.45217e-05
-0.0299999 -0.0280006 -7.98173e-05
-0.0289997 -0.0290006 -7.99358e-05
-0.0290001 -0.0280006 -8.32133e-05
-0.028 -0.05 0
-0.028 -0.049 0
-0.028 -0.0479999 -1.07529e-06
-0.028 -0.0469999 -2.89049e-06
-0.028 -0.0460002 -4.74832e-06
-0.028 -0.045 -6.33676e-06
-0.0279999 -0.0440002 -8.65931e-06
-0.0279999 -0.0430001 -1.0907e-05
-0.0280001 -0.0419999 -1.42959e-05
-0.028 -0.0409999 -1.77562e-05
-0.0280001 -0.0399999 -2.27398e-05
-0.0279999 -0.0390001 -2.885e-05
-0.0279998 -0.038 -3.46049e-05
-0.0279992 -0.0369999 -4.06057e-05
-0.0279995 -0.0360001 -4.65245e-05
-0.0279992 -0.0350002 -5.19756e-05
-0.0279991 -0.0340003 -5.90022e-05
-0.0279995 -0.0330004 -6.30034e-05
-0.0279993 -0.0320005 -7.0107e-05
-0.0279995 -0.0310004 -7.31086e-05
-0.0279994 -0.0300005 -8.0964e-05
-0.0279996 -0.0290004 -8.4523e-05
-0.049 -0.027 0
-0.05 -0.027 0
-0.0480001 -0.0270001 -1.01859e-06
-0.0469998 -0.027 -8.07146e-07
-0.0460001 -0.0269997 -5.30521e-07
-0.0450002 -0.0270002 -4.4734e-06
-0.044 -0.0270001 -8.81704e-06
-0.0430006 -0.0270005 -1.14078e-05
-0.0420002 -0.0270003 -1.39097e-05
-0.0410002 -0.0270001 -1.9581e-05
-0.0400002 -0.0270005 -2.60551e-05
-0.0390002 -0.0270003 -3.14979e-05
-0.0380001 -0.0270002 -3.58056e-05
-0.0370003 -0.0270003 -4.16864e-05
-0.0359998 -0.0270003 -4.42061e-05
-0.0350003 -0.0270003 -4.89565e-05
-0.0339998 -0.0270001 -5.71172e-05
-0.033 -0.0270001 -6.67671e-05
-0.0319997 -0.027 -7.32777e-05
-0.0310004 -0.0270001 -7.87414e-05
-0.0299996 -0.0270002 -8.34267e-05
-0.0289999 -0.0270005 -9.00285e-05
-0.0279996 -0.0280005 -9.26742e-05
-0.0280002 -0.0270003 -9.54201e-05
-0.027 -0.05 0
-0.027 -0.049 0
-0.027 -0.0480002 -3.35482e-07
-0.0270002 -0.047 -1.96861e-06
-0.0269999 -0.0460002 -3.68629e-06
-0.027 -0.0450002 -6.57287e-06
-0.0269997 -0.044 -8.8509e-06
-0.027 -0.0429998 -1.22358e-05
-0.0269998 -0.0419999 -1.46842e-05
-0.0269999 -0.041 -1.90076e-05
-0.0269998 -0.04 -2.39513e-05
-0.0269995 -0.0390001 -3.03584e-05
-0.0269996 -0.038 -3.64797e-05
-0.0269997 -0.037 -4.3174e-05
-0.0269995 -0.0360003 -4.93818e-05
-0.0269998 -0.0350005 -5.65947e-05
-0.0269995 -0.0340002 -6.18676e-05
-0.0269996 -0.0330004 -6.93629e-05
-0.0269997 -0.0320004 -7.31739e-05
-0.0269996 -0.0310004 -8.18131e-05
-0.027 -0.0300005 -8.62429e-05
-0.0269999 -0.0290005 -9.57498e-05
-0.027 -0.0280003 -9.88252e-05
-0.049 -0.026 0
-0.05 -0.026 0
-0.0480001 -0.0260002 -1.2271e-06
-0.0469997 -0.0260001 -1.99191e-06
-0.0460006 -0.0259997 -6.28661e-07
-0.0449998 -0.026 -3.55095e-06
-0.0440006 -0.0260001 -8.51315e-06
-0.0429997 -0.0259999 -1.11416e-05
-0.0420005 -0.0260002 -1.4384e-05
-0.0409998 -0.0260002 -2.06825e-05
-0.0400001 -0.026 -2.75128e-05
-0.0390001 -0.0260003 -3.2686e-05
-0.0380001 -0.0260004 -3.78717e-05
-0.0370003 -0.0260002 -4.13127e-05
-0.0359999 -0.0260005 -4.55581e-05
-0.0350001 -0.0260002 -4.92048e-05
-0.034 -0.0260004 -5.95833e-05
-0.033 -0.0260002 -6.92898e-05
-0.0319999 -0.0260003 -7.69037e-05
-0.031 -0.0260001 -8.34974e-05
-0.0299997 -0.0260007 -8.90576e-05
-0.0290002 -0.0260001 -9.26295e-05
-0.0279996 -0.0260005 -0.000102379
-0.0269999 -0.0270007 -0.000107294
-0.0270003 -0.0260002 -0.000108333
-0.026 -0.05 0
-0.026 -0.049 0
-0.026 -0.0479999 -3.23884e-07
-0.0259997 -0.0470001 -1.42161e-06
-0.0260001 -0.046 -4.27365e-06
-0.0259997 -0.0449997 -7.41409e-06
-0.0260002 -0.044 -1.12874e-05
-0.0259997 -0.0429999 -1.39541e-05
-0.0259997 -0.0420001 -1.76842e-05
-0.0259999 -0.0410001 -2.11098e-05
-0.0259997 -0.0400002 -2.65667e-05
-0.0259997 -0.0389999 -3.21372e-05
-0.0259995 -0.0380002 -3.81166e-05
-0.0259991 -0.0370001 -4.40996e-05
-0.0259994 -0.0360002 -5.18304e-05
-0.0259991 -0.0350002 -5.86883e-05
-0.0259996 -0.0340005 -6.80403e-05
-0.0259994 -0.0330001 -7.30251e-05
-0.0259997 -0.0320004 -8.21418e-05
-0.0259996 -0.0310003 -8.63048e-05
-0.0259997 -0.0300002 -9.61421e-05
-0.026 -0.0290003 -0.00010016
-0.026 -0.0280006 -0.000108819
-0.0260004 -0.0270002 -0.000110939
-0.049 -0.025 0
-0.05 -0.025 0
-0.0480001 -0.0249999 -1.53971e-06
-0.0470001 -0.0249997 -1.32129e-06
-0.0459998 -0.0249998 -8.949e-08
-0.0450001 -0.0249999 -3.14871e-06
-0.0440001 -0.0249998 -7.11447e-06
-0.0430005 -0.0250001 -1.00229e-05
-0.0419999 -0.0249998 -1.45012e-05
-0.0410002 -0.025 -2.1147e-05
-0.0399998 -0.0250004 -2.81933e-05
-0.0390002 -0.0250004 -3.34853e-05
-0.038 -0.0250001 -3.73943e-05
-0.0370002 -0.0250001 -4.33014e-05
-0.036 -0.0250003 -4.57862e-05
-0.0350004 -0.0250004 -5.17376e-05
-0.0339999 -0.0250001 -5.9779e-05
-0.033 -0.0250004 -7.15413e-05
-0.0319997 -0.0249998 -7.93453e-05
-0.0310001 -0.0250003 -8.66259e-05
-0.03 -0.0250001 -9.04296e-05
-0.029 -0.0250005 -9.74187e-05
-0.0280001 -0.0250002 -0.000102155
-0.0269999 -0.0250006 -0.000114221
-0.0260002 -0.0260007 -0.000117986
-0.0260003 -0.0250003 -0.000118173
-0.025 -0.05 0
-0.025 -0.049 0
-0.025 -0.0480001 -1.34766e-07
-0.025 -0.0469998 -2.08059e-06
-0.025 -0.0460001 -4.68986e-06
-0.0250001 -0.0449999 -9.80158e-06
-0.0249999 -0.044 -1.32229e-05
-0.025 -0.043 -1.8187e-05
-0.0249998 -0.0420003 -2.07086e-05
-0.025 -0.0410001 -2.59585e-05
-0.0249999 -0.0400002 -3.00204e-05
-0.0249997 -0.0390004 -3.62861e-05
-0.0249994 -0.0380003 -4.09237e-05
-0.0249996 -0.0370004 -4.83849e-05
-0.0249992 -0.036 -5.49481e-05
-0.0249996 -0.0350004 -6.46845e-05
-0.0249995 -0.0339998 -7.12345e-05
-0.0249998 -0.0330007 -8.03581e-05
-0.0249995 -0.0320001 -8.49859e-05
-0.0249999 -0.0310007 -9.41673e-05
-0.0249998 -0.0300003 -9.9052e-05
-0.0249999 -0.0290004 -0.00010836
-0.0250001 -0.0280005 -0.000111821
-0.0250001 -0.0270008 -0.000120135
-0.025 -0.0260004 -0.000122689
-0.049 -0.024 0
-0.05 -0.024 0
-0.0480003 -0.0240003 -9.62614e-07
-0.047 -0.0240001 -1.37946e-06
-0.0460006 -0.0239998 2.73769e-07
-0.0449998 -0.0239999 -1.97719e-06
-0.0440006 -0.0240001 -6.51817e-06
-0.0429998 -0.0239998 -9.42083e-06
-0.0420002 -0.024 -1.38524e-05
-0.0409997 -0.0240002 -2.04785e-05
-0.04 -0.0240001 -2.78322e-05
-0.0389998 -0.0240001 -3.35302e-05
-0.038 -0.0240001 -3.95175e-05
-0.037 -0.0240002 -4.31746e-05
-0.0359997 -0.0240004 -4.89602e-05
-0.0350006 -0.0240002 -5.22494e-05
-0.0339997 -0.0240005 -6.29908e-05
-0.0330001 -0.0240002 -7.22189e-05
-0.0320001 -0.0240005 -8.1959e-05
-0.0310001 -0.024 -8.83306e-05
-0.0299998 -0.0240007 -9.47488e-05
-0.0290001 -0.0240001 -9.7459e-05
-0.0279997 -0.0240006 -0.00010777
-0.0270004 -0.0240002 -0.000112972
-0.0260001 -0.0240005 -0.000124218
-0.0250001 -0.0250009 -0.000129198
-0.0250003 -0.0240006 -0.000129694
-0.024 -0.05 0
-0.024 -0.049 0
-0.0240001 -0.0480001 -2.71467e-07
-0.0239998 -0.0470001 -9.8837e-07
-0.0239999 -0.0460001 -5.17333e-06
-0.0239997 -0.0450003 -8.88356e-06
-0.0239995 -0.0440002 -1.50733e-05
-0.0239999 -0.0430002 -1.79693e-05
-0.0239995 -0.0420001 -2.40617e-05
-0.0239996 -0.041 -2.74785e-05
-0.0239998 -0.0400002 -3.47935e-05
-0.0239996 -0.0390001 -3.93383e-05
-0.0239997 -0.0380001 -4.65469e-05
-0.0239993 -0.0370003 -5.16566e-05
-0.0239995 -0.0360001 -6.09703e-05
-0.0239991 -0.0350003 -6.75431e-05
-0.0239994 -0.0340003 -7.79302e-05
-0.0239993 -0.0330002 -8.20903e-05
-0.0239995 -0.0320004 -9.1574e-05
-0.0239993 -0.031 -9.54488e-05
-0.0239997 -0.0300005 -0.000106089
-0.0239999 -0.0290004 -0.000111041
-0.0240001 -0.0280004 -0.000121108
-0.0239998 -0.0270007 -0.000125245
-0.0240002 -0.0260004 -0.00013369
-0.0240001 -0.0250008 -0.000135995
-0.049 -0.023 0
-0.05 -0.023 0
-0.048 -0.0229998 -6.31658e-07
-0.0470004 -0.0230001 -6.14027e-08
-0.0459998 -0.0229997 9.84937e-07
-0.045 -0.023 -2.22173e-06
-0.0440001 -0.0229999 -5.76313e-06
-0.0430005 -0.0230001 -9.60497e-06
-0.0419995 -0.0229999 -1.48036e-05
-0.041 -0.023 -2.14144e-05
-0.0399998 -0.0230003 -2.85048e-05
-0.0390002 -0.0230002 -3.47731e-05
-0.0379996 -0.0230001 -3.94169e-05
-0.0370001 -0.0230002 -4.62994e-05
-0.0360001 -0.0230004 -4.93309e-05
-0.0350001 -0.0230003 -5.53985e-05
-0.0339999 -0.0230003 -6.15396e-05
-0.033 -0.0230002 -7.32094e-05
-0.0319999 -0.0229999 -8.12396e-05
-0.0310002 -0.0230003 -9.01791e-05
-0.0299997 -0.0230002 -9.43868e-05
-0.0290001 -0.0230007 -0.000102745
-0.028 -0.0229999 -0.000106973
-0.0269998 -0.0230004 -0.000119531
-0.0260004 -0.0229999 -0.000123871
-0.0250003 -0.0230006 -0.000135022
-0.0240002 -0.0240005 -0.00014116
-0.0240004 -0.0230006 -0.000140742
-0.023 -0.05 0
-0.023 -0.049 0
-0.0229999 -0.0480002 6.18138e-07
-0.0230001 -0.0470002 -1.36171e-06
-0.0229999 -0.0460002 -3.40031e-06
-0.0229998 -0.0450002 -1.02068e-05
-0.023 -0.0440004 -1.30401e-05
-0.0229997 -0.0430002 -2.03505e-05
-0.0229999 -0.0420004 -2.30397e-05
-0.0229997 -0.0410003 -3.21271e-05
-0.0229996 -0.0400002 -3.68122e-05
-0.0229994 -0.0390003 -4.63978e-05
-0.0229994 -0.0380001 -5.01507e-05
-0.0229993 -0.0370002 -5.92521e-05
-0.0229994 -0.0359998 -6.38453e-05
-0.0229993 -0.0350005 -7.47397e-05
-0.0229994 -0.0340001 -7.94517e-05
-0.0229996 -0.0330007 -8.95148e-05
-0.0229995 -0.0320001 -9.3219e-05
-0.0229998 -0.0310006 -0.000103721
-0.0229996 -0.0300001 -0.000108926
-0.0229998 -0.0290008 -0.000119984
-0.0229995 -0.0280001 -0.000124517
-0.023 -0.027001 -0.000134381
-0.0229998 -0.0260002 -0.000137818
-0.023 -0.025001 -0.000144504
-0.0230002 -0.0240002 -0.00014462
-0.049 -0.022 0
-0.05 -0.022 0
-0.0480004 -0.0220005 1.15825e-07
-0.0469998 -0.0219999 2.21942e-07
-0.0460003 -0.022 5.73954e-07
-0.0449999 -0.0219999 -1.92127e-06
-0.0440004 -0.0219999 -6.95941e-06
-0.0429996 -0.0219997 -1.10386e-05
-0.0420006 -0.0219998 -1.67507e-05
-0.0409997 -0.022 -2.26561e-05
-0.04 -0.022 -2.96969e-05
-0.0389999 -0.0220001 -3.55087e-05
-0.0379998 -0.0220003 -4.25805e-05
-0.0369998 -0.0220003 -4.6231e-05
-0.0359996 -0.0220002 -5.30412e-05
-0.0350004 -0.0220005 -5.49146e-05
-0.0339997 -0.0220005 -6.43625e-05
-0.0330003 -0.0220005 -7.1203e-05
-0.0319998 -0.0220003 -8.22226e-05
-0.0310002 -0.0220002 -8.90017e-05
-0.0299998 -0.0220007 -9.80253e-05
-0.0290001 -0.0220001 -0.000101161
-0.0279999 -0.0220005 -0.000112657
-0.0270001 -0.022 -0.000117559
-0.0260001 -0.0220006 -0.000129795
-0.0250002 -0.0220004 -0.000134302
-0.0240002 -0.0220006 -0.000144796
-0.0230001 -0.0230008 -0.00014844
-0.0230002 -0.0220003 -0.000148603
-0.022 -0.05 0
-0.022 -0.049 0
-0.0219999 -0.0480001 -2.14958e-07
-0.0220001 -0.0469999 -4.24138e-07
-0.0219996 -0.046 -5.56697e-06
-0.0219996 -0.0450002 -8.61497e-06
-0.0219996 -0.0440001 -1.58306e-05
-0.0219996 -0.0430003 -1.76965e-05
-0.0219995 -0.0420003 -2.63501e-05
-0.0219998 -0.0410003 -3.06292e-05
-0.0219999 -0.0400003 -4.20549e-05
-0.0219997 -0.039 -4.74661e-05
-0.0219997 -0.0380002 -5.72022e-05
-0.0219997 -0.0369999 -6.07927e-05
-0.0219994 -0.0360004 -7.05158e-05
-0.0219996 -0.0349999 -7.54158e-05
-0.0219994 -0.0340003 -8.69331e-05
-0.0219994 -0.0330002 -9.13417e-05
-0.0219997 -0.0320004 -0.000102773
-0.0219998 -0.0310002 -0.000107318
-0.0219998 -0.0300004 -0.000118961
-0.022 -0.0290003 -0.000123695
-0.0220001 -0.0280006 -0.000133661
-0.0219999 -0.0270003 -0.000137405
-0.0220005 -0.0260004 -0.000145334
-0.0220004 -0.0250005 -0.000147613
-0.0220006 -0.0240005 -0.000151858
-0.0220005 -0.0230004 -0.000152049
-0.049 -0.021 0
-0.05 -0.021 0
-0.0479999 -0.0209999 4.03741e-07
-0.0470003 -0.0209998 8.20601e-07
-0.0459998 -0.021 4.20717e-08
-0.0449999 -0.0210001 -3.73738e-06
-0.0439998 -0.021 -7.46141e-06
-0.0430004 -0.0210001 -1.28259e-05
-0.0419998 -0.0209999 -1.92736e-05
-0.0409998 -0.0210002 -2.47962e-05
-0.0399997 -0.0210001 -3.08694e-05
-0.0390001 -0.0210002 -3.65328e-05
-0.0379995 -0.0210005 -4.19799e-05
-0.0370003 -0.0210003 -4.89104e-05
-0.0359997 -0.0210003 -5.27391e-05
-0.035 -0.0210002 -5.87466e-05
-0.034 -0.0210005 -6.33806e-05
-0.033 -0.0210002 -7.32808e-05
-0.0319999 -0.0210002 -8.06698e-05
-0.0310003 -0.0210001 -9.06216e-05
-0.0299996 -0.0210001 -9.53352e-05
-0.0289999 -0.0210007 -0.000105026
-0.028 -0.0209999 -0.000109329
-0.0270002 -0.0210004 -0.000123143
-0.0260003 -0.0209999 -0.000127766
-0.025 -0.0210007 -0.000139
-0.0240004 -0.0210004 -0.000144193
-0.0230003 -0.0210005 -0.00015359
-0.0220006 -0.0220008 -0.000156551
-0.0220008 -0.0210002 -0.000158863
-0.021 -0.05 0
-0.021 -0.049 0
-0.0210001 -0.048 2.70319e-07
-0.021 -0.0470002 -2.93928e-06
-0.0210001 -0.0460003 -5.07464e-06
-0.0209999 -0.0449999 -1.26253e-05
-0.0209999 -0.0440003 -1.43986e-05
-0.021 -0.0430001 -2.22075e-05
-0.021 -0.042 -2.42396e-05
-0.0209995 -0.0410002 -3.50483e-05
-0.0209997 -0.04 -3.99345e-05
-0.0209995 -0.0390004 -5.24565e-05
-0.0209995 -0.0380001 -5.66048e-05
-0.0209993 -0.0370002 -6.7931e-05
-0.0209995 -0.036 -7.14991e-05
-0.0209994 -0.0350002 -8.3686e-05
-0.0209995 -0.0340003 -8.78964e-05
-0.0209996 -0.0330004 -0.000100417
-0.0209998 -0.032 -0.000105074
-0.0209995 -0.0310006 -0.000117444
-0.0209998 -0.0300002 -0.000122334
-0.0209995 -0.0290004 -0.000133153
-0.0210001 -0.0280002 -0.000136572
-0.0209996 -0.0270006 -0.000146324
-0.0209999 -0.0260001 -0.000149827
-0.0209999 -0.0250007 -0.000157219
-0.0210002 -0.0240003 -0.000157971
-0.0209998 -0.0230009 -0.000161942
-0.0210005 -0.0220005 -0.00016298
-0.049 -0.02 0
-0.05 -0.02 0
-0.0480002 -0.0200003 7.72211e-07
-0.047 -0.0200001 6.07462e-08
-0.0460002 -0.0200001 -1.65547e-06
-0.0449999 -0.0199997 -4.55609e-06
-0.0440006 -0.0200001 -9.1141e-06
-0.0429997 -0.0199996 -1.43109e-05
-0.0420002 -0.02 -2.03785e-05
-0.0409996 -0.0199997 -2.51651e-05
-0.0399998 -0.0200002 -3.0226e-05
-0.0390001 -0.0200001 -3.5602e-05
-0.0379997 -0.0200002 -4.32163e-05
-0.037 -0.0200003 -4.74508e-05
-0.0359996 -0.0200001 -5.53553e-05
-0.0350002 -0.0200003 -5.85998e-05
-0.0339996 -0.0200002 -6.81646e-05
-0.0330003 -0.0200005 -7.34091e-05
-0.0319998 -0.0200004 -8.35985e-05
-0.031 -0.0200003 -8.92859e-05
-0.0299998 -0.0200003 -9.80305e-05
-0.029 -0.0200002 -0.000100521
-0.028 -0.0200003 -0.000112612
-0.0270001 -0.0199999 -0.0001182
-0.0260001 -0.0200004 -0.000131533
-0.0250003 -0.0200002 -0.000136347
-0.0240004 -0.0200005 -0.000146987
-0.0230003 -0.0200003 -0.000153141
-0.0220006 -0.0200006 -0.000162427
-0.0210002 -0.0210008 -0.000168277
-0.0210007 -0.0200006 -0.000168948
-0.02 -0.05 0
-0.02 -0.049 0
-0.0199999 -0.0480003 -1.19769e-06
-0.0199997 -0.047 -2.42569e-06
-0.0199997 -0.0460002 -8.85029e-06
-0.0199997 -0.045 -1.12703e-05
-0.0199996 -0.044 -1.9009e-05
-0.0199994 -0.0429999 -1.93314e-05
-0.0199998 -0.0420003 -2.85862e-05
-0.0199999 -0.041 -3.0674e-05
-0.0199995 -0.0400003 -4.30571e-05
-0.0199999 -0.0390002 -4.78579e-05
-0.0199995 -0.0380004 -6.15118e-05
-0.0199995 -0.0370001 -6.62765e-05
-0.0199993 -0.0360003 -7.96317e-05
-0.0199994 -0.0350001 -8.40977e-05
-0.0199993 -0.0340005 -9.75413e-05
-0.0199993 -0.0330002 -0.000101776
-0.0199995 -0.0320005 -0.000115291
-0.0199998 -0.0310003 -0.000119423
-0.0199998 -0.0300005 -0.000131544
-0.0199999 -0.0290002 -0.000134684
-0.0199999 -0.0280005 -0.000144893
-0.0200001 -0.0270003 -0.000148236
-0.0200001 -0.0260004 -0.000157778
-0.0200002 -0.0250001 -0.000160948
-0.0200003 -0.0240005 -0.000166851
-0.0200004 -0.0230003 -0.00016713
-0.0200006 -0.0220007 -0.000171621
-0.0200007 -0.0210006 -0.00017311
-0.049 -0.019 0
-0.05 -0.019 0
-0.0479999 -0.0189999 5.97258e-07
-0.047 -0.019 1.99524e-07
-0.0459997 -0.0189997 -2.45528e-06
-0.0450001 -0.019 -5.94332e-06
-0.0439999 -0.0189999 -8.70009e-06
-0.0430003 -0.0190002 -1.39295e-05
-0.0419997 -0.019 -2.01719e-05
-0.041 -0.0190001 -2.43639e-05
-0.0399994 -0.019 -2.91038e-05
-0.0390001 -0.0190004 -3.45687e-05
-0.0379998 -0.0190002 -4.11858e-05
-0.0370003 -0.0190003 -4.87344e-05
-0.0359997 -0.0190003 -5.37897e-05
-0.0350001 -0.0190003 -6.17593e-05
-0.034 -0.0190005 -6.76705e-05
-0.033 -0.0190002 -7.6998e-05
-0.0319999 -0.0190002 -8.29195e-05
-0.0310003 -0.0190003 -9.12599e-05
-0.0299999 -0.0190003 -9.42853e-05
-0.0290002 -0.0190005 -0.000103135
-0.0280001 -0.0190003 -0.00010754
-0.027 -0.0190002 -0.000121707
-0.0260004 -0.0190002 -0.0001276
-0.0250002 -0.0190005 -0.000138792
-0.0240003 -0.0190003 -0.00014454
-0.0230001 -0.0190002 -0.000154513
-0.0220009 -0.0190001 -0.000162021
-0.0210002 -0.0190004 -0.000169855
-0.0200007 -0.0200007 -0.000176202
-0.0200006 -0.0190004 -0.00017549
-0.019 -0.05 0
-0.019 -0.049 0
-0.0189999 -0.048 -2.10918e-07
-0.0190001 -0.047 -4.29627e-06
-0.0190001 -0.046 -6.11632e-06
-0.0189997 -0.045 -1.34586e-05
-0.0189998 -0.0440001 -1.42445e-05
-0.0189997 -0.0429998 -2.21522e-05
-0.0189995 -0.0420001 -2.34468e-05
-0.0189996 -0.041 -3.4359e-05
-0.0189996 -0.0400002 -3.8068e-05
-0.0189996 -0.0390001 -5.2156e-05
-0.0189996 -0.0380002 -5.74772e-05
-0.0189992 -0.0370001 -7.23959e-05
-0.0189996 -0.0360003 -7.72741e-05
-0.0189993 -0.0350003 -9.15281e-05
-0.0189994 -0.0340003 -9.5539e-05
-0.0189996 -0.0330006 -0.000109598
-0.0189994 -0.0320001 -0.000114856
-0.0189997 -0.0310006 -0.000127985
-0.0189995 -0.0299999 -0.000132543
-0.019 -0.0290005 -0.000142502
-0.0189997 -0.0280001 -0.000145562
-0.019 -0.0270003 -0.000154955
-0.0189997 -0.0260003 -0.000159071
-0.0189999 -0.0250005 -0.000167143
-0.0189998 -0.0239998 -0.000169437
-0.019 -0.0230005 -0.000173858
-0.019 -0.0220003 -0.000174827
-0.0190002 -0.0210005 -0.000179146
-0.0190002 -0.0200006 -0.000179639
-0.049 -0.018 0
-0.05 -0.018 0
-0.0480001 -0.0180001 6.99555e-07
-0.0469997 -0.018 -7.40702e-07
-0.046 -0.0179998 -3.15212e-06
-0.0449999 -0.0179999 -5.98916e-06
-0.044 -0.0180002 -8.86437e-06
-0.0429999 -0.0179997 -1.38542e-05
-0.0420001 -0.0180001 -1.82917e-05
-0.0409998 -0.0179999 -2.30753e-05
-0.0399996 -0.0180002 -2.65044e-05
-0.039 -0.0180001 -3.33533e-05
-0.0379999 -0.0180003 -4.12642e-05
-0.0370001 -0.0180003 -4.74092e-05
-0.0359996 -0.0180002 -5.45518e-05
-0.0350004 -0.0180001 -6.03458e-05
-0.0339996 -0.0180001 -7.00269e-05
-0.0330003 -0.0180004 -7.65289e-05
-0.0320001 -0.0180004 -8.49458e-05
-0.0310002 -0.0180003 -9.04268e-05
-0.0300001 -0.0180005 -9.74482e-05
-0.0289998 -0.0180002 -0.000100223
-0.028 -0.0180002 -0.000111185
-0.0270005 -0.018 -0.000117143
-0.0259999 -0.018 -0.000130026
-0.0250003 -0.0180001 -0.000135545
-0.0240002 -0.0180002 -0.000144679
-0.0230003 -0.0180003 -0.00015167
-0.0220004 -0.0180003 -0.000160716
-0.0210005 -0.0180004 -0.000167545
-0.0200006 -0.0180007 -0.000173884
-0.0190004 -0.0190007 -0.000180723
-0.0190006 -0.0180007 -0.000179135
-0.018 -0.05 0
-0.018 -0.049 0
-0.0179999 -0.0480001 -1.08334e-06
-0.0179998 -0.0470001 -1.99782e-06
-0.0179998 -0.0459999 -7.47929e-06
-0.0179998 -0.045 -8.77174e-06
-0.0179996 -0.0439999 -1.60151e-05
-0.0179997 -0.0429999 -1.70922e-05
-0.0179996 -0.042 -2.80823e-05
-0.0179997 -0.0409999 -3.17569e-05
-0.0179997 -0.0399999 -4.51392e-05
-0.0179996 -0.0390002 -5.05313e-05
-0.0179995 -0.0380003 -6.49544e-05
-0.0179995 -0.037 -7.00228e-05
-0.0179992 -0.0360003 -8.39154e-05
-0.0179996 -0.0349999 -8.83237e-05
-0.0179996 -0.0340004 -0.000102441
-0.0179994 -0.0330003 -0.000107887
-0.0179999 -0.0320002 -0.000122892
-0.0179995 -0.0310003 -0.000128176
-0.0179999 -0.0300002 -0.000140531
-0.0179996 -0.0290003 -0.000143563
-0.0180002 -0.0280002 -0.000153449
-0.0179998 -0.0270002 -0.000156508
-0.0179999 -0.0260004 -0.000166041
-0.0179999 -0.0250003 -0.000169874
-0.0180001 -0.0240004 -0.000177109
-0.0180001 -0.0230001 -0.000177999
-0.0180002 -0.0220004 -0.000181978
-0.0180002 -0.0210003 -0.000181862
-0.0180001 -0.0200004 -0.000184131
-0.0180004 -0.0190005 -0.000183406
-0.049 -0.017 0
-0.05 -0.017 0
-0.048 -0.017 3.80147e-07
-0.0469998 -0.0169998 7.99831e-08
-0.0459999 -0.0169999 -2.84364e-06
-0.0449999 -0.0169999 -5.72123e-06
-0.0439998 -0.0169997 -7.88658e-06
-0.0430003 -0.0170002 -1.20287e-05
-0.0419995 -0.0169998 -1.71163e-05
-0.0410002 -0.0170001 -2.07994e-05
-0.0399995 -0.017 -2.54426e-05
-0.0390003 -0.0170003 -3.13582e-05
-0.0379997 -0.0170001 -3.90501e-05
-0.0370002 -0.0170002 -4.75158e-05
-0.0359999 -0.0170002 -5.26796e-05
-0.0350002 -0.0170003 -6.11016e-05
-0.0340002 -0.0170004 -6.73506e-05
-0.0330004 -0.0170002 -7.73383e-05
-0.0320001 -0.0170004 -8.3113e-05
-0.0310003 -0.0170003 -9.19058e-05
-0.0299998 -0.0170006 -9.51875e-05
-0.0290004 -0.0170006 -0.000104346
-0.0280001 -0.0170003 -0.000107801
-0.0270002 -0.0170005 -0.000120302
-0.0260004 -0.0170002 -0.000125789
-0.0250002 -0.0170005 -0.000136735
-0.0240003 -0.0170004 -0.000141547
-0.0230002 -0.0170002 -0.000150752
-0.0220007 -0.0170001 -0.000158122
-0.0210002 -0.0170003 -0.000164925
-0.0200005 -0.0170004 -0.000170436
-0.0190003 -0.0170008 -0.000176236
-0.0180002 -0.0180008 -0.000183114
-0.0180005 -0.0170004 -0.000180211
-0.017 -0.05 0
-0.017 -0.049 0
-0.0169999 -0.0479999 -9.28187e-08
-0.0169999 -0.0469999 -3.33229e-06
-0.0169997 -0.0459999 -4.40192e-06
-0.0169993 -0.0449999 -1.06775e-05
-0.0169997 -0.044 -1.22453e-05
-0.0169996 -0.043 -2.20446e-05
-0.0169997 -0.0420001 -2.72462e-05
-0.0169998 -0.0409999 -4.06785e-05
-0.0169997 -0.0400002 -4.61717e-05
-0.0169995 -0.0390001 -6.01606e-05
-0.0169995 -0.0380001 -6.51055e-05
-0.0169994 -0.0370004 -7.86785e-05
-0.0169993 -0.0360002 -8.26928e-05
-0.0169995 -0.0350002 -9.64278e-05
-0.0169995 -0.0340001 -0.000100901
-0.0169995 -0.0330001 -0.000116276
-0.0169996 -0.0320002 -0.000123002
-0.017 -0.0310005 -0.000136983
-0.0169995 -0.03 -0.000142037
-0.0169998 -0.0290004 -0.000151945
-0.0169996 -0.0280001 -0.000155368
-0.0169999 -0.0270003 -0.000164704
-0.0169999 -0.0260001 -0.000169137
-0.017 -0.0250005 -0.000178146
-0.0169999 -0.0239999 -0.000181626
-0.0170002 -0.0230007 -0.000186722
-0.017 -0.0220001 -0.000186057
-0.0169999 -0.0210004 -0.000188091
-0.0170004 -0.0200002 -0.00018598
-0.0169999 -0.0190004 -0.000186209
-0.0170003 -0.0180005 -0.000184501
-0.049 -0.016 0
-0.05 -0.016 0
-0.0480001 -0.016 5.17861e-07
-0.0470001 -0.016 -8.80687e-07
-0.0459998 -0.0159999 -2.93237e-06
-0.045 -0.0159998 -5.7891e-06
-0.0439998 -0.0159998 -8.62013e-06
-0.0430002 -0.0159998 -1.26854e-05
-0.0419999 -0.0160002 -1.59601e-05
-0.041 -0.016 -2.00031e-05
-0.04 -0.0160003 -2.3363e-05
-0.0389999 -0.0160001 -2.96077e-05
-0.0380003 -0.0160002 -3.7976e-05
-0.0370003 -0.016 -4.49005e-05
-0.0359999 -0.0160002 -5.30933e-05
-0.0350002 -0.0160002 -5.86796e-05
-0.0340001 -0.0160001 -6.80417e-05
-0.0330003 -0.0160003 -7.44986e-05
-0.032 -0.016 -8.36407e-05
-0.0310002 -0.0160003 -8.9983e-05
-0.0300002 -0.0160004 -9.84798e-05
-0.0290002 -0.0160001 -0.00010132
-0.028 -0.0160002 -0.000110688
-0.0270005 -0.0160004 -0.000114068
-0.0260002 -0.0160003 -0.00012582
-0.0250003 -0.0160001 -0.000131803
-0.0240003 -0.0160002 -0.000140816
-0.0230002 -0.0160001 -0.000147447
-0.0220005 -0.0160004 -0.000155094
-0.0210007 -0.0160002 -0.00016117
-0.0200006 -0.0160009 -0.000165945
-0.0190003 -0.0160006 -0.00017179
-0.0180003 -0.0160006 -0.000176326
-0.0169999 -0.0170006 -0.00018332
-0.0170002 -0.0160006 -0.000180013
-0.016 -0.05 0
-0.016 -0.049 0
-0.0159998 -0.0479999 -8.0762e-07
-0.0159997 -0.0470001 -1.44941e-06
-0.0159998 -0.046 -6.21088e-06
-0.0159997 -0.0450001 -8.1755e-06
-0.0159998 -0.044 -1.61601e-05
-0.0159996 -0.0429999 -2.04622e-05
-0.0159996 -0.042 -3.35523e-05
-0.0159995 -0.0409998 -3.97905e-05
-0.0159997 -0.0400001 -5.27625e-05
-0.0159996 -0.0390002 -5.8805e-05
-0.0159998 -0.0380002 -7.24946e-05
-0.0159997 -0.0370003 -7.78805e-05
-0.0159998 -0.0360003 -9.07114e-05
-0.0159996 -0.0350001 -9.52995e-05
-0.0159993 -0.0340001 -0.000108971
-0.0159996 -0.0329999 -0.000115829
-0.0159995 -0.0320003 -0.000131116
-0.0159996 -0.0310001 -0.000137747
-0.0159999 -0.0300005 -0.000149823
-0.0159997 -0.0290001 -0.000154132
-0.0160001 -0.0280004 -0.000163997
-0.0159996 -0.0270002 -0.000168072
-0.0159999 -0.0260003 -0.000177338
-0.0159994 -0.0250003 -0.000182376
-0.0159998 -0.0240002 -0.000190153
-0.0159999 -0.0230003 -0.000192129
-0.016 -0.0220003 -0.00019491
-0.0160001 -0.0210002 -0.000193222
-0.016 -0.0200002 -0.000193074
-0.016 -0.0190003 -0.000190591
-0.016 -0.0180005 -0.000189036
-0.0160004 -0.0170004 -0.000186303
-0.049 -0.015 0
-0.05 -0.015 0
-0.0479999 -0.015 -1.64466e-07
-0.0469999 -0.0149999 -6.14353e-07
-0.0459999 -0.015 -3.95231e-06
-0.0449998 -0.0149998 -7.20377e-06
-0.0439998 -0.0149996 -1.00704e-05
-0.0429998 -0.0149998 -1.33314e-05
-0.0419998 -0.0149997 -1.72746e-05
-0.0410005 -0.0150001 -1.9692e-05
-0.0399996 -0.015 -2.38359e-05
-0.0390004 -0.0150003 -2.80416e-05
-0.0379999 -0.015 -3.51299e-05
-0.0370005 -0.015 -4.38788e-05
-0.036 -0.0150001 -5.14265e-05
-0.0350005 -0.0150001 -5.95489e-05
-0.0340001 -0.0150004 -6.54774e-05
-0.0330003 -0.0150001 -7.42806e-05
-0.0320003 -0.0150004 -8.08542e-05
-0.0310003 -0.0150002 -8.99553e-05
-0.0299999 -0.0150003 -9.49755e-05
-0.0290002 -0.0150006 -0.000103183
-0.0280004 -0.0150001 -0.000105345
-0.0270002 -0.0150005 -0.000113847
-0.0260005 -0.0150002 -0.000118441
-0.0250002 -0.0150005 -0.000129603
-0.0240002 -0.0150002 -0.000136131
-0.0230004 -0.0150003 -0.000144825
-0.0220005 -0.0150001 -0.000150661
-0.0210003 -0.0150004 -0.000155527
-0.0200004 -0.0150005 -0.000160221
-0.0190003 -0.0150006 -0.00016525
-0.0180005 -0.0150008 -0.000170635
-0.017 -0.0150004 -0.000175313
-0.0160003 -0.0160004 -0.000183617
-0.0160006 -0.0150003 -0.000179362
-0.015 -0.05 0
-0.015 -0.049 0
-0.015 -0.048 2.74298e-07
-0.0149999 -0.047 -2.35921e-06
-0.0149998 -0.046 -4.30239e-06
-0.015 -0.0450001 -1.10705e-05
-0.0149993 -0.0439999 -1.45092e-05
-0.0149999 -0.0430001 -2.44475e-05
-0.0149996 -0.0419999 -3.1173e-05
-0.0149998 -0.041 -4.31545e-05
-0.0149995 -0.0400001 -4.92292e-05
-0.0149995 -0.0390001 -6.24322e-05
-0.0149995 -0.038 -6.9908e-05
-0.0149995 -0.0370002 -8.37123e-05
-0.0149993 -0.036 -8.96765e-05
-0.0149994 -0.0350001 -0.000102351
-0.0149989 -0.034 -0.000107155
-0.0149994 -0.0329999 -0.000121601
-0.0149993 -0.0320002 -0.000129532
-0.0149997 -0.0310002 -0.000144185
-0.0149996 -0.0300002 -0.000151595
-0.0150001 -0.0290004 -0.000162848
-0.0149993 -0.0280002 -0.000168351
-0.015 -0.0270006 -0.000177638
-0.0149996 -0.0260002 -0.000182426
-0.015 -0.0250004 -0.000190585
-0.0149997 -0.024 -0.000194693
-0.0150001 -0.0230005 -0.000199745
-0.0149997 -0.0220002 -0.000199917
-0.0150001 -0.0210004 -0.000201562
-0.0150001 -0.0200002 -0.000200062
-0.0149998 -0.0190005 -0.00019868
-0.015 -0.0180003 -0.000195733
-0.015 -0.0170002 -0.000192638
-0.015 -0.0160005 -0.000189066
-0.049 -0.014 0
-0.05 -0.014 0
-0.048 -0.0140001 -2.92672e-07
-0.0470002 -0.014 -2.67616e-06
-0.0459999 -0.0139998 -5.30599e-06
-0.0450001 -0.0139999 -9.22875e-06
-0.0439997 -0.0139998 -1.23756e-05
-0.0430003 -0.0139997 -1.59642e-05
-0.042 -0.014 -1.78951e-05
-0.041 -0.0139999 -2.0895e-05
-0.0399998 -0.014 -2.29992e-05
-0.039 -0.0140001 -2.77196e-05
-0.0380003 -0.014 -3.37862e-05
-0.0370002 -0.0140002 -4.10862e-05
-0.0360004 -0.0140002 -5.04725e-05
-0.0350002 -0.0140002 -5.71342e-05
-0.0340002 -0.0140002 -6.48352e-05
-0.0330003 -0.0140003 -7.06983e-05
-0.032 -0.0140001 -7.8908e-05
-0.0310003 -0.0140001 -8.62924e-05
-0.0300001 -0.0140004 -9.50242e-05
-0.0290006 -0.014 -9.81387e-05
-0.028 -0.0140005 -0.000105169
-0.0270004 -0.014 -0.000106216
-0.026 -0.0140005 -0.000115404
-0.0250005 -0.0140003 -0.000122571
-0.0240003 -0.0140001 -0.000133173
-0.0230003 -0.0140001 -0.000140111
-0.0220004 -0.0140002 -0.000145154
-0.0210002 -0.0140001 -0.000149579
-0.0200006 -0.0140006 -0.000153447
-0.0189999 -0.0140006 -0.000159555
-0.0180005 -0.0140005 -0.000164999
-0.0170002 -0.0140005 -0.000170652
-0.0160003 -0.0140004 -0.000174904
-0.0149998 -0.0150004 -0.00018407
-0.0149999 -0.0140006 -0.000179836
-0.014 -0.05 0
-0.014 -0.049 0
-0.0139997 -0.0479998 -3.65106e-07
-0.0139998 -0.0470002 -1.14146e-06
-0.0139998 -0.0459998 -6.39831e-06
-0.0139998 -0.0450001 -9.64368e-06
-0.014 -0.0439999 -1.71738e-05
-0.0139996 -0.043 -2.13254e-05
-0.0139999 -0.0419999 -3.23645e-05
-0.0139992 -0.0410001 -3.86148e-05
-0.0139995 -0.0399999 -5.03375e-05
-0.0139993 -0.0390004 -5.85879e-05
-0.0139995 -0.0379999 -7.31543e-05
-0.0139996 -0.0370001 -8.20988e-05
-0.0139995 -0.0360002 -9.55722e-05
-0.0139995 -0.0350001 -0.000102
-0.0139997 -0.034 -0.000113964
-0.0139994 -0.0330002 -0.000120959
-0.0139998 -0.0320001 -0.000134864
-0.0139993 -0.0310002 -0.000143657
-0.0139999 -0.0300004 -0.000156989
-0.0139995 -0.0290005 -0.000164709
-0.0140001 -0.0280004 -0.000175211
-0.0139996 -0.0270006 -0.000180141
-0.014 -0.0260004 -0.000187516
-0.0139995 -0.0250005 -0.000191642
-0.0139996 -0.0240006 -0.000197581
-0.0139993 -0.0230005 -0.000200548
-0.0139998 -0.0220003 -0.000203863
-0.0139999 -0.0210006 -0.000205166
-0.0139998 -0.0200002 -0.000206502
-0.0139998 -0.0190004 -0.000205707
-0.0139999 -0.0180003 -0.000202827
-0.0139999 -0.0170004 -0.000199483
-0.0140003 -0.0160002 -0.000194912
-0.0140003 -0.0150006 -0.000190434
-0.049 -0.013 0
-0.05 -0.013 0
-0.0479999 -0.0129999 -1.0057e-06
-0.0470001 -0.0129998 -2.12444e-06
-0.0460002 -0.013 -6.33182e-06
-0.0449999 -0.0129996 -9.94305e-06
-0.0440002 -0.0129999 -1.34209e-05
-0.0430003 -0.0129997 -1.63172e-05
-0.0420001 -0.0129996 -1.98232e-05
-0.0410005 -0.0129997 -2.1398e-05
-0.0399997 -0.013 -2.49334e-05
-0.0390003 -0.0130001 -2.73524e-05
-0.0379997 -0.013 -3.213e-05
-0.0370006 -0.0130002 -3.91557e-05
-0.0359996 -0.0130003 -4.72689e-05
-0.0350004 -0.0130001 -5.50994e-05
-0.0340001 -0.0130002 -6.04661e-05
-0.033 -0.0130002 -6.77859e-05
-0.0320002 -0.0130003 -7.40218e-05
-0.0310001 -0.0130004 -8.29412e-05
-0.03 -0.0130002 -8.91326e-05
-0.0290004 -0.0130006 -9.70859e-05
-0.0280001 -0.0130001 -9.9207e-05
-0.0270002 -0.0130004 -0.000104948
-0.0260004 -0.0130002 -0.000108369
-0.0250003 -0.0130004 -0.000118962
-0.0240004 -0.0130003 -0.00012742
-0.0230002 -0.0130002 -0.00013562
-0.0220004 -0.0130001 -0.000139555
-0.0210001 -0.0130003 -0.000142147
-0.0200003 -0.0130004 -0.000147257
-0.0190002 -0.0130005 -0.000152388
-0.0180004 -0.0130005 -0.00015965
-0.0170001 -0.0130005 -0.000164431
-0.0160006 -0.0130004 -0.00016969
-0.0149994 -0.0130006 -0.000172679
-0.0140002 -0.0140003 -0.000184313
-0.0140001 -0.0130006 -0.00017846
-0.013 -0.05 0
-0.013 -0.049 0
-0.013 -0.0479998 7.88581e-08
-0.0129999 -0.047 -2.68764e-06
-0.013 -0.046 -5.03629e-06
-0.013 -0.0450001 -1.14608e-05
-0.0129997 -0.0439998 -1.44494e-05
-0.0129997 -0.043 -2.27899e-05
-0.0129994 -0.0419996 -2.93149e-05
-0.0129997 -0.0410002 -4.04195e-05
-0.0129993 -0.0399997 -4.78508e-05
-0.0129997 -0.0390002 -6.06773e-05
-0.0129996 -0.0379997 -7.03603e-05
-0.0129997 -0.0370002 -8.49002e-05
-0.0129997 -0.036 -9.44425e-05
-0.0129995 -0.0350002 -0.000108094
-0.0129995 -0.0340001 -0.000114271
-0.0129996 -0.0330002 -0.00012727
-0.0129993 -0.0320001 -0.000134819
-0.0129997 -0.0310003 -0.0001489
-0.0129994 -0.0300003 -0.000157432
-0.013 -0.0290005 -0.000169775
-0.0129997 -0.0280005 -0.000176
-0.0129997 -0.0270009 -0.000184751
-0.0129997 -0.0260004 -0.000188027
-0.0129998 -0.0250008 -0.00019415
-0.0129994 -0.0240004 -0.000196894
-0.013 -0.0230007 -0.000202309
-0.0129997 -0.0220003 -0.000204176
-0.0130001 -0.0210008 -0.000208406
-0.0129998 -0.0200002 -0.000209817
-0.0130001 -0.0190006 -0.000210003
-0.0129996 -0.018 -0.000207561
-0.013 -0.0170004 -0.000204003
-0.0129999 -0.0160002 -0.000199813
-0.0129998 -0.0150006 -0.000194207
-0.0129995 -0.0140004 -0.000189259
-0.049 -0.012 0
-0.05 -0.012 0
-0.0479999 -0.0119999 -6.94105e-07
-0.0470003 -0.0119999 -3.55203e-06
-0.0459998 -0.0120001 -5.77523e-06
-0.0450002 -0.012 -9.83479e-06
-0.0440001 -0.0119998 -1.30063e-05
-0.0430005 -0.012 -1.70851e-05
-0.042 -0.012 -1.91968e-05
-0.0410002 -0.0119999 -2.24389e-05
-0.0399998 -0.012 -2.40413e-05
-0.039 -0.0119998 -2.78314e-05
-0.0379999 -0.012 -3.12458e-05
-0.0370001 -0.012 -3.68303e-05
-0.0360001 -0.012 -4.47663e-05
-0.0350002 -0.0120001 -5.17854e-05
-0.0339999 -0.012 -5.86471e-05
-0.033 -0.0120002 -6.46307e-05
-0.0320001 -0.0120003 -7.14538e-05
-0.0310001 -0.0120003 -7.9324e-05
-0.0300001 -0.0120004 -8.76373e-05
-0.0290001 -0.0119999 -9.21618e-05
-0.028 -0.0120004 -9.799e-05
-0.0270003 -0.0120001 -9.90873e-05
-0.0260003 -0.0120003 -0.000105758
-0.0250006 -0.0120001 -0.000112807
-0.0240003 -0.0120002 -0.000122773
-0.0230004 -0.0120003 -0.000129558
-0.0220001 -0.0120004 -0.000132598
-0.0210003 -0.0120004 -0.0001361
-0.0200004 -0.0120005 -0.000139685
-0.0190002 -0.0120003 -0.000146705
-0.0180005 -0.0120005 -0.000152699
-0.0170001 -0.0120006 -0.000158859
-0.0160002 -0.0120007 -0.000162345
-0.0149999 -0.0120004 -0.000166531
-0.014 -0.0120006 -0.000169032
-0.0129999 -0.0130005 -0.000181113
-0.0129995 -0.0120005 -0.000174399
-0.012 -0.05 0
-0.012 -0.049 0
-0.0120001 -0.0479999 -1.12213e-06
-0.0119999 -0.0470001 -2.91076e-06
-0.0119999 -0.0459999 -7.74293e-06
-0.012 -0.0450001 -1.09822e-05
-0.0119997 -0.0439998 -1.71425e-05
-0.0119999 -0.0430001 -2.21829e-05
-0.012 -0.0419999 -3.25934e-05
-0.0119996 -0.0410005 -4.06678e-05
-0.0119995 -0.0399997 -5.11622e-05
-0.0119995 -0.0390004 -5.96907e-05
-0.0119997 -0.038 -7.24548e-05
-0.0119997 -0.0369998 -8.31339e-05
-0.0119997 -0.0360002 -9.80253e-05
-0.0119995 -0.0350001 -0.000107674
-0.0119997 -0.0340003 -0.000121001
-0.0119994 -0.0330006 -0.000128465
-0.0119997 -0.0320003 -0.000142053
-0.0119996 -0.0310008 -0.00014969
-0.0119997 -0.0300006 -0.00016329
-0.0119994 -0.0290006 -0.000170649
-0.0119996 -0.0280006 -0.000182684
-0.0119996 -0.0270007 -0.000186988
-0.0119996 -0.0260005 -0.000195424
-0.0119991 -0.0250006 -0.000197561
-0.0119995 -0.0240005 -0.000204165
-0.0119989 -0.0230005 -0.000206447
-0.0119998 -0.0220005 -0.00021158
-0.0119993 -0.0210009 -0.00021242
-0.0119999 -0.0200005 -0.000215197
-0.0119995 -0.0190008 -0.00021351
-0.012 -0.0180002 -0.00021143
-0.0119999 -0.0170003 -0.000206523
-0.0120002 -0.0160003 -0.000202606
-0.012 -0.0150008 -0.000197321
-0.0120002 -0.0140003 -0.000192475
-0.0119998 -0.0130007 -0.000186639
-0.049 -0.011 0
-0.05 -0.011 0
-0.0479999 -0.0109998 -1.16472e-06
-0.047 -0.0109996 -1.80705e-06
-0.0460001 -0.0109998 -5.53234e-06
-0.0450001 -0.0109996 -7.99523e-06
-0.0440004 -0.0109998 -1.19964e-05
-0.0429999 -0.0109994 -1.50239e-05
-0.0420003 -0.0109998 -1.94555e-05
-0.0410002 -0.0109997 -2.10106e-05
-0.0399998 -0.0110001 -2.46047e-05
-0.0390004 -0.0110001 -2.5821e-05
-0.0379996 -0.0109998 -2.92051e-05
-0.0370004 -0.0110001 -3.40401e-05
-0.0359996 -0.0110001 -4.1618e-05
-0.0350002 -0.0110003 -4.92212e-05
-0.0339999 -0.0110004 -5.57912e-05
-0.0330004 -0.0110002 -6.27492e-05
-0.0320001 -0.0110001 -6.87541e-05
-0.0310001 -0.0110003 -7.61799e-05
-0.03 -0.0110003 -8.24965e-05
-0.0290005 -0.0110008 -8.99056e-05
-0.0280001 -0.0110002 -9.27027e-05
-0.0270004 -0.0110005 -9.75462e-05
-0.0260002 -0.0110004 -0.000100935
-0.025 -0.0110005 -0.000109598
-0.0240004 -0.0110003 -0.000116871
-0.0230002 -0.0110003 -0.000123924
-0.0220002 -0.0110001 -0.000127396
-0.0210004 -0.0110003 -0.00013007
-0.0200004 -0.0110001 -0.000135054
-0.0190001 -0.0110004 -0.000140104
-0.0180003 -0.0110001 -0.00014697
-0.0170002 -0.0110004 -0.000151359
-0.0160004 -0.0110004 -0.000155422
-0.0149995 -0.0110006 -0.000157505
-0.0139999 -0.0110008 -0.000161642
-0.0129996 -0.0110006 -0.000164595
-0.0119999 -0.0120004 -0.000178575
-0.012 -0.0110004 -0.000170862
-0.011 -0.05 0
-0.011 -0.049 0
-0.011 -0.0479997 -8.01161e-07
-0.0109999 -0.0470002 -4.21662e-06
-0.0109999 -0.0459998 -7.26059e-06
-0.011 -0.0450003 -1.3363e-05
-0.0110001 -0.0439997 -1.73326e-05
-0.0109999 -0.043 -2.55107e-05
-0.0109997 -0.0419997 -3.33742e-05
-0.0109994 -0.0410004 -4.4114e-05
-0.0109998 -0.0399998 -5.21635e-05
-0.0109996 -0.0390004 -6.29715e-05
-0.0109997 -0.0379998 -7.25422e-05
-0.0109998 -0.0370001 -8.65967e-05
-0.0109997 -0.036 -9.84733e-05
-0.0109997 -0.0350001 -0.000113537
-0.0109994 -0.0340001 -0.000121909
-0.0109997 -0.0330006 -0.000135761
-0.0109993 -0.0320007 -0.000143834
-0.0109996 -0.0310006 -0.00015793
-0.0109996 -0.0300008 -0.000165845
-0.0109996 -0.0290008 -0.000178989
-0.0109998 -0.0280006 -0.000185884
-0.0109998 -0.0270005 -0.000197485
-0.011 -0.0260004 -0.000201988
-0.0109998 -0.0250007 -0.000210102
-0.0109996 -0.0240003 -0.000212175
-0.0109996 -0.0230005 -0.000218191
-0.0109996 -0.0220004 -0.000218049
-0.0109998 -0.0210008 -0.000221269
-0.0109995 -0.0200006 -0.000220331
-0.0109997 -0.0190008 -0.000220372
-0.0109996 -0.0180004 -0.00021634
-0.0109997 -0.0170007 -0.000212757
-0.0109996 -0.0160001 -0.000206438
-0.0109997 -0.0150007 -0.000201233
-0.0109993 -0.0140003 -0.000194931
-0.0109994 -0.0130009 -0.000188836
-0.0109993 -0.0120003 -0.000181924
-0.049 -0.01 0
-0.05 -0.01 0
-0.048 -0.00999979 -3.97823e-07
-0.0470001 -0.0100001 -3.00754e-06
-0.0459998 -0.01 -4.01387e-06
-0.0450002 -0.00999988 -7.57395e-06
-0.0440001 -0.0099999 -1.04315e-05
-0.0430003 -0.00999999 -1.47057e-05
-0.0419999 -0.00999978 -1.67799e-05
-0.0410004 -0.01 -2.01696e-05
-0.0400001 -0.01 -2.13644e-05
-0.0390003 -0.00999985 -2.47088e-05
-0.0379998 -0.00999972 -2.72522e-05
-0.0370001 -0.0099998 -3.24403e-05
-0.0359998 -0.00999991 -3.99653e-05
-0.035 -0.0100002 -4.81996e-05
-0.0339999 -0.0100001 -5.55663e-05
-0.0330002 -0.0100002 -6.1579e-05
-0.0319999 -0.0100002 -6.66798e-05
-0.0310001 -0.00999991 -7.29106e-05
-0.03 -0.0100002 -7.94946e-05
-0.0290003 -0.00999985 -8.41018e-05
-0.0280003 -0.0100005 -8.93665e-05
-0.0270001 -0.00999985 -9.20037e-05
-0.026 -0.0100004 -9.84595e-05
-0.0250003 -0.0100003 -0.000104779
-0.0240003 -0.0100004 -0.000112277
-0.0230005 -0.0100002 -0.000117599
-0.0220003 -0.0100005 -0.000120973
-0.0210003 -0.0100004 -0.000125342
-0.0200001 -0.0100005 -0.000128848
-0.0190004 -0.0100003 -0.000134401
-0.0180001 -0.0100004 -0.00013919
-0.0170001 -0.0100004 -0.000144329
-0.016 -0.0100008 -0.000146922
-0.0149997 -0.0100005 -0.000150123
-0.0139999 -0.0100006 -0.000151796
-0.0129995 -0.0100005 -0.000156981
-0.0119998 -0.0100004 -0.000160718
-0.0109991 -0.0110007 -0.000173969
-0.0109994 -0.0100005 -0.000164285
-0.01 -0.05 0
-0.01 -0.049 0
-0.01 -0.0480001 -1.0171e-06
-0.00999997 -0.0470002 -3.1703e-06
-0.00999998 -0.0459998 -8.49931e-06
-0.01 -0.0450001 -1.30992e-05
-0.00999995 -0.0439996 -2.01764e-05
-0.00999965 -0.043 -2.5772e-05
-0.00999972 -0.0419996 -3.59313e-05
-0.00999995 -0.0410001 -4.44716e-05
-0.00999956 -0.0399996 -5.55292e-05
-0.00999991 -0.0390002 -6.44262e-05
-0.00999979 -0.038 -7.73486e-05
-0.00999949 -0.037 -8.86078e-05
-0.00999976 -0.0360004 -0.00010397
-0.00999971 -0.0350001 -0.000114359
-0.00999967 -0.0340003 -0.000128714
-0.00999943 -0.0330002 -0.000137471
-0.00999995 -0.0320007 -0.000152469
-0.00999988 -0.0310003 -0.000160861
-0.00999959 -0.0300008 -0.000174726
-0.00999959 -0.0290005 -0.000181948
-0.00999921 -0.0280007 -0.00019477
-0.00999969 -0.0270005 -0.000200685
-0.00999917 -0.0260007 -0.000211709
-0.00999951 -0.0250006 -0.0002152
-0.00999897 -0.0240007 -0.000222131
-0.00999957 -0.0230005 -0.000223245
-0.00999929 -0.0220007 -0.000226354
-0.00999921 -0.0210003 -0.000224776
-0.00999945 -0.0200005 -0.000226208
-0.00999949 -0.0190007 -0.00022451
-0.00999946 -0.0180005 -0.000223242
-0.00999972 -0.0170006 -0.000217903
-0.00999964 -0.0160004 -0.000213598
-0.00999964 -0.0150007 -0.000206028
-0.00999962 -0.0140006 -0.000199798
-0.00999973 -0.0130006 -0.000192034
-0.00999953 -0.0120006 -0.000184392
-0.00999978 -0.0110006 -0.000175925
-0.049 -0.009 0
-0.05 -0.009 0
-0.0480001 -0.00899984 -7.95018e-07
-0.0469996 -0.00899976 -7.60378e-07
-0.0459999 -0.00899957 -4.22551e-06
-0.0450002 -0.00899974 -5.84939e-06
-0.044 -0.0089994 -9.92254e-06
-0.043 -0.00899955 -1.16413e-05
-0.0420001 -0.00899964 -1.55195e-05
-0.0409999 -0.00899973 -1.62588e-05
-0.0399998 -0.00900006 -2.03984e-05
-0.0390003 -0.00899982 -2.14946e-05
-0.0379999 -0.00899992 -2.58637e-05
-0.0370004 -0.00899985 -3.03408e-05
-0.0359998 -0.00900019 -3.91133e-05
-0.0350003 -0.00900036 -4.65391e-05
-0.0339999 -0.0090003 -5.40596e-05
-0.0330001 -0.00900033 -5.85488e-05
-0.0319999 -0.00900011 -6.33995e-05
-0.0310001 -0.00900056 -6.7319e-05
-0.0299999 -0.00900011 -7.34003e-05
-0.0290003 -0.00900061 -7.91254e-05
-0.028 -0.00900014 -8.38031e-05
-0.0270004 -0.00900051 -8.88438e-05
-0.0260002 -0.00900015 -9.45566e-05
-0.0250002 -0.00900028 -0.000101224
-0.0240003 -0.00900007 -0.000106865
-0.0230001 -0.00900041 -0.000111395
-0.0220003 -0.00900018 -0.00011557
-0.0210002 -0.00900033 -0.000118894
-0.0200002 -0.00900031 -0.000124035
-0.0190002 -0.00900013 -0.000127196
-0.0180003 -0.0090001 -0.000132614
-0.0170002 -0.00900029 -0.000135982
-0.0160002 -0.00900042 -0.000139726
-0.0149997 -0.00900085 -0.000141392
-0.014 -0.0090008 -0.000144904
-0.0129995 -0.00900075 -0.000147251
-0.0119998 -0.00900085 -0.000152233
-0.0109994 -0.00900057 -0.000154277
-0.00999964 -0.0100005 -0.000165961
-0.00999956 -0.00900086 -0.000155459
-0.009 -0.05 0
-0.009 -0.049 0
-0.00900003 -0.0479999 -3.33807e-07
-0.00900003 -0.0470001 -3.09527e-06
-0.00899998 -0.0459999 -6.76279e-06
-0.00899997 -0.0449999 -1.37675e-05
-0.00899994 -0.044 -1.91868e-05
-0.00899968 -0.043 -2.73903e-05
-0.00899952 -0.0419997 -3.56323e-05
-0.00899959 -0.0410002 -4.68896e-05
-0.00899955 -0.0399996 -5.70163e-05
-0.00899962 -0.0390001 -6.88833e-05
-0.00899956 -0.0379999 -7.98309e-05
-0.00899973 -0.0370006 -9.33401e-05
-0.00899939 -0.0360003 -0.000105517
-0.00899922 -0.0350004 -0.000119744
-0.00899959 -0.0340002 -0.000129916
-0.00899941 -0.0330004 -0.00014453
-0.00899973 -0.0320004 -0.000155396
-0.00899954 -0.0310006 -0.000169988
-0.00899957 -0.0300006 -0.000179364
-0.00899938 -0.0290006 -0.000191164
-0.00899998 -0.0280008 -0.000198208
-0.00899934 -0.027001 -0.000208968
-0.00899977 -0.0260005 -0.000215355
-0.00899941 -0.0250008 -0.000223578
-0.00899972 -0.0240007 -0.000226389
-0.00899939 -0.0230007 -0.000230204
-0.00899946 -0.0220005 -0.000229346
-0.00899946 -0.0210008 -0.000229491
-0.00899926 -0.0200005 -0.000229024
-0.00899942 -0.0190006 -0.000228326
-0.00899928 -0.0180007 -0.000226782
-0.00899939 -0.0170006 -0.000223126
-0.0089992 -0.0160006 -0.000218663
-0.0089992 -0.0150006 -0.000211794
-0.00899928 -0.0140006 -0.000204498
-0.00899881 -0.0130009 -0.000195285
-0.00899896 -0.0120005 -0.000187126
-0.00899902 -0.0110008 -0.000177701
-0.00899918 -0.0100006 -0.000167648
-0.049 -0.008 0
-0.05 -0.008 0
-0.0479999 -0.00800009 3.77986e-07
-0.0470002 -0.00800008 -1.35196e-06
-0.046 -0.00800005 -1.80027e-06
-0.0449998 -0.00800017 -5.33152e-06
-0.0439998 -0.00799987 -7.44402e-06
-0.0429999 -0.00799966 -1.00939e-05
-0.0419998 -0.00799985 -1.0724e-05
-0.0410001 -0.00799967 -1.38106e-05
-0.0399998 -0.0079997 -1.59306e-05
-0.0390003 -0.00799999 -2.05913e-05
-0.0380002 -0.0079998 -2.43099e-05
-0.0369999 -0.00799971 -3.01185e-05
-0.036 -0.008 -3.76683e-05
-0.0350001 -0.00800016 -4.56751e-05
-0.0339998 -0.00800042 -5.18859e-05
-0.0330003 -0.00800011 -5.56881e-05
-0.0319998 -0.00800025 -5.84928e-05
-0.0310003 -0.00800009 -6.28371e-05
-0.03 -0.00799999 -6.85619e-05
-0.0289999 -0.00799981 -7.35318e-05
-0.028 -0.00800028 -7.92571e-05
-0.0270002 -0.00800012 -8.40457e-05
-0.026 -0.00800051 -9.04468e-05
-0.0250003 -0.00800033 -9.62495e-05
-0.0239999 -0.00800051 -0.000101067
-0.0230005 -0.00800017 -0.000104925
-0.022 -0.00800033 -0.000107671
-0.0209999 -0.00800028 -0.000112784
-0.0200002 -0.00800015 -0.000115496
-0.0190005 -0.00800047 -0.000120294
-0.018 -0.00800057 -0.000123426
-0.0170004 -0.00800041 -0.000128462
-0.0160002 -0.00800063 -0.000130827
-0.0149994 -0.00800077 -0.000134436
-0.014 -0.00800061 -0.000135881
-0.0129996 -0.00800057 -0.000140465
-0.0119998 -0.00800045 -0.000142532
-0.0109994 -0.00800055 -0.000145246
-0.00999953 -0.00800047 -0.000145849
-0.00899878 -0.00900077 -0.000156592
-0.00899888 -0.0080008 -0.000147059
-0.008 -0.05 0
-0.008 -0.049 0
-0.00799994 -0.0479999 -8.13064e-07
-0.00800001 -0.0470001 -3.05182e-06
-0.00799968 -0.0459998 -7.86463e-06
-0.00799972 -0.0450002 -1.32309e-05
-0.00799974 -0.0439998 -2.05841e-05
-0.00799962 -0.0429998 -2.82175e-05
-0.00799981 -0.0419999 -3.83518e-05
-0.00799967 -0.041 -4.95822e-05
-0.00799969 -0.0399998 -6.07082e-05
-0.00799935 -0.0390003 -7.20169e-05
-0.00799948 -0.0379999 -8.36272e-05
-0.00799981 -0.0370004 -9.61213e-05
-0.00799938 -0.0360002 -0.000108911
-0.00799964 -0.0350003 -0.000121736
-0.00799937 -0.0340005 -0.000135806
-0.00799967 -0.0330004 -0.000148895
-0.00799934 -0.0320006 -0.000163315
-0.00799966 -0.0310005 -0.000175379
-0.00799939 -0.0300006 -0.000187712
-0.00799969 -0.0290005 -0.00019751
-0.00799917 -0.0280007 -0.000206915
-0.00799968 -0.0270008 -0.000214416
-0.00799927 -0.0260007 -0.000223383
-0.00799941 -0.0250005 -0.000230259
-0.00799937 -0.0240006 -0.000235544
-0.00799928 -0.0230006 -0.000238662
-0.00799933 -0.0220005 -0.000238261
-0.00799922 -0.0210004 -0.000236844
-0.00799921 -0.0200002 -0.000233846
-0.00799905 -0.0190006 -0.00023298
-0.00799941 -0.0180005 -0.000229236
-0.00799944 -0.0170006 -0.000226244
-0.00799931 -0.0160007 -0.000221961
-0.00799942 -0.0150006 -0.000217054
-0.00799945 -0.0140008 -0.000209488
-0.00799922 -0.0130006 -0.000201613
-0.00799913 -0.0120006 -0.000191059
-0.00799939 -0.0110009 -0.000181803
-0.00799925 -0.0100006 -0.000170047
-0.00799936 -0.00900087 -0.0001592
-0.049 -0.007 0
-0.05 -0.007 0
-0.0480001 -0.00699998 1.16543e-08
-0.0470001 -0.00699987 1.3783e-06
-0.0459998 -0.00699981 -1.70619e-06
-0.045 -0.0069998 -3.07292e-06
-0.0439998 -0.00699954 -6.237e-06
-0.043 -0.00699959 -6.29473e-06
-0.0419997 -0.0069996 -8.42874e-06
-0.041 -0.0069996 -9.56715e-06
-0.0399999 -0.00699948 -1.46116e-05
-0.0390001 -0.00699956 -1.82099e-05
-0.0379999 -0.00699979 -2.34492e-05
-0.0370002 -0.00699999 -2.87601e-05
-0.0359998 -0.00700002 -3.63307e-05
-0.0350001 -0.0070003 -4.26673e-05
-0.0340002 -0.00700043 -4.83265e-05
-0.0330001 -0.00700041 -5.13133e-05
-0.0320002 -0.00700006 -5.47227e-05
-0.0310001 -0.00700044 -5.76028e-05
-0.0299999 -0.00700029 -6.32952e-05
-0.0290003 -0.00700046 -6.86236e-05
-0.0279996 -0.00700026 -7.40155e-05
-0.0270002 -0.00700051 -7.8853e-05
-0.0259997 -0.00700006 -8.42444e-05
-0.0250001 -0.00700049 -8.89414e-05
-0.0240003 -0.00700027 -9.34041e-05
-0.0230001 -0.00700019 -9.69714e-05
-0.0219999 -0.00700018 -0.000101506
-0.0209997 -0.00700014 -0.000104629
-0.0200004 -0.00700013 -0.000109723
-0.0189999 -0.00700019 -0.000111863
-0.0180003 -0.0070004 -0.000116366
-0.0169999 -0.00700047 -0.000118448
-0.016 -0.00700061 -0.000122191
-0.0149999 -0.00700074 -0.000124155
-0.0140002 -0.00700078 -0.00012808
-0.0129994 -0.00700091 -0.000130208
-0.0119999 -0.0070008 -0.000134321
-0.0109994 -0.00700074 -0.000136102
-0.00999936 -0.00700082 -0.000136963
-0.00899903 -0.00700067 -0.000137567
-0.00799916 -0.00800072 -0.000148378
-0.00799935 -0.007001 -0.000138331
-0.007 -0.05 0
-0.007 -0.049 0
-0.00700023 -0.0480002 -9.8997e-07
-0.00700007 -0.0470002 -3.98781e-06
-0.00700008 -0.0459998 -8.02999e-06
-0.00699996 -0.0450001 -1.40638e-05
-0.00699964 -0.044 -2.1006e-05
-0.0069996 -0.0429999 -2.93701e-05
-0.0069996 -0.0419999 -3.99909e-05
-0.00699975 -0.0410001 -5.07281e-05
-0.00699933 -0.0399997 -6.26467e-05
-0.00699959 -0.0390005 -7.2777e-05
-0.00699955 -0.0379998 -8.52844e-05
-0.00699953 -0.0370005 -9.65884e-05
-0.00699953 -0.0359998 -0.000110633
-0.00699941 -0.0350008 -0.000124034
-0.00699946 -0.0340002 -0.0001386
-0.00699949 -0.0330008 -0.000153416
-0.00699938 -0.0320005 -0.000167392
-0.00699952 -0.0310009 -0.000181047
-0.00699938 -0.0300006 -0.000193803
-0.00699933 -0.029001 -0.000204713
-0.00699957 -0.0280004 -0.000213386
-0.00699964 -0.0270008 -0.000221333
-0.00699917 -0.0260008 -0.000229017
-0.00699939 -0.025001 -0.000236262
-0.00699923 -0.0240004 -0.000241952
-0.00699945 -0.0230008 -0.000245081
-0.00699913 -0.0220005 -0.000245755
-0.00699949 -0.0210005 -0.00024252
-0.00699894 -0.0200005 -0.000241058
-0.00699924 -0.0190008 -0.000236199
-0.00699918 -0.0180003 -0.000234286
-0.00699916 -0.0170007 -0.000228544
-0.00699899 -0.0160006 -0.000226392
-0.00699912 -0.0150009 -0.000219383
-0.0069988 -0.0140006 -0.000214356
-0.00699903 -0.0130009 -0.000204068
-0.00699869 -0.0120006 -0.00019604
-0.00699893 -0.0110007 -0.000184554
-0.0069989 -0.0100007 -0.000174131
-0.00699926 -0.00900059 -0.000161347
-0.00699892 -0.008001 -0.000151201
-0.049 -0.006 0
-0.05 -0.006 0
-0.048 -0.00600004 9.69445e-07
-0.0470001 -0.00600005 1.32484e-07
-0.0460001 -0.00599976 2.00614e-07
-0.0449999 -0.00599992 -3.37963e-06
-0.044 -0.00599989 -4.39591e-06
-0.043 -0.00599982 -6.04463e-06
-0.042 -0.00599981 -5.55281e-06
-0.0409999 -0.00599959 -8.89934e-06
-0.0399998 -0.00599974 -1.14624e-05
-0.0389999 -0.00599963 -1.74901e-05
-0.0380001 -0.00599989 -2.16544e-05
-0.037 -0.00600011 -2.78364e-05
-0.0359999 -0.006 -3.32625e-05
-0.0350002 -0.00600001 -3.96102e-05
-0.034 -0.00600027 -4.39282e-05
-0.0330003 -0.0059999 -4.78695e-05
-0.032 -0.00600021 -5.03674e-05
-0.031 -0.006 -5.47074e-05
-0.03 -0.00600011 -5.88764e-05
-0.029 -0.00600002 -6.36211e-05
-0.0279999 -0.00600009 -6.78911e-05
-0.0269997 -0.00600005 -7.25783e-05
-0.026 -0.0060003 -7.60718e-05
-0.0249999 -0.00600013 -8.08781e-05
-0.0239998 -0.00600032 -8.44216e-05
-0.023 -0.00600034 -8.96907e-05
-0.0219999 -0.0060002 -9.28636e-05
-0.0209999 -0.00600029 -9.9044e-05
-0.0199998 -0.00600019 -0.000100739
-0.0190003 -0.00600032 -0.000105434
-0.0179997 -0.00600035 -0.000106105
-0.017 -0.00600066 -0.000109468
-0.0160003 -0.00600068 -0.000110208
-0.0149998 -0.00600073 -0.000114267
-0.0139998 -0.00600091 -0.000116565
-0.0129999 -0.00600071 -0.000121326
-0.0119994 -0.00600061 -0.000122933
-0.0109995 -0.00600051 -0.00012596
-0.00999964 -0.00600059 -0.000126573
-0.00899935 -0.00600072 -0.000127039
-0.00799899 -0.0060007 -0.000126314
-0.00699898 -0.0070007 -0.00013917
-0.00699912 -0.00600094 -0.000126917
-0.006 -0.05 0
-0.006 -0.049 0
-0.00600001 -0.0479999 -1.37476e-06
-0.00599981 -0.0469998 -4.8835e-06
-0.00599999 -0.046 -9.68683e-06
-0.00599965 -0.0450001 -1.56147e-05
-0.00599968 -0.0439999 -2.23889e-05
-0.00599968 -0.0430001 -3.09511e-05
-0.00599938 -0.0419998 -3.98473e-05
-0.00599944 -0.0410003 -5.20432e-05
-0.00599932 -0.0400001 -6.2107e-05
-0.00599932 -0.0390003 -7.50711e-05
-0.00599978 -0.0380004 -8.68302e-05
-0.0059994 -0.0370003 -0.000101481
-0.00599941 -0.0360004 -0.000113973
-0.00599951 -0.0350004 -0.000128828
-0.00599953 -0.0340005 -0.000143712
-0.00599969 -0.0330007 -0.000159107
-0.00599987 -0.0320007 -0.000173594
-0.00599953 -0.0310007 -0.000187086
-0.00599974 -0.0300007 -0.000200327
-0.00599919 -0.0290007 -0.000212863
-0.00599969 -0.0280009 -0.000222153
-0.00599939 -0.0270008 -0.00022822
-0.00599975 -0.0260006 -0.000234225
-0.00599923 -0.0250007 -0.000240384
-0.00599926 -0.0240006 -0.000245869
-0.00599881 -0.0230006 -0.000250733
-0.00599938 -0.0220009 -0.000251362
-0.00599901 -0.0210007 -0.000250271
-0.00599912 -0.0200007 -0.000245522
-0.00599887 -0.0190005 -0.000243256
-0.00599915 -0.0180007 -0.00023758
-0.00599881 -0.0170006 -0.000233854
-0.00599892 -0.0160007 -0.000229065
-0.00599887 -0.0150005 -0.000223913
-0.00599918 -0.0140007 -0.000215922
-0.00599897 -0.0130009 -0.000207634
-0.00599924 -0.0120008 -0.000196382
-0.00599902 -0.0110007 -0.000186807
-0.0059992 -0.0100008 -0.000175036
-0.00599924 -0.00900069 -0.000164066
-0.00599899 -0.00800077 -0.00015284
-0.00599893 -0.00700089 -0.000141146
-0.049 -0.005 0
-0.05 -0.005 0
-0.048 -0.00500015 -1.16822e-08
-0.0470002 -0.00499994 1.19912e-06
-0.046 -0.00499993 -1.79415e-06
-0.0450001 -0.00499963 -3.36851e-06
-0.0439998 -0.00499954 -5.57936e-06
-0.043 -0.00499955 -5.89879e-06
-0.0419999 -0.00499937 -6.67846e-06
-0.041 -0.00499954 -8.18979e-06
-0.0400001 -0.00499954 -1.13405e-05
-0.0389999 -0.00499959 -1.54571e-05
-0.038 -0.0049998 -1.96314e-05
-0.037 -0.005 -2.52495e-05
-0.036 -0.00500027 -2.98177e-05
-0.0350003 -0.00500034 -3.47619e-05
-0.0340002 -0.00500026 -3.88039e-05
-0.0329998 -0.00500042 -4.35653e-05
-0.0320001 -0.00500021 -4.73814e-05
-0.0309998 -0.0050003 -5.05694e-05
-0.03 -0.00500031 -5.39078e-05
-0.029 -0.00500045 -5.80167e-05
-0.0279998 -0.00500028 -6.21431e-05
-0.0270002 -0.00500041 -6.54699e-05
-0.0259997 -0.00500024 -6.86414e-05
-0.0249998 -0.00500024 -7.12622e-05
-0.0239996 -0.00500029 -7.55276e-05
-0.0229998 -0.00500041 -8.01397e-05
-0.0219996 -0.00500006 -8.64011e-05
-0.0209995 -0.00500009 -9.01004e-05
-0.0199999 -0.00500012 -9.56888e-05
-0.0189995 -0.00500019 -9.65593e-05
-0.0180002 -0.00500046 -9.94377e-05
-0.0169998 -0.00500045 -9.81029e-05
-0.016 -0.00500081 -0.000100818
-0.0149998 -0.00500104 -0.000102564
-0.0139998 -0.00500079 -0.000108069
-0.0129998 -0.00500118 -0.000110429
-0.0119998 -0.00500099 -0.000114363
-0.0109998 -0.00500066 -0.000115555
-0.00999961 -0.00500092 -0.000116724
-0.00899945 -0.00500087 -0.000116217
-0.00799955 -0.00500063 -0.000115192
-0.00699898 -0.00500067 -0.000114183
-0.00599887 -0.0060007 -0.000127778
-0.00599909 -0.0050008 -0.000115636
-0.005 -0.05 0
-0.005 -0.049 0
-0.00500017 -0.0480001 -1.26213e-06
-0.00500014 -0.0469996 -4.73101e-06
-0.00499984 -0.0460002 -9.87332e-06
-0.00499986 -0.0450002 -1.63456e-05
-0.00499939 -0.0439999 -2.41117e-05
-0.00499945 -0.0429998 -3.14949e-05
-0.00499947 -0.042 -4.16525e-05
-0.00499972 -0.0410002 -5.15748e-05
-0.00499947 -0.0400001 -6.48637e-05
-0.0049994 -0.0390004 -7.66269e-05
-0.00499982 -0.0380001 -9.2283e-05
-0.00499973 -0.0370008 -0.000105359
-0.00499971 -0.0360006 -0.000120366
-0.00499978 -0.0350007 -0.000134057
-0.00499956 -0.0340007 -0.000148804
-0.00499924 -0.0330007 -0.000164465
-0.00499952 -0.0320005 -0.000178194
-0.0049995 -0.0310009 -0.00019308
-0.00499947 -0.0300007 -0.000206154
-0.00499947 -0.029001 -0.000219592
-0.00499957 -0.0280009 -0.000228814
-0.00499951 -0.0270006 -0.000234234
-0.0049994 -0.0260007 -0.000237599
-0.00499958 -0.0250006 -0.000243426
-0.00499933 -0.0240007 -0.000247907
-0.0049994 -0.0230008 -0.000252957
-0.00499897 -0.0220008 -0.000255155
-0.00499943 -0.0210007 -0.000253741
-0.00499907 -0.0200008 -0.000251314
-0.00499902 -0.0190007 -0.000245788
-0.00499883 -0.0180006 -0.000241839
-0.00499887 -0.0170007 -0.00023599
-0.00499879 -0.0160006 -0.000232419
-0.0049989 -0.0150007 -0.000225235
-0.00499865 -0.0140007 -0.000218285
-0.00499917 -0.0130007 -0.000207425
-0.00499862 -0.0120009 -0.000197182
-0.0049989 -0.0110008 -0.000186385
-0.00499878 -0.0100011 -0.000175905
-0.0049988 -0.00900067 -0.000165319
-0.00499886 -0.0080009 -0.000154975
-0.00499909 -0.0070007 -0.000143204
-0.00499872 -0.00600077 -0.000129828
-0.049 -0.004 0
-0.05 -0.004 0
-0.0480001 -0.00399986 4.95055e-07
-0.0469999 -0.00399995 -8.34958e-07
-0.0460001 -0.00399998 -1.36557e-06
-0.0450001 -0.00399981 -4.66806e-06
-0.0440001 -0.00399993 -5.94236e-06
-0.0430001 -0.00399974 -7.52431e-06
-0.0419999 -0.00399966 -7.61798e-06
-0.0409999 -0.00399954 -9.36998e-06
-0.04 -0.00399955 -1.0411e-05
-0.0389997 -0.00399978 -1.38338e-05
-0.0379999 -0.0039997 -1.74121e-05
-0.037 -0.00400015 -2.20663e-05
-0.0359999 -0.00400006 -2.57069e-05
-0.0350001 -0.00399998 -2.99548e-05
-0.0339999 -0.00400021 -3.42593e-05
-0.033 -0.00400017 -3.94891e-05
-0.032 -0.00400028 -4.31409e-05
-0.0309996 -0.00400003 -4.66222e-05
-0.03 -0.00400037 -4.85021e-05
-0.029 -0.00400014 -5.21012e-05
-0.0280001 -0.00400012 -5.54038e-05
-0.0269997 -0.00400009 -5.99153e-05
-0.0260001 -0.00400024 -6.14404e-05
-0.0249998 -0.00400018 -6.50033e-05
-0.0239998 -0.00400013 -6.76497e-05
-0.0229998 -0.00400018 -7.38131e-05
-0.0219997 -0.00400029 -7.75986e-05
-0.0209999 -0.0040003 -8.49754e-05
-0.0199994 -0.00400053 -8.65593e-05
-0.019 -0.00400036 -9.15481e-05
-0.0179999 -0.00400019 -9.05538e-05
-0.0169995 -0.00400068 -9.23191e-05
-0.0159999 -0.00400053 -9.16026e-05
-0.0149996 -0.00400088 -9.55917e-05
-0.0139998 -0.00400088 -9.86054e-05
-0.0129998 -0.00400081 -0.000103105
-0.0119996 -0.00400085 -0.000104016
-0.0109998 -0.00400083 -0.000105765
-0.00999971 -0.00400101 -0.000105826
-0.00899964 -0.00400078 -0.00010577
-0.00799928 -0.00400087 -0.000104514
-0.00699939 -0.0040009 -0.000104394
-0.00599891 -0.00400082 -0.000105288
-0.00499897 -0.0050008 -0.000117494
-0.00499921 -0.00400089 -0.000107231
-0.004 -0.05 0
-0.004 -0.049 0
-0.00399984 -0.0480002 -1.07322e-06
-0.00399991 -0.0470001 -4.45168e-06
-0.00399993 -0.046 -9.08645e-06
-0.00399976 -0.0449999 -1.56411e-05
-0.00399963 -0.0439997 -2.2769e-05
-0.00399951 -0.043 -3.23196e-05
-0.00399934 -0.0419997 -4.09233e-05
-0.00399917 -0.0410002 -5.43979e-05
-0.00399945 -0.0399999 -6.52668e-05
-0.00399954 -0.0390003 -8.07881e-05
-0.00399949 -0.0380002 -9.42064e-05
-0.00399949 -0.0370003 -0.000110669
-0.00399951 -0.0360006 -0.000123188
-0.00399937 -0.0350005 -0.000138206
-0.00399975 -0.0340007 -0.000152915
-0.00399973 -0.0330006 -0.000168296
-0.0039994 -0.0320008 -0.000182634
-0.00399963 -0.031001 -0.000196472
-0.00399965 -0.0300009 -0.000211778
-0.00399935 -0.0290008 -0.000225566
-0.00399935 -0.0280012 -0.000233869
-0.00399977 -0.0270007 -0.000237254
-0.00399965 -0.0260007 -0.000241519
-0.00399926 -0.0250009 -0.00024544
-0.00399935 -0.0240008 -0.000249898
-0.00399891 -0.0230005 -0.000254779
-0.00399908 -0.0220006 -0.000256916
-0.00399849 -0.0210004 -0.00025675
-0.00399902 -0.0200006 -0.000252379
-0.0039988 -0.0190007 -0.000249016
-0.00399882 -0.0180007 -0.000242525
-0.00399869 -0.0170007 -0.000237759
-0.00399898 -0.0160005 -0.000233034
-0.00399867 -0.0150006 -0.000227318
-0.00399903 -0.0140006 -0.000219599
-0.00399856 -0.0130008 -0.000210044
-0.00399875 -0.0120007 -0.000198277
-0.00399867 -0.0110009 -0.000187361
-0.0039988 -0.0100009 -0.000176587
-0.00399864 -0.0090009 -0.000165893
-0.00399899 -0.00800071 -0.000156109
-0.00399859 -0.00700077 -0.000143615
-0.00399896 -0.00600093 -0.000130764
-0.00399879 -0.00500074 -0.000118258
-0.049 -0.003 0
-0.05 -0.003 0
-0.0480001 -0.00300024 -2.77898e-07
-0.0469999 -0.00300002 3.48667e-07
-0.0460002 -0.00299994 -2.62764e-06
-0.045 -0.0029999 -3.88946e-06
-0.0440002 -0.0029996 -6.17701e-06
-0.043 -0.00299958 -7.32548e-06
-0.0419997 -0.00299954 -8.5163e-06
-0.0409999 -0.00299975 -9.40902e-06
-0.0399997 -0.00299984 -1.07317e-05
-0.039 -0.0029998 -1.26571e-05
-0.0379997 -0.00299995 -1.54763e-05
-0.0370001 -0.00299995 -1.89318e-05
-0.036 -0.00300009 -2.17397e-05
-0.0349999 -0.00300037 -2.52862e-05
-0.0340001 -0.00300028 -2.96688e-05
-0.0329996 -0.00300042 -3.52275e-05
-0.0320001 -0.00300035 -3.93881e-05
-0.0309999 -0.00300055 -4.14665e-05
-0.03 -0.00300019 -4.32443e-05
-0.029 -0.00300022 -4.65545e-05
-0.0279999 -0.00300031 -5.12948e-05
-0.0270001 -0.00300033 -5.46346e-05
-0.0259997 -0.0030004 -5.80321e-05
-0.025 -0.00300041 -5.91073e-05
-0.0239995 -0.00300016 -6.30094e-05
-0.0229996 -0.00300034 -6.64094e-05
-0.022 -0.00300017 -7.29093e-05
-0.0209998 -0.00300028 -7.58141e-05
-0.0199999 -0.00300011 -8.2247e-05
-0.0189998 -0.00300008 -8.25702e-05
-0.0179999 -0.00300058 -8.6453e-05
-0.0169995 -0.00300047 -8.38899e-05
-0.0159997 -0.00300073 -8.68303e-05
-0.0149995 -0.00300069 -8.67746e-05
-0.0139997 -0.00300088 -9.18358e-05
-0.0129998 -0.00300115 -9.28051e-05
-0.0119996 -0.00300099 -9.60402e-05
-0.0109996 -0.00300074 -9.55232e-05
-0.00999995 -0.00300084 -9.63345e-05
-0.00899937 -0.00300091 -9.57347e-05
-0.00799947 -0.00300063 -9.55809e-05
-0.00699919 -0.00300071 -9.5074e-05
-0.00599925 -0.0030006 -9.59157e-05
-0.0049991 -0.00300077 -9.64844e-05
-0.00399916 -0.00400088 -0.000107731
-0.00399903 -0.00300084 -9.59487e-05
-0.003 -0.05 0
-0.003 -0.049 0
-0.00299993 -0.0480001 -1.19795e-06
-0.00299981 -0.047 -3.63677e-06
-0.00299996 -0.0460001 -8.40903e-06
-0.00300003 -0.045 -1.37855e-05
-0.00299982 -0.044 -2.39383e-05
-0.00299974 -0.0429997 -3.24641e-05
-0.00299971 -0.0420001 -4.63578e-05
-0.00299979 -0.041 -5.64836e-05
-0.00299948 -0.0399999 -7.1701e-05
-0.0029996 -0.0390002 -8.19365e-05
-0.00299949 -0.038 -9.86557e-05
-0.00299944 -0.0370006 -0.000110799
-0.0029993 -0.0360004 -0.000127495
-0.00299966 -0.0350008 -0.000141061
-0.00299956 -0.0340005 -0.000156768
-0.00299968 -0.033001 -0.00017191
-0.00299909 -0.0320006 -0.000185602
-0.00299954 -0.031001 -0.000200379
-0.00299947 -0.0300006 -0.000216484
-0.00300023 -0.0290013 -0.000231659
-0.00299956 -0.0280005 -0.000237759
-0.00299953 -0.0270009 -0.000241791
-0.0029992 -0.0260006 -0.000245415
-0.00299954 -0.0250009 -0.000249385
-0.00299912 -0.0240005 -0.000252301
-0.00299934 -0.0230008 -0.000256103
-0.00299894 -0.0220003 -0.00025831
-0.00299941 -0.0210008 -0.000257879
-0.00299881 -0.0200002 -0.00025689
-0.00299942 -0.0190009 -0.000252242
-0.00299874 -0.0180003 -0.000247932
-0.00299904 -0.0170006 -0.000241214
-0.0029986 -0.0160006 -0.000235922
-0.00299891 -0.0150008 -0.000228184
-0.00299878 -0.0140009 -0.00022074
-0.00299911 -0.0130008 -0.000210566
-0.00299895 -0.0120009 -0.00019959
-0.00299896 -0.0110007 -0.000188717
-0.00299878 -0.010001 -0.000176506
-0.00299887 -0.00900087 -0.000165876
-0.0029989 -0.00800102 -0.000153887
-0.00299907 -0.00700078 -0.000142547
-0.00299845 -0.0060008 -0.000128437
-0.00299913 -0.00500092 -0.00011701
-0.00299881 -0.00400077 -0.000105237
-0.049 -0.002 0
-0.05 -0.002 0
-0.048 -0.00199999 2.75369e-07
-0.0470004 -0.00200004 -8.36992e-07
-0.0459997 -0.00200012 -1.05593e-06
-0.045 -0.00199995 -3.1556e-06
-0.0440001 -0.00199985 -4.72484e-06
-0.0429999 -0.00199992 -6.36821e-06
-0.0419999 -0.00199965 -8.075e-06
-0.0409999 -0.00199969 -9.31499e-06
-0.0400001 -0.00199952 -1.07801e-05
-0.0389996 -0.00199979 -1.21678e-05
-0.0379999 -0.0019999 -1.48332e-05
-0.0369998 -0.00199985 -1.64771e-05
-0.0359998 -0.00200022 -1.89406e-05
-0.0349998 -0.00200004 -2.18318e-05
-0.0339999 -0.00200016 -2.67334e-05
-0.033 -0.00200029 -3.11204e-05
-0.0319999 -0.00200038 -3.47216e-05
-0.0309999 -0.00200026 -3.67264e-05
-0.03 -0.00200037 -3.85057e-05
-0.0289997 -0.00200027 -4.1971e-05
-0.0280001 -0.00200044 -4.60855e-05
-0.0269997 -0.00200035 -5.13102e-05
-0.0260001 -0.00200048 -5.32729e-05
-0.0249998 -0.00200028 -5.63884e-05
-0.0239997 -0.00200029 -5.78691e-05
-0.0229997 -0.00200023 -6.26042e-05
-0.0219999 -0.00200025 -6.47418e-05
-0.0209999 -0.00200053 -7.12054e-05
-0.0199998 -0.00200025 -7.16383e-05
-0.0189997 -0.00200034 -7.74891e-05
-0.0179998 -0.00200046 -7.7024e-05
-0.0169995 -0.00200063 -8.082e-05
-0.0159999 -0.00200052 -7.94519e-05
-0.0149994 -0.0020007 -8.23732e-05
-0.0139997 -0.00200045 -8.2419e-05
-0.0129998 -0.00200085 -8.58186e-05
-0.0119999 -0.00200081 -8.56204e-05
-0.0109996 -0.00200096 -8.72092e-05
-0.00999935 -0.00200089 -8.61592e-05
-0.0089996 -0.00200089 -8.7027e-05
-0.0079992 -0.00200107 -8.65327e-05
-0.00699943 -0.00200086 -8.71576e-05
-0.00599915 -0.002001 -8.62318e-05
-0.00499909 -0.00200094 -8.57661e-05
-0.00399896 -0.00200085 -8.41654e-05
-0.00299905 -0.00300094 -9.35192e-05
-0.00299906 -0.00200109 -8.14049e-05
-0.002 -0.05 0
-0.002 -0.049 0
-0.00199979 -0.048 -1.03458e-06
-0.00199967 -0.047 -4.53831e-06
-0.00199987 -0.0460002 -7.60679e-06
-0.00199958 -0.045 -1.49824e-05
-0.00199966 -0.044 -2.28096e-05
-0.00199935 -0.0430001 -3.64967e-05
-0.0019996 -0.0419998 -4.74128e-05
-0.0019994 -0.041 -6.31111e-05
-0.00199947 -0.0399999 -7.276e-05
-0.00199935 -0.0390005 -8.65149e-05
-0.00199954 -0.0380001 -9.80433e-05
-0.00199931 -0.0370004 -0.000114889
-0.00199948 -0.0360005 -0.000129307
-0.00199973 -0.0350005 -0.000146042
-0.00199967 -0.0340007 -0.000161968
-0.00199979 -0.0330008 -0.000176564
-0.00199981 -0.0320006 -0.000190926
-0.00199947 -0.031001 -0.000203861
-0.0019996 -0.0300009 -0.00021977
-0.00199906 -0.0290009 -0.000232209
-0.00199973 -0.0280007 -0.000241571
-0.00199954 -0.0270008 -0.000245166
-0.00199961 -0.0260004 -0.00025035
-0.00199941 -0.025001 -0.000252635
-0.00199948 -0.0240002 -0.000255975
-0.00199908 -0.0230009 -0.000258383
-0.00199945 -0.0220005 -0.000259676
-0.00199872 -0.0210006 -0.000259536
-0.00199924 -0.0200006 -0.000257761
-0.00199843 -0.0190002 -0.000256478
-0.001999 -0.0180008 -0.000251416
-0.00199853 -0.0170005 -0.000245515
-0.00199889 -0.0160005 -0.000238307
-0.00199864 -0.0150007 -0.000229702
-0.00199867 -0.0140007 -0.000220367
-0.00199881 -0.0130009 -0.000210191
-0.00199871 -0.0120008 -0.000199166
-0.0019988 -0.0110009 -0.000187786
-0.00199858 -0.0100008 -0.000176307
-0.00199855 -0.0090011 -0.000162987
-0.00199891 -0.00800072 -0.00015151
-0.00199863 -0.00700086 -0.000137422
-0.00199899 -0.00600087 -0.000125484
-0.00199876 -0.00500057 -0.000113258
-0.00199903 -0.00400099 -0.000102435
-0.00199882 -0.00300098 -8.9347e-05
-0.049 -0.001 0
-0.05 -0.001 0
-0.0480003 -0.000999902 -3.27173e-07
-0.0469999 -0.000999966 4.39613e-07
-0.0460002 -0.000999836 -1.15315e-06
-0.0449999 -0.000999931 -1.34457e-06
-0.0439998 -0.000999713 -3.03067e-06
-0.0429997 -0.000999656 -4.86844e-06
-0.0419998 -0.000999708 -6.58162e-06
-0.0409999 -0.000999889 -8.69632e-06
-0.0399997 -0.000999884 -1.0446e-05
-0.039 -0.000999912 -1.26179e-05
-0.0379998 -0.00100013 -1.37958e-05
-0.0369999 -0.001 -1.52172e-05
-0.036 -0.00100015 -1.64343e-05
-0.0349998 -0.00100015 -2.00509e-05
-0.034 -0.00100007 -2.35576e-05
-0.033 -0.00100034 -2.82272e-05
-0.0320001 -0.00100036 -3.0501e-05
-0.0309998 -0.00100063 -3.27084e-05
-0.0299996 -0.00100043 -3.43891e-05
-0.0290002 -0.00100068 -3.83276e-05
-0.0279997 -0.00100032 -4.29055e-05
-0.027 -0.00100042 -4.6492e-05
-0.0259998 -0.00100038 -5.05717e-05
-0.0250003 -0.00100041 -5.15896e-05
-0.0239997 -0.00100041 -5.50163e-05
-0.0229998 -0.00100021 -5.64399e-05
-0.0219997 -0.00100045 -6.16403e-05
-0.0209996 -0.00100036 -6.23692e-05
-0.0199999 -0.00100035 -6.80249e-05
-0.0189999 -0.00100046 -6.73993e-05
-0.018 -0.00100068 -7.29811e-05
-0.0169997 -0.00100077 -7.17545e-05
-0.0159996 -0.00100083 -7.60317e-05
-0.0149994 -0.00100092 -7.38566e-05
-0.0139996 -0.001001 -7.67372e-05
-0.0129996 -0.00100099 -7.56545e-05
-0.0119999 -0.00100123 -7.90936e-05
-0.0109996 -0.00100131 -7.8216e-05
-0.00999991 -0.00100105 -7.95844e-05
-0.00899956 -0.00100089 -7.86099e-05
-0.00799946 -0.00100098 -7.97263e-05
-0.00699943 -0.00100056 -7.84303e-05
-0.00599916 -0.00100078 -7.74239e-05
-0.00499952 -0.00100049 -7.42829e-05
-0.00399921 -0.00100112 -7.29817e-05
-0.00299929 -0.00100076 -7.03681e-05
-0.0019992 -0.00200083 -7.78443e-05
-0.00199883 -0.00100128 -6.79793e-05
-0.001 -0.05 0
-0.001 -0.049 0
-0.000999931 -0.0480002 -1.37565e-06
-0.000999911 -0.047 -3.4779e-06
-0.000999912 -0.0459999 -8.86337e-06
-0.0010001 -0.0450003 -1.50172e-05
-0.000999735 -0.0440002 -2.62793e-05
-0.00100011 -0.0429998 -3.61299e-05
-0.000999875 -0.0420001 -5.11971e-05
-0.000999486 -0.0409998 -6.21979e-05
-0.000999347 -0.0399999 -7.71562e-05
-0.000999439 -0.039 -8.67116e-05
-0.000999365 -0.0380001 -0.000102957
-0.000999254 -0.0370006 -0.00011658
-0.00099911 -0.0360001 -0.000136075
-0.000999777 -0.0350008 -0.000151904
-0.000999748 -0.0340005 -0.000168847
-0.000999895 -0.0330009 -0.000183747
-0.00100002 -0.0320006 -0.000196818
-0.000999796 -0.031001 -0.000211021
-0.000999485 -0.0300005 -0.000223916
-0.000999735 -0.029001 -0.000235502
-0.00099934 -0.0280004 -0.000244364
-0.000999461 -0.0270009 -0.000250714
-0.000999246 -0.0260005 -0.000254615
-0.000999341 -0.0250009 -0.000257906
-0.000998993 -0.0240005 -0.000260493
-0.000999244 -0.0230008 -0.000261806
-0.000998982 -0.0220003 -0.000262373
-0.000999226 -0.0210008 -0.00026006
-0.000999045 -0.0200003 -0.000260599
-0.000999609 -0.0190009 -0.000257075
-0.000999149 -0.0180004 -0.000255245
-0.000999215 -0.0170006 -0.000247601
-0.000998765 -0.0160002 -0.000241005
-0.000999068 -0.0150005 -0.00022936
-0.000998725 -0.0140005 -0.000219812
-0.000999021 -0.0130006 -0.000207411
-0.000999328 -0.0120007 -0.00019692
-0.000999028 -0.0110009 -0.000185621
-0.00099914 -0.0100009 -0.000173336
-0.000999089 -0.00900082 -0.00016085
-0.000998979 -0.008001 -0.000146421
-0.00099918 -0.00700084 -0.000134048
-0.000998848 -0.00600078 -0.000120325
-0.00099906 -0.0050009 -0.000110902
-0.00099872 -0.00400073 -9.90077e-05
-0.000999343 -0.00300098 -8.77497e-05
-0.000998911 -0.00200106 -7.4956e-05
-0.049 3.46945e-17 0
-0.05 3.46945e-17 0
-0.0479996 -4.06839e-08 1.89221e-07
-0.0470001 1.23543e-07 -4.17205e-07
-0.046 -6.0645e-08 6.3904e-07
-0.045 -1.34988e-07 -4.19795e-07
-0.044 7.55574e-08 -1.5519e-06
-0.0429998 -2.8729e-08 -3.7118e-06
-0.0420001 1.99328e-07 -6.02115e-06
-0.041 1.01265e-07 -7.90396e-06
-0.04 4.01345e-07 -1.00654e-05
-0.039 1.07781e-07 -1.14843e-05
-0.0379999 2.73848e-07 -1.30814e-05
-0.037 9.26289e-08 -1.3394e-05
-0.0359998 -1.15575e-07 -1.56602e-05
-0.035 -3.43729e-07 -1.81144e-05
-0.0339999 -8.03635e-08 -2.25524e-05
-0.0329999 -1.8878e-07 -2.42758e-05
-0.0319998 -4.14798e-07 -2.69695e-05
-0.031 -5.06612e-07 -2.79499e-05
-0.0299998 -4.70021e-07 -3.137e-05
-0.0289997 -2.82864e-07 -3.43412e-05
-0.0280002 -4.2296e-07 -3.84217e-05
-0.0269997 -2.4813e-07 -4.25248e-05
-0.0259999 -4.25958e-07 -4.51731e-05
-0.0249996 -2.23667e-07 -4.8263e-05
-0.0240001 -3.61271e-07 -4.97541e-05
-0.0229997 -2.64871e-07 -5.32071e-05
-0.0219998 -3.74892e-07 -5.41118e-05
-0.0209997 -3.86722e-07 -5.88993e-05
-0.0199999 -2.20825e-07 -5.78676e-05
-0.0189998 -7.10979e-07 -6.30607e-05
-0.0179998 -3.10311e-07 -6.27169e-05
-0.0169997 -4.95218e-07 -6.86578e-05
-0.0159995 -4.48344e-07 -6.78529e-05
-0.0149993 -4.29981e-07 -7.08606e-05
-0.0139996 -2.21766e-07 -6.85293e-05
-0.0129994 -5.48053e-07 -7.12229e-05
-0.0119997 -6.44731e-07 -7.04065e-05
-0.0109997 -8.68196e-07 -7.29658e-05
-0.0099997 -9.50362e-07 -7.13426e-05
-0.00899974 -9.20386e-07 -7.27483e-05
-0.00799948 -8.50383e-07 -7.13566e-05
-0.00699969 -1.25052e-06 -7.14544e-05
-0.00599921 -5.6348e-07 -6.80439e-05
-0.00499925 -1.15918e-06 -6.58176e-05
-0.00399913 -7.21777e-07 -6.32985e-05
-0.00299912 -9.32677e-07 -6.22434e-05
-0.0019992 -6.49312e-07 -5.99937e-05
-0.000999493 -0.00100072 -6.54984e-05
-0.000999019 -1.38187e-06 -5.81001e-05
3.46945e-17 -0.05 0
3.46945e-17 -0.049 0
1.49712e-07 -0.048 -7.54981e-07
2.26672e-07 -0.0469997 -4.19295e-06
1.76505e-07 -0.0459999 -8.86818e-06
2.46494e-07 -0.0449999 -1.77139e-05
2.29664e-08 -0.044 -2.55988e-05
2.51362e-07 -0.043 -3.77672e-05
5.44379e-07 -0.0419999 -4.74104e-05
6.99676e-07 -0.0409999 -6.30989e-05
7.57253e-07 -0.04 -7.47928e-05
8.26207e-07 -0.039 -9.06523e-05
6.86159e-07 -0.0380001 -0.000104251
4.69041e-07 -0.0370004 -0.000123221
2.62178e-07 -0.0360003 -0.000139763
5.12336e-07 -0.0350008 -0.000158306
4.63989e-07 -0.0340009 -0.000175468
3.33847e-07 -0.0330007 -0.000190483
4.71309e-07 -0.0320006 -0.000205238
3.57926e-07 -0.0310013 -0.000216963
5.3702e-07 -0.0300007 -0.000230523
7.08642e-07 -0.029001 -0.000239926
5.19553e-07 -0.0280008 -0.000249664
6.66432e-07 -0.027001 -0.000253985
1.18052e-07 -0.0260006 -0.000259908
7.36414e-07 -0.0250012 -0.000261937
5.93906e-07 -0.0240004 -0.000265888
9.73475e-07 -0.023001 -0.000267002
1.03737e-06 -0.0220006 -0.000266602
1.0273e-06 -0.0210007 -0.000264259
1.45427e-06 -0.0200005 -0.000261463
1.34991e-06 -0.0190005 -0.000259818
1.14619e-06 -0.0180005 -0.000254941
1.35174e-06 -0.0170005 -0.000248808
9.51223e-07 -0.0160007 -0.000240008
1.48804e-06 -0.0150002 -0.000229642
1.50069e-06 -0.0140007 -0.000217952
1.50171e-06 -0.0130008 -0.00020655
1.30087e-06 -0.0120008 -0.000195221
1.20973e-06 -0.011001 -0.000183389
1.29448e-06 -0.0100007 -0.000172105
1.28909e-06 -0.00900086 -0.000157629
1.21841e-06 -0.00800097 -0.000145171
1.33411e-06 -0.00700101 -0.000129345
1.09186e-06 -0.00600088 -0.000118455
1.33475e-06 -0.0050004 -0.00010691
8.38966e-07 -0.00400094 -9.83821e-05
1.23432e-06 -0.00300083 -8.53807e-05
6.53062e-07 -0.00200094 -7.518e-05
9.64517e-07 -0.00100126 -6.38349e-05
-0.049 0.001 0
-0.05 0.001 0
-0.0480001 0.00100033 -4.64415e-07
-0.047 0.0010004 5.20913e-07
-0.0460002 0.00100001 -2.66971e-07
-0.0450002 0.00100013 3.60915e-07
-0.0439997 0.00100009 -1.60064e-06
-0.0430002 0.000999996 -3.34217e-06
-0.0419999 0.00100016 -5.46352e-06
-0.0409999 0.001 -6.90768e-06
-0.04 0.00100026 -8.58451e-06
-0.0390002 0.00100023 -1.00599e-05
-0.038 0.000999909 -1.1074e-05
-0.0369998 0.000999992 -1.20618e-05
-0.036 0.000999641 -1.39577e-05
-0.0349999 0.000999628 -1.73527e-05
-0.0339996 0.000999727 -1.96822e-05
-0.033 0.000999764 -2.20161e-05
-0.0319997 0.000999545 -2.25782e-05
-0.0309998 0.000999344 -2.47115e-05
-0.0299998 0.000999387 -2.72781e-05
-0.029 0.000999382 -3.13385e-05
-0.0279997 0.000999542 -3.54433e-05
-0.027 0.000999537 -3.77676e-05
-0.0259999 0.0009995 -4.20335e-05
-0.0249999 0.000999529 -4.28905e-05
-0.0239995 0.000999391 -4.68404e-05
-0.0229997 0.000999493 -4.67687e-05
-0.0219997 0.000999491 -5.1074e-05
-0.0209998 0.00099969 -4.96051e-05
-0.0199999 0.000999317 -5.46672e-05
-0.0189996 0.000999538 -5.28739e-05
-0.0179997 0.000999252 -5.8927e-05
-0.0169993 0.00099945 -5.82614e-05
-0.0159998 0.000998959 -6.39589e-05
-0.0149996 0.000999099 -6.1925e-05
-0.0139997 0.000999021 -6.4536e-05
-0.0129995 0.000999075 -6.23209e-05
-0.0119996 0.00099896 -6.54437e-05
-0.0109996 0.000998993 -6.43509e-05
-0.0099994 0.00099884 -6.66704e-05
-0.00899966 0.000999007 -6.49972e-05
-0.0079993 0.000998824 -6.61346e-05
-0.00699965 0.000999287 -6.31368e-05
-0.00599898 0.000998725 -6.17116e-05
-0.00499915 0.000999679 -5.70407e-05
-0.00399909 0.000998914 -5.6474e-05
-0.00299913 0.000999347 -5.3716e-05
-0.00199893 0.000998805 -5.39447e-05
-0.000999396 0.000998978 -5.09954e-05
5.4077e-07 -6.06434e-07 -5.67684e-05
1.13628e-06 0.000998791 -4.9547e-05
0.001 -0.05 0
0.001 -0.049 0
0.00100026 -0.0480001 -8.4121e-07
0.00100002 -0.0469999 -3.21122e-06
0.00100023 -0.046 -9.73895e-06
0.00100013 -0.0449996 -1.78553e-05
0.00100018 -0.0439998 -2.80533e-05
0.000999928 -0.0429998 -3.64548e-05
0.00100024 -0.0420002 -4.90734e-05
0.00100058 -0.0409996 -6.10974e-05
0.0010008 -0.0400001 -7.82531e-05
0.00100081 -0.039 -9.23273e-05
0.00100053 -0.0380002 -0.000110412
0.00100046 -0.0370002 -0.000126465
0.00100061 -0.0360003 -0.000145981
0.00100022 -0.0350006 -0.000163528
0.00100023 -0.0340006 -0.000180777
0.00100024 -0.0330008 -0.000197972
0.00100032 -0.032001 -0.000210553
0.000999968 -0.0310007 -0.000225841
0.0010004 -0.030001 -0.000235422
0.00100033 -0.0290009 -0.000246326
0.00100053 -0.0280011 -0.000251839
0.0010004 -0.027001 -0.00025903
0.00100081 -0.026001 -0.000261156
0.00100059 -0.0250009 -0.000266228
0.00100072 -0.024001 -0.000267649
0.00100064 -0.0230008 -0.000270266
0.00100079 -0.0220009 -0.00026898
0.00100086 -0.0210004 -0.000267108
0.00100095 -0.0200007 -0.000264886
0.00100103 -0.0190006 -0.000260755
0.0010009 -0.0180007 -0.000256255
0.00100093 -0.0170006 -0.000248672
0.00100108 -0.0160004 -0.000240337
0.00100072 -0.0150007 -0.000229306
0.00100095 -0.0140006 -0.000218306
0.00100091 -0.0130007 -0.000206898
0.00100088 -0.0120007 -0.000195643
0.00100087 -0.0110005 -0.000184898
0.001001 -0.0100008 -0.000171086
0.00100089 -0.00900074 -0.000158969
0.00100101 -0.00800092 -0.000142357
0.00100064 -0.00700083 -0.000130118
0.0010009 -0.00600073 -0.000114654
0.00100077 -0.00500084 -0.00010637
0.00100116 -0.00400079 -9.43026e-05
0.00100054 -0.00300071 -8.5881e-05
0.00100101 -0.00200102 -7.271e-05
0.00100043 -0.00100072 -6.35524e-05
0.00100105 -1.10202e-06 -5.32533e-05
-0.049 0.002 0
-0.05 0.002 0
-0.0479998 0.00200012 2.52288e-07
-0.0469999 0.00199992 -3.20535e-07
-0.0459999 0.00199988 1.23443e-06
-0.045 0.00199987 -3.02105e-07
-0.044 0.002 -5.78887e-07
-0.0429998 0.00200028 -3.45888e-06
-0.042 0.00200009 -4.49737e-06
-0.0410001 0.00200036 -6.60525e-06
-0.0399999 0.00200009 -6.82784e-06
-0.039 0.00200004 -8.85155e-06
-0.0379997 0.00200011 -9.41969e-06
-0.0370001 0.00199974 -1.1705e-05
-0.0359998 0.00199998 -1.34335e-05
-0.0350001 0.0019998 -1.58454e-05
-0.0339999 0.00199971 -1.77339e-05
-0.033 0.00199946 -1.79249e-05
-0.0319999 0.00199948 -1.90689e-05
-0.0309999 0.00199932 -2.02518e-05
-0.0299999 0.0019994 -2.42849e-05
-0.0289997 0.00199937 -2.8223e-05
-0.028 0.00199964 -3.21311e-05
-0.0269996 0.00199948 -3.61013e-05
-0.026 0.0019997 -3.7986e-05
-0.0249995 0.00199978 -4.13695e-05
-0.0239999 0.00199962 -4.21053e-05
-0.0229995 0.00199987 -4.49881e-05
-0.0219998 0.00199983 -4.35728e-05
-0.0209996 0.00199953 -4.69109e-05
-0.0199998 0.00199987 -4.47491e-05
-0.0189995 0.00199935 -5.02665e-05
-0.0179996 0.00199974 -4.95667e-05
-0.0169998 0.00199922 -5.59271e-05
-0.0159995 0.00199952 -5.47872e-05
-0.0149997 0.00199948 -5.88159e-05
-0.0139996 0.00199944 -5.57912e-05
-0.0129996 0.00199934 -5.82451e-05
-0.0119996 0.00199927 -5.55694e-05
-0.0109996 0.00199906 -5.87275e-05
-0.0099996 0.00199911 -5.72012e-05
-0.00899946 0.00199887 -6.04554e-05
-0.00799951 0.00199924 -5.8101e-05
-0.00699934 0.00199865 -5.87609e-05
-0.00599905 0.00199935 -5.43948e-05
-0.00499931 0.00199907 -5.32725e-05
-0.00399919 0.00199934 -4.93311e-05
-0.00299936 0.00199901 -4.87482e-05
-0.00199926 0.00199912 -4.57613e-05
-0.000998993 0.00199902 -4.56876e-05
4.20926e-07 0.00199926 -4.26819e-05
0.00100047 0.000998971 -4.55885e-05
0.00100088 0.00199899 -3.85894e-05
0.002 -0.05 0
0.002 -0.049 0
0.00200024 -0.0479999 -5.02593e-07
0.00200016 -0.0469999 -3.51645e-06
0.00200015 -0.0459999 -9.61323e-06
0.00200029 -0.0449999 -1.84356e-05
0.00200037 -0.0439997 -2.73128e-05
0.00200051 -0.043 -3.84691e-05
0.00200039 -0.0419999 -4.96556e-05
0.00200078 -0.0409999 -6.49709e-05
0.00200079 -0.04 -7.99436e-05
0.00200091 -0.0390001 -9.64024e-05
0.00200044 -0.0379999 -0.000113175
0.00200053 -0.0370002 -0.000131919
0.00200027 -0.0360001 -0.000150487
0.00200048 -0.0350004 -0.000168226
0.00200041 -0.0340006 -0.000187673
0.00200068 -0.0330008 -0.000202702
0.00200015 -0.0320006 -0.000219611
0.00200049 -0.031001 -0.000230102
0.00200026 -0.0300005 -0.000243151
0.0020006 -0.0290011 -0.000249552
0.00200044 -0.0280007 -0.000259298
0.00200051 -0.0270014 -0.000262669
0.00200031 -0.0260006 -0.000268978
0.00200069 -0.0250011 -0.000269936
0.00200092 -0.0240007 -0.000273633
0.00200114 -0.0230009 -0.000273779
0.00200107 -0.0220008 -0.000273551
0.0020014 -0.0210007 -0.000271079
0.00200086 -0.0200006 -0.000267098
0.00200142 -0.0190008 -0.000263543
0.00200107 -0.0180003 -0.00025674
0.0020015 -0.0170006 -0.000250176
0.00200096 -0.0160003 -0.000241223
0.00200156 -0.0150002 -0.000231305
0.00200092 -0.0140007 -0.000218776
0.00200137 -0.0130007 -0.000207092
0.0020011 -0.0120006 -0.000196155
0.00200147 -0.0110008 -0.000183912
0.00200115 -0.0100007 -0.000172838
0.00200129 -0.0090009 -0.00015693
0.002001 -0.00800073 -0.00014438
0.00200139 -0.00700077 -0.000126544
0.00200104 -0.00600084 -0.000115603
0.00200144 -0.00500076 -0.000101467
0.00200096 -0.00400091 -9.37361e-05
0.0020011 -0.00300079 -8.03827e-05
0.00200082 -0.00200071 -7.23671e-05
0.00200091 -0.00100101 -5.94142e-05
0.00200078 -8.28932e-07 -5.16411e-05
0.00200103 0.000998618 -4.08463e-05
-0.049 0.003 0
-0.05 0.003 0
-0.0479999 0.00300006 -3.09001e-07
-0.0469999 0.00300026 5.90456e-07
-0.0459998 0.00300006 -6.43841e-07
-0.0449999 0.00300019 1.62734e-08
-0.0439998 0.00300004 -1.90109e-06
-0.0429998 0.0029998 -2.13943e-06
-0.0419996 0.00300017 -4.26484e-06
-0.0410001 0.00299996 -4.85222e-06
-0.0399997 0.00300004 -6.92494e-06
-0.0390002 0.00300007 -8.19843e-06
-0.0379998 0.00299977 -1.02788e-05
-0.037 0.0029998 -1.16378e-05
-0.036 0.00299976 -1.32596e-05
-0.0350001 0.00299977 -1.4558e-05
-0.0339997 0.00299961 -1.42978e-05
-0.0330002 0.00299962 -1.51828e-05
-0.0319998 0.00299951 -1.52175e-05
-0.0310003 0.00299964 -1.80487e-05
-0.0299998 0.00299937 -2.09487e-05
-0.0289999 0.00299943 -2.58481e-05
-0.0279997 0.00299925 -3.04675e-05
-0.0269999 0.00299952 -3.30409e-05
-0.0259996 0.00299942 -3.67708e-05
-0.0249997 0.00299949 -3.68942e-05
-0.0239995 0.00299949 -4.01271e-05
-0.0229998 0.00299955 -3.87264e-05
-0.0219996 0.00299951 -4.15604e-05
-0.0209996 0.00299982 -3.8832e-05
-0.0199996 0.00299954 -4.4056e-05
-0.0189992 0.00299998 -4.29085e-05
-0.0179997 0.0029994 -4.90871e-05
-0.0169992 0.00299977 -4.74344e-05
-0.0159997 0.00299901 -5.2142e-05
-0.0149996 0.00299929 -4.97297e-05
-0.0139997 0.00299911 -5.21426e-05
-0.013 0.00299904 -4.86591e-05
-0.0119995 0.00299883 -4.99315e-05
-0.0109996 0.00299908 -4.80939e-05
-0.00999943 0.00299901 -5.19377e-05
-0.00899964 0.00299917 -5.15155e-05
-0.00799931 0.00299877 -5.40608e-05
-0.0069997 0.0029992 -5.09465e-05
-0.0059991 0.00299885 -5.06301e-05
-0.00499924 0.00299916 -4.58425e-05
-0.00399909 0.00299898 -4.53988e-05
-0.00299956 0.00299901 -4.09712e-05
-0.00199917 0.00299877 -4.15794e-05
-0.000999666 0.00299867 -3.7913e-05
9.50161e-07 0.00299863 -3.69927e-05
0.0010004 0.00299871 -3.12464e-05
0.00200046 0.00199919 -3.38129e-05
0.00200073 0.00299846 -2.6352e-05
0.003 -0.05 0
0.003 -0.049 0
0.00299996 -0.0479999 -5.17433e-07
0.0030002 -0.0469999 -3.16475e-06
0.00300017 -0.0459999 -9.48196e-06
0.00300006 -0.045 -1.8586e-05
0.00300029 -0.0439998 -2.8948e-05
0.00300052 -0.0429999 -4.05704e-05
0.00300042 -0.0420002 -5.51142e-05
0.00300056 -0.0409999 -6.98683e-05
0.00300099 -0.0400003 -8.67861e-05
0.00300059 -0.0389998 -0.000102139
0.00300071 -0.038 -0.000119938
0.00300048 -0.0370001 -0.000138486
0.00300042 -0.0360004 -0.000158208
0.00300022 -0.0350005 -0.000177165
0.00300059 -0.0340008 -0.000193929
0.00300021 -0.0330006 -0.000212531
0.00300043 -0.032001 -0.000226404
0.00300056 -0.0310009 -0.000243372
0.00300032 -0.0300011 -0.00025138
0.00300044 -0.0290009 -0.000261597
0.00300037 -0.0280013 -0.000266279
0.00300017 -0.0270009 -0.000274108
0.00300069 -0.0260012 -0.0002758
0.00300055 -0.0250006 -0.00028
0.00300098 -0.0240012 -0.000279878
0.00300047 -0.0230008 -0.000281077
0.00300112 -0.0220007 -0.000279352
0.00300043 -0.0210005 -0.000276879
0.00300114 -0.0200007 -0.000273309
0.00300068 -0.0190005 -0.000266916
0.00300142 -0.0180004 -0.000260538
0.0030007 -0.0170005 -0.000252155
0.00300127 -0.0160003 -0.000244243
0.00300067 -0.0150004 -0.000232853
0.00300151 -0.0140006 -0.000220089
0.00300074 -0.0130007 -0.000206601
0.0030012 -0.0120008 -0.000194135
0.00300106 -0.0110007 -0.000183524
0.00300107 -0.0100008 -0.000169782
0.00300066 -0.00900062 -0.000158419
0.00300101 -0.00800092 -0.000140592
0.00300083 -0.00700084 -0.000128688
0.00300117 -0.00600076 -0.000110946
0.00300102 -0.00500098 -0.000101873
0.00300118 -0.00400101 -8.67303e-05
0.00300084 -0.00300062 -7.90467e-05
0.00300106 -0.00200119 -6.44352e-05
0.00300098 -0.00100075 -5.73434e-05
0.00300097 -1.05904e-06 -4.50229e-05
0.00300093 0.000999011 -3.77313e-05
0.00300092 0.00199854 -2.83396e-05
-0.049 0.004 0
-0.05 0.004 0
-0.0480001 0.00400013 3.06955e-07
-0.0469999 0.00400008 -5.88308e-07
-0.046 0.00400023 3.33235e-07
-0.0449997 0.00400035 -1.82374e-06
-0.0439998 0.00399982 -7.09574e-07
-0.0429998 0.00400025 -2.72172e-06
-0.0419999 0.00400012 -2.6047e-06
-0.0409999 0.00400041 -5.88849e-06
-0.0399999 0.00400002 -6.30916e-06
-0.0389999 0.0040002 -9.79615e-06
-0.0379998 0.00399985 -9.91516e-06
-0.0370003 0.00399965 -1.29427e-05
-0.0359998 0.00399997 -1.25596e-05
-0.0350001 0.00399969 -1.26364e-05
-0.0339998 0.00399971 -1.1788e-05
-0.033 0.00399932 -1.1797e-05
-0.0320001 0.00399929 -1.3855e-05
-0.0309998 0.00399915 -1.57448e-05
-0.03 0.00399936 -1.99228e-05
-0.0290001 0.00399925 -2.35324e-05
-0.0279997 0.00399965 -2.79045e-05
-0.0269998 0.00399933 -3.18961e-05
-0.0259998 0.00399981 -3.34694e-05
-0.0249996 0.00399969 -3.53654e-05
-0.0239996 0.00399991 -3.48988e-05
-0.0229993 0.00399966 -3.67519e-05
-0.0219998 0.00399979 -3.50449e-05
-0.0209992 0.00399973 -3.82536e-05
-0.0199998 0.00399962 -3.72062e-05
-0.0189995 0.00399946 -4.2966e-05
-0.0179994 0.00399972 -4.24755e-05
-0.0169998 0.00399931 -4.69087e-05
-0.0159995 0.00399994 -4.48731e-05
-0.0149999 0.00399941 -4.79302e-05
-0.0139998 0.00399971 -4.52126e-05
-0.0129997 0.00399913 -4.63875e-05
-0.0119994 0.00399934 -4.2186e-05
-0.0109998 0.00399894 -4.37459e-05
-0.00999948 0.00399918 -4.26174e-05
-0.00899948 0.00399893 -4.69774e-05
-0.00799958 0.00399906 -4.56049e-05
-0.0069996 0.00399912 -4.73091e-05
-0.00599945 0.00399935 -4.38911e-05
-0.00499981 0.00399896 -4.4125e-05
-0.00399913 0.00399939 -3.98699e-05
-0.00299951 0.00399897 -3.94507e-05
-0.00199925 0.00399925 -3.53926e-05
-0.000999508 0.00399926 -3.56239e-05
3.52827e-07 0.00399929 -3.05761e-05
0.00100075 0.00399907 -2.70221e-05
0.0020004 0.003999 -2.09509e-05
0.0030006 0.00299891 -2.24155e-05
0.00300064 0.00399887 -1.70147e-05
0.004 -0.05 0
0.004 -0.049 0
0.00400026 -0.0480001 -4.04896e-07
0.00400034 -0.0469999 -3.68321e-06
0.00400047 -0.0459998 -1.1116e-05
0.00400043 -0.045 -2.05647e-05
0.00400027 -0.044 -3.15285e-05
0.00400067 -0.043 -4.50569e-05
0.00400035 -0.042 -6.01222e-05
0.00400059 -0.0410005 -7.72686e-05
0.00400044 -0.0399999 -9.38095e-05
0.00400086 -0.0390003 -0.00010972
0.00400037 -0.0380001 -0.000127405
0.00400053 -0.0370001 -0.000146826
0.00400011 -0.0360003 -0.000166975
0.00400041 -0.0350009 -0.000184755
0.00400013 -0.0340009 -0.000204611
0.00400032 -0.0330009 -0.000220632
0.00400026 -0.0320008 -0.00024071
0.00399983 -0.0310014 -0.000254512
0.00400017 -0.0300011 -0.000267128
0.00400067 -0.0290016 -0.000272289
0.00400029 -0.0280006 -0.000279477
0.00400066 -0.0270016 -0.000281884
0.00400045 -0.0260008 -0.00028573
0.00400094 -0.0250015 -0.00028546
0.00400085 -0.0240008 -0.000286461
0.00400159 -0.023001 -0.000286413
0.00400086 -0.0220008 -0.000285042
0.00400156 -0.0210006 -0.000283324
0.00400066 -0.0200005 -0.000276982
0.00400151 -0.0190008 -0.000272409
0.00400092 -0.0180004 -0.000262231
0.00400141 -0.0170008 -0.000255407
0.00400083 -0.0160008 -0.000245042
0.00400138 -0.0150005 -0.000235917
0.00400097 -0.0140008 -0.000220277
0.00400155 -0.0130007 -0.000206922
0.00400115 -0.0120007 -0.000192413
0.00400146 -0.0110007 -0.000179615
0.00400103 -0.0100008 -0.00016753
0.00400152 -0.00900097 -0.000152726
0.00400114 -0.00800106 -0.000139678
0.00400118 -0.00700078 -0.000122021
0.00400094 -0.00600102 -0.000109812
0.00400124 -0.0050009 -9.41518e-05
0.00400092 -0.00400099 -8.44006e-05
0.004001 -0.00300107 -6.95743e-05
0.00400075 -0.00200094 -6.07779e-05
0.00400105 -0.00100137 -4.89218e-05
0.004001 -8.2475e-07 -4.22199e-05
0.00400085 0.000998672 -3.24569e-05
0.00400107 0.00199892 -2.58592e-05
0.00400065 0.0029986 -1.90056e-05
-0.049 0.005 0
-0.05 0.005 0
-0.0479998 0.00500001 -3.9482e-07
-0.047 0.0050001 -9.59777e-08
-0.0459998 0.00500012 -2.20283e-06
-0.0449998 0.00500004 -1.53188e-06
-0.0439999 0.00500007 -3.45621e-06
-0.0429997 0.00500001 -1.72849e-06
-0.0419998 0.00500014 -4.38321e-06
-0.041 0.00499986 -4.63143e-06
-0.0399999 0.00499992 -8.46595e-06
-0.0390002 0.00499969 -9.02007e-06
-0.0379997 0.00499995 -1.14862e-05
-0.0370001 0.00499981 -1.10787e-05
-0.0359998 0.00499958 -1.16522e-05
-0.0350001 0.00500018 -1.06415e-05
-0.0339999 0.00499968 -9.76795e-06
-0.0330001 0.00499985 -1.15235e-05
-0.0319995 0.00499951 -1.34121e-05
-0.0310001 0.00499958 -1.73754e-05
-0.0299994 0.00499953 -1.91443e-05
-0.029 0.0049995 -2.27145e-05
-0.0279998 0.00499926 -2.61316e-05
-0.0270002 0.00499958 -2.89089e-05
-0.0259995 0.00499948 -3.19286e-05
-0.0249998 0.0049997 -3.13983e-05
-0.0239995 0.0049993 -3.29684e-05
-0.0229996 0.00499966 -3.15245e-05
-0.0219996 0.0049994 -3.4484e-05
-0.0209994 0.0049998 -3.34607e-05
-0.0199995 0.00499981 -3.87931e-05
-0.0189994 0.00499986 -3.8165e-05
-0.0179996 0.00499952 -4.27503e-05
-0.0169995 0.00499955 -4.0792e-05
-0.0159995 0.00499913 -4.43417e-05
-0.0149995 0.00499938 -4.2852e-05
-0.0139994 0.00499888 -4.54418e-05
-0.0129998 0.00499928 -4.22793e-05
-0.0119993 0.00499907 -4.18585e-05
-0.0109996 0.00499911 -3.86135e-05
-0.00999921 0.00499903 -4.07253e-05
-0.00899972 0.00499928 -3.97568e-05
-0.00799945 0.00499895 -4.24058e-05
-0.00699958 0.00499926 -4.0315e-05
-0.00599951 0.00499898 -4.15064e-05
-0.0049997 0.00499906 -3.80501e-05
-0.00399917 0.00499895 -3.86614e-05
-0.00299937 0.00499929 -3.45001e-05
-0.00199913 0.00499876 -3.52098e-05
-0.000999451 0.00499895 -3.00768e-05
6.90449e-07 0.00499857 -2.83338e-05
0.00100026 0.00499876 -2.15246e-05
0.00200051 0.00499858 -1.80579e-05
0.00300026 0.00499886 -1.37697e-05
0.0040004 0.00399871 -1.40668e-05
0.00400061 0.00499859 -1.15491e-05
0.005 -0.05 0
0.005 -0.049 0
0.00500005 -0.0479999 -4.52593e-07
0.00500015 -0.0469998 -4.03002e-06
0.00500013 -0.046 -1.24342e-05
0.00500035 -0.0449997 -2.33705e-05
0.00500038 -0.0440002 -3.48063e-05
0.00500053 -0.0429999 -4.75302e-05
0.00500053 -0.0420001 -6.37744e-05
0.00500052 -0.0409997 -8.11703e-05
0.00500031 -0.0400005 -0.000100117
0.00500084 -0.0390001 -0.000116774
0.0050007 -0.0380004 -0.000134381
0.00500056 -0.0370002 -0.000153346
0.00500062 -0.0360007 -0.000174155
0.00500037 -0.0350007 -0.000194258
0.00500043 -0.0340009 -0.000212808
0.00500023 -0.033001 -0.000232804
0.00500039 -0.0320012 -0.000252364
0.00500161 -0.031001 -0.000272237
0.0050006 -0.030002 -0.000281158
0.00499987 -0.029001 -0.000285738
0.00500052 -0.0280015 -0.000288443
0.00500013 -0.0270008 -0.000291374
0.00500069 -0.0260014 -0.000292311
0.00500055 -0.0250007 -0.000292664
0.00500085 -0.0240012 -0.000293236
0.00500073 -0.0230007 -0.000291991
0.00500087 -0.022001 -0.000292376
0.00500064 -0.0210006 -0.000287613
0.00500102 -0.020001 -0.000284784
0.00500073 -0.0190006 -0.000274757
0.00500121 -0.0180009 -0.0002684
0.00500077 -0.0170005 -0.000256304
0.00500078 -0.0160009 -0.000249376
0.0050008 -0.0150006 -0.000234912
0.00500169 -0.0140005 -0.000223126
0.00500086 -0.0130008 -0.000205573
0.00500136 -0.0120009 -0.000192739
0.00500104 -0.0110008 -0.000177104
0.00500129 -0.0100008 -0.000163377
0.00500092 -0.00900116 -0.000149112
0.0050013 -0.00800089 -0.000132874
0.00500092 -0.00700124 -0.000119444
0.00500122 -0.00600089 -0.000102651
0.00500092 -0.00500115 -9.15058e-05
0.00500139 -0.00400118 -7.61604e-05
0.00500103 -0.00300108 -6.67198e-05
0.00500102 -0.00200135 -5.17164e-05
0.00500108 -0.00100082 -4.55723e-05
0.00500117 -1.38548e-06 -3.47141e-05
0.00500102 0.000998949 -2.91269e-05
0.00500121 0.00199852 -2.09225e-05
0.00500083 0.00299876 -1.68044e-05
0.00500061 0.00399856 -1.14501e-05
-0.049 0.006 0
-0.05 0.006 0
-0.048 0.00599984 3.84308e-09
-0.0469998 0.00599988 -1.20203e-06
-0.0460001 0.00600013 -8.43423e-07
-0.0449996 0.00600013 -3.3685e-06
-0.0439998 0.00600039 -2.38583e-06
-0.0429997 0.00600033 -4.66072e-06
-0.0419999 0.00600032 -4.26666e-06
-0.0409998 0.00600017 -7.75332e-06
-0.0400001 0.00600019 -7.39279e-06
-0.039 0.00600016 -1.01347e-05
-0.0379997 0.00600003 -8.49897e-06
-0.0370001 0.00599982 -1.05962e-05
-0.0359998 0.00599962 -9.05145e-06
-0.035 0.00599962 -9.07128e-06
-0.034 0.0059996 -9.0913e-06
-0.0329996 0.00599922 -1.10774e-05
-0.032 0.00599933 -1.50726e-05
-0.0309999 0.00599917 -1.70703e-05
-0.0299998 0.00599965 -1.99985e-05
-0.029 0.00599933 -2.10391e-05
-0.0279997 0.0059994 -2.39781e-05
-0.0269999 0.00599953 -2.71735e-05
-0.0259996 0.0059995 -2.90906e-05
-0.0249996 0.0059996 -3.06828e-05
-0.0239997 0.00599983 -2.98067e-05
-0.0229994 0.00599954 -3.18471e-05
-0.0219996 0.00599984 -3.11562e-05
-0.0209994 0.00599971 -3.53805e-05
-0.0199997 0.00599982 -3.44629e-05
-0.0189996 0.00599972 -3.85673e-05
-0.0179994 0.0059998 -3.68751e-05
-0.0169996 0.00599932 -4.02779e-05
-0.0159994 0.00599987 -3.91292e-05
-0.0149996 0.00599921 -4.27355e-05
-0.0139996 0.00599935 -4.14228e-05
-0.0129996 0.00599914 -4.29908e-05
-0.0119993 0.00599929 -3.8987e-05
-0.0109997 0.00599918 -3.89413e-05
-0.0099993 0.00599935 -3.55684e-05
-0.00899973 0.0059991 -3.74678e-05
-0.00799934 0.00599933 -3.50206e-05
-0.00699961 0.00599922 -3.72908e-05
-0.00599924 0.00599928 -3.52014e-05
-0.00499948 0.00599917 -3.72184e-05
-0.00399933 0.00599916 -3.35036e-05
-0.0029996 0.00599913 -3.41099e-05
-0.00199934 0.00599942 -2.94099e-05
-0.000999501 0.00599894 -2.95848e-05
4.69873e-07 0.00599918 -2.29354e-05
0.00100079 0.00599878 -2.11471e-05
0.00200063 0.00599904 -1.52221e-05
0.00300064 0.00599886 -1.35447e-05
0.00400054 0.00599897 -9.30324e-06
0.0050007 0.0049988 -9.14482e-06
0.00500043 0.00599851 -7.98845e-06
0.006 -0.05 0
0.006 -0.049 0
0.00600003 -0.0479999 -4.74257e-07
0.00600048 -0.0469999 -5.1647e-06
0.00600038 -0.0459999 -1.43133e-05
0.00600016 -0.0450001 -2.55093e-05
0.00600052 -0.0439997 -3.6166e-05
0.00600036 -0.0429999 -4.9722e-05
0.00600058 -0.0419998 -6.50439e-05
0.00600052 -0.0410002 -8.48927e-05
0.00600043 -0.0399998 -0.000103832
0.00600054 -0.0390004 -0.00012212
0.00600022 -0.0380002 -0.000139439
0.00600065 -0.0370005 -0.000159956
0.00600064 -0.0360003 -0.000180492
0.00600068 -0.035001 -0.000202527
0.00600049 -0.0340007 -0.000223533
0.00600061 -0.0330012 -0.000242669
0.00600002 -0.0320016 -0.000265037
0.00599965 -0.0310014 -0.000283911
0.00600007 -0.0300012 -0.000290611
0.00600046 -0.0290014 -0.000292798
0.00600027 -0.0280012 -0.000296236
0.00600069 -0.0270013 -0.000297899
0.00600066 -0.026001 -0.000299422
0.00600082 -0.0250015 -0.000299625
0.00600117 -0.0240008 -0.000299631
0.0060011 -0.0230012 -0.000300283
0.00600082 -0.0220008 -0.000297699
0.00600136 -0.0210011 -0.00029476
0.0060009 -0.020001 -0.0002857
0.00600128 -0.0190011 -0.000280108
0.00600112 -0.0180009 -0.000268575
0.00600133 -0.0170008 -0.0002612
0.00600111 -0.0160008 -0.00024893
0.00600153 -0.0150007 -0.000238896
0.00600119 -0.0140009 -0.000221401
0.006002 -0.0130008 -0.000208429
0.00600113 -0.0120011 -0.000191313
0.00600138 -0.011001 -0.00017688
0.00600103 -0.0100011 -0.000159778
0.00600135 -0.00900106 -0.0001438
0.0060009 -0.00800161 -0.000128083
0.00600124 -0.007001 -0.000111945
0.00600059 -0.00600117 -9.87945e-05
0.00600088 -0.0050013 -8.42778e-05
0.00600061 -0.00400139 -7.39195e-05
0.00600088 -0.00300109 -5.92332e-05
0.00600081 -0.00200126 -4.98777e-05
0.00600097 -0.00100142 -3.85588e-05
0.006001 -1.05745e-06 -3.21433e-05
0.00600097 0.000998756 -2.22863e-05
0.00600096 0.00199876 -1.68011e-05
0.00600076 0.00299856 -1.11956e-05
0.00600063 0.00399879 -8.42568e-06
0.00600059 0.00499844 -6.19924e-06
-0.049 0.007 0
-0.05 0.007 0
-0.048 0.0069999 -3.07514e-07
-0.0470002 0.00699994 -7.50933e-09
-0.0459999 0.00699998 -1.85973e-06
-0.0449999 0.00700006 -1.37851e-06
-0.0439999 0.00699995 -4.96818e-06
-0.0429997 0.00700022 -4.11405e-06
-0.042 0.00699985 -7.89889e-06
-0.0409998 0.00699988 -6.67844e-06
-0.0399997 0.00699989 -9.66151e-06
-0.039 0.00699994 -7.73597e-06
-0.0379997 0.00699983 -9.75467e-06
-0.0370001 0.00699996 -7.81859e-06
-0.0359996 0.00699987 -9.15829e-06
-0.0350001 0.00699999 -8.84598e-06
-0.0339995 0.00699991 -1.0248e-05
-0.033 0.00699983 -1.30723e-05
-0.0319995 0.00699958 -1.579e-05
-0.0310001 0.00699976 -1.89364e-05
-0.0299997 0.00699983 -1.92944e-05
-0.0290002 0.00699975 -2.07783e-05
-0.0279998 0.00699934 -2.26486e-05
-0.0269999 0.00699959 -2.4881e-05
-0.0259997 0.00699927 -2.82538e-05
-0.0249997 0.00699959 -2.87754e-05
-0.0239996 0.00699954 -3.06129e-05
-0.0229997 0.00699972 -2.98296e-05
-0.0219998 0.00699953 -3.30174e-05
-0.0209996 0.00699985 -3.27808e-05
-0.0199994 0.00699973 -3.64447e-05
-0.0189995 0.00699993 -3.44835e-05
-0.0179994 0.00699963 -3.64177e-05
-0.0169994 0.00699981 -3.49976e-05
-0.0159996 0.00699931 -3.82727e-05
-0.0149995 0.00699956 -3.8343e-05
-0.0139995 0.00699928 -4.09415e-05
-0.0129997 0.00699933 -3.91751e-05
-0.0119992 0.00699917 -3.92478e-05
-0.0109996 0.00699927 -3.651e-05
-0.00999944 0.006999 -3.6562e-05
-0.00899956 0.00699913 -3.30898e-05
-0.00799938 0.00699912 -3.33628e-05
-0.00699935 0.00699905 -3.0747e-05
-0.00599927 0.00699885 -3.25576e-05
-0.00499949 0.00699904 -3.0203e-05
-0.00399937 0.00699865 -3.1771e-05
-0.00299957 0.00699911 -2.77979e-05
-0.00199928 0.0069988 -2.84848e-05
-0.000999527 0.00699874 -2.27695e-05
8.3924e-07 0.00699866 -2.2082e-05
0.00100061 0.00699868 -1.63493e-05
0.00200076 0.00699885 -1.56712e-05
0.00300046 0.00699901 -1.11805e-05
0.00400053 0.00699857 -1.01094e-05
0.00500042 0.00699877 -6.17411e-06
0.00600045 0.00599856 -4.8177e-06
0.00600054 0.00699836 -4.21066e-06
0.007 -0.05 0
0.007 -0.049 0
0.00700012 -0.048 -1.01915e-06
0.00700046 -0.0469997 -5.33828e-06
0.00700037 -0.046 -1.49608e-05
0.0070003 -0.0449997 -2.57108e-05
0.00700051 -0.0439999 -3.76218e-05
0.00700062 -0.0429996 -4.99096e-05
0.00700033 -0.042 -6.69949e-05
0.00700065 -0.041 -8.55595e-05
0.00700051 -0.04 -0.00010627
0.00700034 -0.0390003 -0.000123857
0.00700082 -0.0380005 -0.000143202
0.00700036 -0.0370005 -0.000163037
0.00700061 -0.036001 -0.000187527
0.00700028 -0.0350011 -0.000210255
0.00700046 -0.0340012 -0.000233078
0.00700042 -0.0330009 -0.000252826
0.00700058 -0.032002 -0.000271714
0.00700137 -0.0310011 -0.000288344
0.00700059 -0.0300016 -0.00029642
0.00700019 -0.0290012 -0.000300035
0.00700044 -0.0280018 -0.000303345
0.00700033 -0.027001 -0.000306066
0.00700062 -0.0260016 -0.000306584
0.00700053 -0.0250011 -0.000306931
0.00700049 -0.0240016 -0.00030652
0.00700055 -0.023001 -0.000305122
0.00700092 -0.0220016 -0.000303199
0.00700047 -0.0210012 -0.000296411
0.0070012 -0.0200012 -0.000289932
0.00700066 -0.0190011 -0.000279247
0.00700101 -0.0180012 -0.000271853
0.00700043 -0.017001 -0.000260846
0.00700101 -0.016001 -0.00025274
0.00700068 -0.015001 -0.000237677
0.00700152 -0.0140009 -0.000224484
0.00700083 -0.0130012 -0.000206514
0.00700134 -0.0120007 -0.000192451
0.00700105 -0.0110011 -0.000174022
0.00700143 -0.0100008 -0.000157504
0.00700094 -0.00900132 -0.000139815
0.00700109 -0.0080014 -0.000123514
0.00700055 -0.00700162 -0.000109178
0.00700129 -0.00600104 -9.42913e-05
0.0070006 -0.00500138 -8.22923e-05
0.00700094 -0.00400135 -6.85267e-05
0.00700103 -0.0030014 -5.77564e-05
0.00700132 -0.00200139 -4.33125e-05
0.00700126 -0.00100112 -3.63771e-05
0.00700121 -1.39533e-06 -2.50294e-05
0.00700115 0.000998745 -1.78578e-05
0.00700096 0.00199851 -9.11303e-06
0.00700071 0.0029989 -6.43192e-06
0.0070008 0.00399838 -2.69748e-06
0.00700068 0.00499881 -2.98514e-06
0.00700068 0.00599845 -2.22579e-06
-0.049 0.008 0
-0.05 0.008 0
-0.0480002 0.00800004 3.42038e-07
-0.0469998 0.00799994 7.23747e-08
-0.0460003 0.00799996 9.52715e-07
-0.0449998 0.00800001 -1.42146e-06
-0.0440001 0.0080002 -2.0702e-06
-0.0429998 0.00800006 -6.33154e-06
-0.0419995 0.00800031 -6.8776e-06
-0.0409998 0.00799981 -9.37829e-06
-0.0399998 0.00800024 -7.56413e-06
-0.0389999 0.00800018 -8.87814e-06
-0.0379996 0.00799993 -7.24036e-06
-0.0369998 0.00799973 -9.37485e-06
-0.0359998 0.00799974 -9.08475e-06
-0.0349997 0.00799959 -1.02707e-05
-0.0339999 0.0079995 -1.19131e-05
-0.0329996 0.00799961 -1.37999e-05
-0.0319998 0.0079996 -1.70265e-05
-0.031 0.00799962 -1.72138e-05
-0.03 0.00799957 -1.96462e-05
-0.0290001 0.0079995 -1.94015e-05
-0.0280001 0.00799961 -2.17653e-05
-0.0269997 0.00799932 -2.37313e-05
-0.0259997 0.00799974 -2.63913e-05
-0.0249994 0.00799945 -2.852e-05
-0.0239998 0.00799959 -2.92713e-05
-0.0229997 0.00799961 -3.16227e-05
-0.0219998 0.00799982 -3.19926e-05
-0.0209997 0.00799968 -3.54245e-05
-0.0199996 0.0079997 -3.42156e-05
-0.0189996 0.00799976 -3.56325e-05
-0.0179994 0.00799985 -3.35666e-05
-0.0169997 0.00799955 -3.5398e-05
-0.015999 0.00799964 -3.5404e-05
-0.0149997 0.00799927 -3.77754e-05
-0.0139992 0.00799945 -3.73591e-05
-0.0129994 0.00799936 -3.85953e-05
-0.0119994 0.00799925 -3.69227e-05
-0.0109993 0.00799928 -3.75114e-05
-0.00999925 0.00799934 -3.47075e-05
-0.00899953 0.00799905 -3.41816e-05
-0.00799918 0.0079994 -2.95204e-05
-0.00699947 0.00799919 -2.94656e-05
-0.00599933 0.00799913 -2.68704e-05
-0.0049994 0.00799919 -2.94906e-05
-0.00399935 0.00799935 -2.64451e-05
-0.00299977 0.00799903 -2.77494e-05
-0.00199925 0.00799944 -2.25378e-05
-0.000999526 0.00799932 -2.29554e-05
5.82203e-07 0.00799919 -1.69422e-05
0.00100049 0.00799918 -1.7875e-05
0.00200033 0.007999 -1.31047e-05
0.00300055 0.00799892 -1.34007e-05
0.0040006 0.00799879 -8.73154e-06
0.00500046 0.00799848 -8.21593e-06
0.00600059 0.00799873 -3.34871e-06
0.00700036 0.0069985 -9.0013e-07
0.00700013 0.00799835 -1.16205e-06
0.008 -0.05 0
0.008 -0.049 0
0.00800003 -0.0479998 -1.02556e-06
0.0080002 -0.047 -6.50568e-06
0.00800025 -0.0459996 -1.49004e-05
0.0080001 -0.0450004 -2.56834e-05
0.00800017 -0.0439994 -3.66685e-05
0.00800025 -0.0430001 -5.13743e-05
0.0080003 -0.0419994 -6.73911e-05
0.00800047 -0.0410002 -8.79292e-05
0.00800017 -0.0399996 -0.000106321
0.00800068 -0.0390004 -0.000125978
0.00800063 -0.0380002 -0.000144637
0.00800064 -0.0370009 -0.000168949
0.00800082 -0.0360007 -0.000191853
0.00800072 -0.0350016 -0.000217835
0.00800056 -0.0340014 -0.000240686
0.00800071 -0.0330015 -0.000265207
0.00800202 -0.0320011 -0.000285429
0.00800111 -0.0310024 -0.000296189
0.0080009 -0.0300012 -0.000301517
0.0080006 -0.0290016 -0.000307631
0.0080004 -0.0280012 -0.000312244
0.0080009 -0.0270014 -0.000314557
0.00800083 -0.0260013 -0.000315396
0.00800133 -0.0250017 -0.000313893
0.00800092 -0.0240012 -0.000311857
0.00800109 -0.0230017 -0.000310852
0.00800093 -0.022001 -0.000307051
0.00800105 -0.0210012 -0.000302043
0.00800093 -0.020001 -0.000290967
0.0080014 -0.0190012 -0.000283558
0.00800112 -0.0180009 -0.000271763
0.00800134 -0.0170009 -0.000263918
0.00800075 -0.016001 -0.000251977
0.00800158 -0.0150008 -0.000240689
0.00800107 -0.0140011 -0.000222802
0.00800148 -0.0130011 -0.000208563
0.00800111 -0.0120009 -0.00019009
0.00800162 -0.0110012 -0.000173473
0.00800098 -0.0100012 -0.000154091
0.00800127 -0.00900129 -0.000137228
0.00800078 -0.0080015 -0.000121101
0.0080012 -0.00700157 -0.000106104
0.00800068 -0.00600131 -9.24184e-05
0.00800082 -0.00500145 -7.78768e-05
0.00800052 -0.00400124 -6.63598e-05
0.00800067 -0.00300143 -5.14221e-05
0.00800065 -0.00200117 -4.13041e-05
0.00800099 -0.00100161 -2.9847e-05
0.00800071 -1.37886e-06 -2.27632e-05
0.00800074 0.000998615 -1.15562e-05
0.00800112 0.00199868 -5.78434e-06
0.00800108 0.0029986 5.16129e-07
0.00800077 0.0039988 1.44499e-06
0.00800074 0.00499886 3.41823e-06
0.00800076 0.00599856 2.27772e-06
0.00800035 0.00699861 3.68269e-06
-0.049 0.009 0
-0.05 0.009 0
-0.0479999 0.00899993 1.8029e-07
-0.0469998 0.00900002 9.58593e-07
-0.0460001 0.009 2.04588e-07
-0.045 0.00900009 6.33362e-07
-0.0440002 0.00899979 -3.49432e-06
-0.0429998 0.00900012 -4.32004e-06
-0.0420001 0.00899971 -8.41921e-06
-0.0409996 0.00900019 -6.87016e-06
-0.0399998 0.00899976 -8.65764e-06
-0.0389997 0.00899993 -6.48595e-06
-0.0379994 0.00899974 -9.0446e-06
-0.0370001 0.00899996 -8.30066e-06
-0.0359993 0.00899991 -1.06709e-05
-0.0349998 0.00900003 -1.19535e-05
-0.0339997 0.00899974 -1.37818e-05
-0.0329999 0.0089997 -1.61097e-05
-0.0319998 0.00899994 -1.70891e-05
-0.0309999 0.00899988 -1.93578e-05
-0.0299998 0.00899999 -1.91037e-05
-0.0290001 0.00899985 -2.07074e-05
-0.0279998 0.00899971 -2.08444e-05
-0.0269999 0.00899948 -2.22201e-05
-0.0259996 0.00899929 -2.39185e-05
-0.0249996 0.00899958 -2.57475e-05
-0.0239996 0.0089996 -2.78116e-05
-0.0229998 0.00899944 -2.92404e-05
-0.0219995 0.00899979 -3.22106e-05
-0.0209998 0.00899963 -3.32649e-05
-0.0199995 0.00899948 -3.52534e-05
-0.0189999 0.00899973 -3.39236e-05
-0.0179994 0.00899952 -3.39453e-05
-0.0169995 0.00899976 -3.36609e-05
-0.0159994 0.00899932 -3.49335e-05
-0.0149995 0.00899974 -3.52259e-05
-0.0139993 0.0089991 -3.57583e-05
-0.0129993 0.00899942 -3.49815e-05
-0.0119993 0.00899926 -3.54806e-05
-0.0109996 0.00899942 -3.53565e-05
-0.0099994 0.00899935 -3.56194e-05
-0.00899968 0.00899955 -3.22644e-05
-0.00799945 0.00899909 -2.96436e-05
-0.00699954 0.00899898 -2.50762e-05
-0.0059992 0.00899891 -2.46298e-05
-0.00499968 0.00899875 -2.28019e-05
-0.00399913 0.00899891 -2.50081e-05
-0.0029994 0.00899889 -2.22458e-05
-0.00199898 0.0089988 -2.28794e-05
-0.000999567 0.00899894 -1.78165e-05
6.02783e-07 0.00899865 -1.82192e-05
0.00100037 0.00899874 -1.42256e-05
0.00200048 0.0089987 -1.53339e-05
0.00300038 0.00899875 -1.16573e-05
0.00400059 0.00899888 -1.22846e-05
0.00500028 0.00899882 -8.31563e-06
0.00600053 0.00899872 -6.24538e-06
0.00700032 0.00899871 -1.04436e-06
0.00800043 0.00799835 3.70529e-06
0.00800053 0.00899833 3.38639e-06
0.009 -0.05 0
0.009 -0.049 0
0.00900028 -0.048 -1.41858e-06
0.00900014 -0.0469999 -5.95896e-06
0.00900044 -0.0459999 -1.48361e-05
0.00900043 -0.0449996 -2.56259e-05
0.00900049 -0.0439998 -3.84462e-05
0.0090006 -0.0429997 -5.22063e-05
0.00900074 -0.0419997 -7.019e-05
0.00900064 -0.0409998 -8.92206e-05
0.00900081 -0.0399998 -0.000109686
0.00900084 -0.0390004 -0.00012802
0.00900063 -0.0380002 -0.000149501
0.00900076 -0.0370004 -0.000171588
0.00900068 -0.0360008 -0.00019858
0.00900035 -0.0350011 -0.000222704
0.00900028 -0.0340016 -0.000247241
0.00900033 -0.0330026 -0.000274701
0.00900046 -0.0320019 -0.000300729
0.00900023 -0.0310021 -0.00030841
0.00900036 -0.0300018 -0.000310525
0.00900071 -0.0290013 -0.000314942
0.00900048 -0.0280015 -0.000319659
0.00900069 -0.0270016 -0.000322675
0.00900116 -0.0260013 -0.000324024
0.00900066 -0.0250012 -0.000322761
0.0090009 -0.0240014 -0.000320827
0.00900066 -0.0230009 -0.000317437
0.0090009 -0.0220015 -0.0003155
0.00900081 -0.0210007 -0.000307219
0.00900113 -0.0200013 -0.000299748
0.00900117 -0.0190009 -0.000286608
0.00900107 -0.0180012 -0.000277868
0.00900063 -0.0170009 -0.000264922
0.00900113 -0.0160009 -0.000255414
0.00900078 -0.0150011 -0.000238802
0.0090013 -0.0140009 -0.000225019
0.00900089 -0.0130012 -0.000206317
0.00900132 -0.0120009 -0.000190934
0.00900086 -0.0110014 -0.000170555
0.00900142 -0.010001 -0.000152277
0.00900076 -0.0090017 -0.000133603
0.0090012 -0.00800124 -0.000118123
0.00900052 -0.00700153 -0.000104111
0.00900112 -0.0060014 -8.89766e-05
0.00900088 -0.00500145 -7.45076e-05
0.00900089 -0.00400154 -5.93293e-05
0.00900083 -0.00300157 -4.72291e-05
0.00900106 -0.00200165 -3.35467e-05
0.00900117 -0.00100154 -2.64765e-05
0.00900086 -1.40551e-06 -1.59264e-05
0.00900097 0.000998629 -8.85449e-06
0.00900091 0.00199832 -4.31704e-07
0.009001 0.00299897 2.91954e-06
0.00900039 0.00399829 8.45207e-06
0.00900052 0.00499895 8.10338e-06
0.00900071 0.00599843 8.90109e-06
0.00900052 0.00699856 7.98828e-06
0.00900043 0.00799824 7.57184e-06
-0.049 0.01 0
-0.05 0.01 0
-0.0480002 0.00999999 -3.859e-09
-0.0469999 0.00999973 -1.47571e-07
-0.0460002 0.00999995 3.74507e-07
-0.0449999 0.0100001 -9.09016e-07
-0.0440001 0.01 -1.44666e-06
-0.043 0.0100001 -5.1773e-06
-0.0419999 0.0100002 -5.71037e-06
-0.0409997 0.0100001 -7.54535e-06
-0.0399996 0.0100001 -5.76458e-06
-0.0389998 0.00999972 -6.92383e-06
-0.0379997 0.0100001 -6.61088e-06
-0.0369996 0.0099998 -9.71879e-06
-0.0359997 0.00999997 -1.11036e-05
-0.0349995 0.00999972 -1.33771e-05
-0.0339997 0.00999977 -1.55295e-05
-0.0329996 0.0099999 -1.71062e-05
-0.0319998 0.00999958 -1.92466e-05
-0.0309998 0.00999969 -1.9126e-05
-0.0299999 0.00999959 -2.14351e-05
-0.0290001 0.00999953 -2.08603e-05
-0.0279999 0.00999986 -2.14011e-05
-0.0269998 0.00999977 -2.09196e-05
-0.026 0.00999987 -2.17244e-05
-0.0249998 0.00999947 -2.34406e-05
-0.0239998 0.00999958 -2.53681e-05
-0.0229998 0.00999957 -2.88655e-05
-0.0219997 0.00999951 -3.05518e-05
-0.0209994 0.00999974 -3.36468e-05
-0.0199996 0.00999977 -3.28804e-05
-0.0189995 0.0099994 -3.36557e-05
-0.0179995 0.00999958 -3.27691e-05
-0.0169994 0.0099994 -3.4032e-05
-0.0159991 0.0099996 -3.43527e-05
-0.0149995 0.00999932 -3.46027e-05
-0.013999 0.00999957 -3.38293e-05
-0.0129996 0.00999912 -3.38993e-05
-0.0119996 0.00999949 -3.36184e-05
-0.0109996 0.00999933 -3.44054e-05
-0.00999941 0.00999953 -3.32345e-05
-0.0089997 0.00999914 -3.18685e-05
-0.00799921 0.00999935 -2.73248e-05
-0.00699939 0.00999909 -2.46462e-05
-0.00599945 0.00999922 -2.14906e-05
-0.00499951 0.0099991 -2.25277e-05
-0.00399909 0.00999938 -2.10044e-05
-0.00299932 0.0099991 -2.23065e-05
-0.00199871 0.00999942 -1.91245e-05
-0.000999433 0.00999926 -1.92008e-05
8.21532e-07 0.00999933 -1.51006e-05
0.0010008 0.00999935 -1.56587e-05
0.00200051 0.00999922 -1.23594e-05
0.00300061 0.00999913 -1.2883e-05
0.00400049 0.00999885 -1.04476e-05
0.0050005 0.0099988 -1.05602e-05
0.00600068 0.00999859 -6.48523e-06
0.00700033 0.00999849 -2.84741e-06
0.00800069 0.00999861 1.64385e-06
0.00899997 0.00899862 6.96912e-06
0.00900024 0.00999846 5.57704e-06
0.01 -0.05 0
0.01 -0.049 0
0.0100001 -0.0479997 -1.31847e-06
0.0100002 -0.0469998 -6.94176e-06
0.0100004 -0.0459999 -1.61274e-05
0.0100003 -0.0450001 -2.77415e-05
0.0100003 -0.0439995 -4.04386e-05
0.0100004 -0.0430002 -5.50874e-05
0.0100001 -0.0419995 -7.21208e-05
0.0100004 -0.0410004 -9.33613e-05
0.0100005 -0.0399998 -0.000113307
0.0100007 -0.0390005 -0.000133854
0.0100009 -0.0380002 -0.000153678
0.010001 -0.037001 -0.000178723
0.0100008 -0.0360004 -0.000202418
0.0100012 -0.0350014 -0.000229363
0.0100009 -0.0340009 -0.000252471
0.010002 -0.0330032 -0.000279433
0.0100021 -0.0320009 -0.000301402
0.010001 -0.0310014 -0.00031337
0.0100009 -0.0300016 -0.000316171
0.0100011 -0.0290018 -0.000320869
0.0100011 -0.0280012 -0.000324994
0.0100012 -0.0270016 -0.000329338
0.0100011 -0.0260012 -0.000331895
0.0100012 -0.0250012 -0.000331539
0.0100013 -0.0240009 -0.000328047
0.0100013 -0.0230012 -0.000326167
0.010001 -0.0220009 -0.000321224
0.010001 -0.0210013 -0.000315841
0.0100011 -0.0200008 -0.000303136
0.0100015 -0.0190013 -0.000294423
0.0100013 -0.0180008 -0.000280429
0.0100014 -0.0170012 -0.00027035
0.0100014 -0.0160009 -0.000255353
0.0100015 -0.015001 -0.000241296
0.0100012 -0.0140011 -0.000221929
0.0100015 -0.0130012 -0.000207211
0.0100012 -0.012001 -0.000187909
0.0100016 -0.0110013 -0.00017049
0.0100009 -0.0100014 -0.000148884
0.0100014 -0.00900154 -0.000130777
0.0100007 -0.00800155 -0.000113523
0.0100012 -0.00700182 -9.9362e-05
0.0100008 -0.00600147 -8.45e-05
0.0100009 -0.00500142 -6.83725e-05
0.0100009 -0.00400162 -5.41341e-05
0.0100007 -0.00300177 -3.87262e-05
0.0100006 -0.00200145 -2.91251e-05
0.0100006 -0.00100186 -1.8533e-05
0.0100003 -1.63166e-06 -1.22108e-05
0.0100007 0.00099847 -2.78178e-06
0.0100008 0.00199858 1.56304e-06
0.0100008 0.00299848 7.97928e-06
0.0100009 0.00399859 1.10256e-05
0.0100007 0.00499855 1.51919e-05
0.010001 0.00599857 1.40331e-05
0.0100009 0.00699846 1.40034e-05
0.0100009 0.00799865 1.16643e-05
0.0100008 0.00899841 1.0587e-05
-0.049 0.011 0
-0.05 0.011 0
-0.0479999 0.0109999 -5.21207e-07
-0.0470001 0.011 -1.4636e-06
-0.0460001 0.0109997 -2.54232e-06
-0.045 0.011 -2.13113e-06
-0.0440001 0.0109998 -4.01736e-06
-0.0429996 0.011 -3.70176e-06
-0.0420001 0.0109998 -5.81025e-06
-0.0409997 0.0109999 -4.64346e-06
-0.0399999 0.0109998 -5.77252e-06
-0.0389998 0.0109999 -4.66423e-06
-0.0379996 0.0109997 -7.12417e-06
-0.0369997 0.0109998 -8.10634e-06
-0.0359996 0.0109998 -1.07483e-05
-0.0349994 0.0109999 -1.38494e-05
-0.0339997 0.011 -1.58094e-05
-0.0329994 0.0109999 -1.87501e-05
-0.0319997 0.0110001 -1.9566e-05
-0.0309999 0.0109999 -2.21841e-05
-0.0299998 0.011 -2.18982e-05
-0.029 0.011 -2.2911e-05
-0.0279999 0.0109999 -2.12422e-05
-0.0269999 0.0109996 -2.04756e-05
-0.0259996 0.0109993 -2.02586e-05
-0.0249999 0.0109992 -2.19497e-05
-0.0239997 0.0109995 -2.4793e-05
-0.023 0.0109994 -2.74569e-05
-0.0219995 0.0109996 -3.06242e-05
-0.0209999 0.0109996 -3.13853e-05
-0.0199995 0.0109994 -3.26775e-05
-0.0189996 0.0109997 -3.18263e-05
-0.0179994 0.0109994 -3.25902e-05
-0.0169996 0.0109996 -3.35644e-05
-0.0159992 0.0109995 -3.47927e-05
-0.0149996 0.0109996 -3.43168e-05
-0.0139994 0.0109992 -3.3998e-05
-0.0129997 0.0109998 -3.25935e-05
-0.0119994 0.0109995 -3.32943e-05
-0.0109997 0.0109997 -3.27398e-05
-0.00999933 0.0109994 -3.28886e-05
-0.0089996 0.0109997 -2.96657e-05
-0.00799933 0.010999 -2.78378e-05
-0.00699974 0.0109992 -2.40293e-05
-0.00599929 0.0109989 -2.32549e-05
-0.00499934 0.0109989 -2.05427e-05
-0.00399929 0.0109986 -2.17641e-05
-0.00299925 0.010999 -1.94462e-05
-0.00199922 0.0109988 -2.05615e-05
-0.000999466 0.0109991 -1.69956e-05
1.01437e-06 0.0109989 -1.69532e-05
0.00100062 0.0109989 -1.26579e-05
0.0020007 0.0109989 -1.23723e-05
0.00300076 0.0109987 -8.96422e-06
0.00400094 0.0109988 -1.05403e-05
0.00500039 0.0109988 -8.34403e-06
0.00600072 0.0109987 -7.85038e-06
0.00700047 0.010999 -3.10907e-06
0.00800047 0.0109987 2.1452e-07
0.00900037 0.0109989 3.21094e-06
0.0100005 0.00999867 7.53021e-06
0.0100002 0.0109987 5.04237e-06
0.011 -0.05 0
0.011 -0.049 0
0.0109999 -0.048 -1.4913e-06
0.0110003 -0.0469998 -7.05638e-06
0.0110002 -0.046 -1.68444e-05
0.0110003 -0.0449997 -3.04622e-05
0.0110007 -0.0439997 -4.37598e-05
0.0110007 -0.0429997 -5.74628e-05
0.0110009 -0.0419999 -7.50151e-05
0.0110009 -0.0410002 -9.58358e-05
0.0110009 -0.0400001 -0.000118115
0.0110011 -0.0390002 -0.000138066
0.0110008 -0.0380005 -0.000160041
0.0110008 -0.0370001 -0.000181635
0.0110011 -0.0360009 -0.000209764
0.0110006 -0.035001 -0.000233948
0.011001 -0.0340017 -0.000259189
0.0110007 -0.0330011 -0.000280553
0.0110006 -0.0320015 -0.000302226
0.0110008 -0.0310016 -0.000316674
0.0110006 -0.0300013 -0.000324496
0.0110006 -0.0290016 -0.000328084
0.0110005 -0.0280013 -0.000333276
0.0110006 -0.0270012 -0.000337987
0.0110008 -0.0260009 -0.00034149
0.0110009 -0.0250009 -0.000341697
0.0110008 -0.024001 -0.000337867
0.011001 -0.0230008 -0.000332483
0.0110012 -0.0220009 -0.000328123
0.0110011 -0.0210009 -0.000319336
0.0110013 -0.020001 -0.000310651
0.0110012 -0.0190007 -0.000297247
0.0110013 -0.0180006 -0.000286959
0.0110012 -0.0170011 -0.000273089
0.0110012 -0.016001 -0.000259858
0.0110012 -0.0150011 -0.000240588
0.0110013 -0.0140009 -0.000223465
0.011001 -0.0130015 -0.000204116
0.0110011 -0.012001 -0.000187499
0.011001 -0.0110014 -0.000167341
0.0110015 -0.0100011 -0.000147143
0.0110008 -0.00900189 -0.000125728
0.0110013 -0.00800142 -0.000107862
0.0110007 -0.0070019 -9.27895e-05
0.0110007 -0.00600138 -7.81139e-05
0.0110009 -0.00500172 -6.29485e-05
0.011001 -0.00400169 -4.71554e-05
0.0110009 -0.00300169 -3.41078e-05
0.0110011 -0.0020017 -2.12764e-05
0.0110011 -0.00100191 -1.39759e-05
0.0110009 -1.71416e-06 -4.09842e-06
0.0110007 0.000998317 1.61507e-06
0.011001 0.00199817 7.97125e-06
0.0110005 0.00299839 1.00426e-05
0.0110003 0.00399828 1.65276e-05
0.0110008 0.00499875 1.69734e-05
0.0110007 0.00599838 1.89577e-05
0.0110009 0.00699852 1.61337e-05
0.0110006 0.00799829 1.45401e-05
0.0110002 0.0089987 1.22057e-05
0.0110001 0.00999883 1.04055e-05
-0.049 0.012 0
-0.05 0.012 0
-0.0480002 0.012 -9.49204e-07
-0.047 0.0119997 -2.65765e-06
-0.0460004 0.012 -3.90638e-06
-0.0450001 0.0119999 -4.76069e-06
-0.0440002 0.0120001 -3.83938e-06
-0.0429996 0.0119999 -4.835e-06
-0.0420001 0.0120002 -3.92717e-06
-0.0409997 0.012 -5.41133e-06
-0.0399998 0.012 -4.67586e-06
-0.0389997 0.0119998 -6.46266e-06
-0.0379999 0.0120002 -7.0112e-06
-0.0369995 0.0120001 -1.00321e-05
-0.0359999 0.0120002 -1.19189e-05
-0.0349995 0.0119999 -1.43471e-05
-0.0339999 0.012 -1.66995e-05
-0.0329999 0.0119998 -1.87111e-05
-0.0319997 0.0119998 -2.05732e-05
-0.0309996 0.0119999 -2.11156e-05
-0.0299996 0.0119994 -2.3256e-05
-0.0289997 0.0119999 -2.31274e-05
-0.0279998 0.0119997 -2.28915e-05
-0.027 0.0119998 -2.15337e-05
-0.0259999 0.0119998 -2.11087e-05
-0.0249997 0.0119996 -2.2578e-05
-0.0239999 0.0119997 -2.49685e-05
-0.0229995 0.0119995 -2.86371e-05
-0.0219997 0.0119993 -3.00508e-05
-0.0209997 0.0119995 -3.21247e-05
-0.0199996 0.0119996 -3.11192e-05
-0.0189994 0.0119995 -3.21586e-05
-0.0179996 0.0119996 -3.22499e-05
-0.0169994 0.0119993 -3.44019e-05
-0.0159996 0.0119995 -3.49289e-05
-0.0149999 0.0119991 -3.52841e-05
-0.0139993 0.0119998 -3.39061e-05
-0.0129997 0.0119993 -3.42085e-05
-0.0119992 0.0119997 -3.2899e-05
-0.0109997 0.011999 -3.29377e-05
-0.00999916 0.0119993 -2.9953e-05
-0.00899971 0.011999 -2.87349e-05
-0.00799905 0.0119992 -2.57012e-05
-0.00699962 0.0119989 -2.53358e-05
-0.00599927 0.0119992 -2.30896e-05
-0.00499938 0.0119989 -2.26051e-05
-0.00399924 0.0119992 -1.91542e-05
-0.00299951 0.0119989 -1.91985e-05
-0.00199932 0.0119993 -1.67968e-05
-0.000999605 0.0119993 -1.72815e-05
7.51478e-07 0.0119995 -1.35023e-05
0.00100048 0.0119994 -1.22327e-05
0.00200052 0.0119991 -7.90046e-06
0.00300075 0.0119989 -7.35256e-06
0.00400035 0.0119989 -5.61375e-06
0.00500056 0.0119987 -6.62146e-06
0.00600053 0.0119989 -4.65356e-06
0.00700046 0.0119987 -2.86791e-06
0.00800042 0.0119988 -2.99936e-07
0.00900049 0.0119986 2.27776e-06
0.0100005 0.0119989 3.0108e-06
0.0110001 0.0109987 6.39519e-06
0.0110002 0.0119986 4.83771e-06
0.012 -0.05 0
0.012 -0.049 0
0.0120001 -0.0479999 -1.36175e-06
0.0120002 -0.0469997 -6.68533e-06
0.0120002 -0.0459999 -1.72647e-05
0.0120005 -0.0449999 -3.07363e-05
0.0120001 -0.0439995 -4.50931e-05
0.0120005 -0.0429999 -5.97287e-05
0.0120007 -0.0419997 -7.6703e-05
0.0120004 -0.0410001 -9.89146e-05
0.012001 -0.0399999 -0.00012026
0.0120008 -0.0390006 -0.000142344
0.0120007 -0.038 -0.000162811
0.0120007 -0.0370007 -0.000188495
0.0120011 -0.0360005 -0.000213272
0.0120011 -0.0350013 -0.000241598
0.0120011 -0.0340009 -0.000264028
0.0120014 -0.0330014 -0.000287642
0.0120008 -0.0320013 -0.000307745
0.0120009 -0.0310016 -0.000323243
0.0120016 -0.0300016 -0.000331472
0.0120007 -0.0290016 -0.000338514
0.0120012 -0.0280011 -0.000342939
0.0120007 -0.0270014 -0.000347139
0.0120009 -0.026001 -0.000350148
0.0120011 -0.0250013 -0.000349483
0.0120011 -0.0240009 -0.000344672
0.0120016 -0.0230007 -0.000340204
0.0120014 -0.022001 -0.000333337
0.0120016 -0.0210005 -0.000326376
0.0120012 -0.0200007 -0.000313022
0.0120015 -0.0190006 -0.000303022
0.0120015 -0.0180006 -0.000288293
0.0120016 -0.0170008 -0.000276327
0.0120015 -0.0160008 -0.000259987
0.0120014 -0.015001 -0.000242408
0.0120014 -0.0140011 -0.000221689
0.0120013 -0.0130009 -0.00020401
0.0120013 -0.0120012 -0.000184504
0.0120014 -0.0110013 -0.000165926
0.0120011 -0.0100013 -0.00014412
0.0120013 -0.00900148 -0.000122722
0.0120008 -0.00800164 -0.000102722
0.0120009 -0.00700164 -8.64543e-05
0.0120008 -0.00600199 -7.1691e-05
0.0120007 -0.00500153 -5.68362e-05
0.0120009 -0.00400203 -4.29072e-05
0.0120007 -0.00300189 -2.77448e-05
0.0120008 -0.00200176 -1.71926e-05
0.0120005 -0.00100188 -6.15932e-06
0.0120004 -1.67235e-06 1.07131e-06
0.0120006 0.000998065 8.99051e-06
0.0120004 0.00199816 1.24044e-05
0.012001 0.00299837 1.67116e-05
0.0120008 0.00399846 1.85048e-05
0.012001 0.00499815 2.19585e-05
0.012001 0.00599869 2.03692e-05
0.0120008 0.00699839 2.04522e-05
0.0120009 0.00799853 1.62968e-05
0.0120009 0.00899859 1.52416e-05
0.0120006 0.00999863 1.0631e-05
0.0120002 0.0109985 8.38735e-06
-0.049 0.013 0
-0.05 0.013 0
-0.0480001 0.0129999 -7.82704e-07
-0.0470004 0.013 -2.90116e-06
-0.0460003 0.0129998 -5.16794e-06
-0.0450001 0.0129999 -5.66175e-06
-0.0440001 0.0129997 -5.9755e-06
-0.0430001 0.0129998 -3.91426e-06
-0.0420001 0.0129996 -4.09151e-06
-0.0409998 0.0129998 -3.58388e-06
-0.04 0.0129996 -6.06061e-06
-0.0389995 0.0129997 -6.99243e-06
-0.0379998 0.0129997 -1.00394e-05
-0.0369995 0.0129999 -1.1181e-05
-0.0359996 0.013 -1.2869e-05
-0.0349998 0.0129997 -1.51192e-05
-0.0339996 0.013 -1.64362e-05
-0.0329994 0.0129999 -1.8406e-05
-0.0319998 0.0130002 -1.92179e-05
-0.0309996 0.0130001 -2.12324e-05
-0.0299997 0.0130001 -2.22751e-05
-0.0289999 0.0130002 -2.39375e-05
-0.0279995 0.0129998 -2.41533e-05
-0.027 0.0129998 -2.29663e-05
-0.0259997 0.0129997 -2.27215e-05
-0.0250002 0.0129996 -2.28519e-05
-0.0239997 0.0129994 -2.56622e-05
-0.0229998 0.0129994 -2.69069e-05
-0.0219996 0.0129994 -3.0012e-05
-0.0209999 0.0129992 -2.96651e-05
-0.0199997 0.0129995 -3.20091e-05
-0.0189998 0.0129995 -3.10192e-05
-0.0179995 0.0129993 -3.26985e-05
-0.0169999 0.0129996 -3.26357e-05
-0.0159996 0.0129993 -3.43066e-05
-0.0149997 0.0129998 -3.31417e-05
-0.0139996 0.0129996 -3.42536e-05
-0.0129996 0.0129998 -3.24831e-05
-0.0119995 0.0129996 -3.34481e-05
-0.0109997 0.0129996 -3.07039e-05
-0.00999916 0.0129994 -2.95961e-05
-0.00899956 0.0129995 -2.58331e-05
-0.00799903 0.0129991 -2.56988e-05
-0.00699965 0.0129995 -2.46959e-05
-0.00599939 0.0129992 -2.45943e-05
-0.00499967 0.0129992 -2.1221e-05
-0.00399928 0.0129989 -1.89945e-05
-0.00299956 0.012999 -1.62072e-05
-0.00199945 0.0129991 -1.604e-05
-0.000999494 0.012999 -1.47072e-05
7.38434e-07 0.012999 -1.3532e-05
0.00100084 0.0129987 -1.01704e-05
0.00200075 0.0129988 -7.84645e-06
0.00300068 0.0129987 -5.06195e-06
0.00400075 0.012999 -5.02437e-06
0.00500018 0.0129989 -3.83367e-06
0.0060008 0.012999 -3.80614e-06
0.00700052 0.0129992 -1.66404e-06
0.00800066 0.0129991 -1.39923e-07
0.00900062 0.0129991 1.17638e-06
0.0100004 0.0129988 2.35414e-06
0.0110003 0.0129991 2.97425e-06
0.0120005 0.0119988 4.96334e-06
0.0120003 0.0129984 4.96475e-06
0.013 -0.05 0
0.013 -0.049 0
0.013 -0.0479999 -8.17057e-07
0.0130005 -0.047 -5.34576e-06
0.0130004 -0.0459999 -1.43538e-05
0.0130002 -0.0449997 -2.99338e-05
0.0130007 -0.0439999 -4.54861e-05
0.0130007 -0.0429996 -6.16659e-05
0.0130008 -0.0419997 -7.9453e-05
0.0130007 -0.0409999 -0.000100307
0.013001 -0.0400001 -0.000121848
0.0130006 -0.0390004 -0.000143023
0.0130008 -0.0380005 -0.000165959
0.0130011 -0.0370005 -0.000188988
0.0130008 -0.0360006 -0.000218288
0.0130008 -0.0350009 -0.00024279
0.0130007 -0.0340012 -0.000267896
0.013001 -0.0330013 -0.000288714
0.0130013 -0.0320013 -0.000313182
0.0130017 -0.0310023 -0.000331102
0.0130006 -0.0300014 -0.000342494
0.0130013 -0.0290014 -0.000346416
0.013001 -0.0280015 -0.00035244
0.0130013 -0.0270014 -0.000354835
0.013001 -0.0260013 -0.000357075
0.0130013 -0.0250012 -0.000355801
0.0130013 -0.0240009 -0.000352383
0.0130011 -0.0230009 -0.000346051
0.013001 -0.0220007 -0.000341346
0.0130011 -0.0210008 -0.000330569
0.0130013 -0.0200007 -0.000321116
0.0130014 -0.0190006 -0.000305054
0.0130014 -0.0180004 -0.000293182
0.0130014 -0.017001 -0.000276656
0.0130013 -0.0160006 -0.000261911
0.0130014 -0.0150009 -0.000240938
0.0130014 -0.0140005 -0.000222781
0.0130013 -0.0130013 -0.000201622
0.0130012 -0.0120011 -0.000183186
0.0130011 -0.0110015 -0.000161987
0.0130009 -0.010001 -0.000141222
0.0130009 -0.00900197 -0.000118124
0.0130012 -0.0080014 -9.86325e-05
0.0130009 -0.0070023 -8.13698e-05
0.0130006 -0.00600167 -6.64529e-05
0.0130009 -0.0050021 -5.16887e-05
0.0130009 -0.00400169 -3.72666e-05
0.0130008 -0.00300206 -2.39135e-05
0.0130008 -0.00200182 -1.04215e-05
0.0130008 -0.001002 -9.47086e-07
0.0130008 -1.92013e-06 8.89235e-06
0.0130007 0.000998424 1.45126e-05
0.0130008 0.00199826 1.93111e-05
0.0130006 0.00299844 2.14255e-05
0.0130009 0.00399825 2.53274e-05
0.0130008 0.00499825 2.4251e-05
0.0130008 0.00599837 2.43853e-05
0.0130006 0.00699848 2.13463e-05
0.0130006 0.00799845 1.87653e-05
0.0130005 0.00899857 1.54751e-05
0.0130004 0.00999859 1.28124e-05
0.0130007 0.0109984 8.5634e-06
0.0130002 0.0119985 7.01422e-06
-0.049 0.014 0
-0.05 0.014 0
-0.0480004 0.0140001 -7.8598e-07
-0.0469999 0.0139997 -2.5791e-06
-0.0460004 0.014 -4.96898e-06
-0.045 0.0139996 -6.82333e-06
-0.0440002 0.0139998 -5.53475e-06
-0.0429998 0.014 -5.38971e-06
-0.0420002 0.0139999 -2.72796e-06
-0.0409999 0.0139998 -4.91904e-06
-0.0399998 0.014 -5.42436e-06
-0.0389995 0.0140001 -1.00208e-05
-0.038 0.0139998 -1.12528e-05
-0.0369995 0.0140002 -1.44999e-05
-0.0359999 0.014 -1.4729e-05
-0.0349995 0.0140002 -1.62489e-05
-0.0339997 0.0139997 -1.65435e-05
-0.0329995 0.014 -1.82393e-05
-0.0319997 0.0139999 -1.81918e-05
-0.0309997 0.0140001 -1.97541e-05
-0.0299997 0.0140001 -2.17996e-05
-0.0289998 0.0139999 -2.46769e-05
-0.0279998 0.0139998 -2.54516e-05
-0.0269997 0.014 -2.55795e-05
-0.0260002 0.0139997 -2.31914e-05
-0.0249996 0.0139997 -2.3421e-05
-0.024 0.0139995 -2.31285e-05
-0.023 0.0139992 -2.6045e-05
-0.0219998 0.0139994 -2.66997e-05
-0.0209999 0.0139994 -2.99919e-05
-0.0199998 0.0139993 -3.01349e-05
-0.0189996 0.0139994 -3.26497e-05
-0.0179999 0.0139997 -3.17256e-05
-0.0169997 0.0139995 -3.27458e-05
-0.0159995 0.0139996 -3.14683e-05
-0.0150001 0.0139994 -3.26492e-05
-0.0139993 0.0139996 -3.17916e-05
-0.0130002 0.0139994 -3.35527e-05
-0.0119994 0.0139997 -3.14395e-05
-0.0109997 0.0139994 -3.07749e-05
-0.00999894 0.0139996 -2.63997e-05
-0.00899952 0.0139991 -2.52135e-05
-0.00799929 0.0139995 -2.35378e-05
-0.00699991 0.0139991 -2.4408e-05
-0.0059991 0.0139994 -2.30797e-05
-0.00499965 0.0139992 -2.10494e-05
-0.00399909 0.0139992 -1.64545e-05
-0.00299947 0.0139993 -1.44806e-05
-0.00199942 0.0139992 -1.26129e-05
-0.000999431 0.0139991 -1.2747e-05
8.14834e-07 0.0139994 -1.08253e-05
0.00100075 0.0139994 -9.45783e-06
0.00200078 0.0139991 -6.53443e-06
0.00300066 0.013999 -5.23136e-06
0.00400039 0.0139989 -3.23582e-06
0.00500077 0.0139989 -2.98818e-06
0.0060003 0.0139991 -1.52295e-06
0.00700043 0.0139991 -1.40352e-06
0.00800049 0.0139991 -5.91234e-07
0.00900038 0.0139988 3.9477e-07
0.0100005 0.0139986 1.28578e-06
0.0110004 0.0139987 2.62689e-06
0.0120005 0.0139988 3.8738e-06
0.0130003 0.0129988 5.34998e-06
0.0130002 0.0139986 5.56487e-06
0.014 -0.05 0
0.014 -0.049 0
0.0140001 -0.0479998 -8.42626e-07
0.0140002 -0.0469998 -4.23676e-06
0.0140001 -0.0459996 -1.39937e-05
0.0140002 -0.0449998 -2.78239e-05
0.0140003 -0.0439995 -4.54002e-05
0.0140004 -0.0429997 -6.27455e-05
0.0140004 -0.0419994 -8.1252e-05
0.014001 -0.0410003 -0.000102061
0.0140007 -0.0399997 -0.000121974
0.0140008 -0.0390005 -0.000143263
0.0140006 -0.038 -0.000165033
0.0140008 -0.0370007 -0.000191744
0.0140011 -0.0360002 -0.000217387
0.0140011 -0.0350012 -0.000245858
0.0140013 -0.0340006 -0.000268728
0.0140015 -0.0330015 -0.000293656
0.0140012 -0.0320004 -0.000319037
0.0140011 -0.0310023 -0.000342215
0.0140013 -0.0300003 -0.000349246
0.0140013 -0.0290014 -0.00035521
0.0140011 -0.028001 -0.000359731
0.0140011 -0.0270017 -0.000362343
0.0140012 -0.026001 -0.000362863
0.0140013 -0.0250011 -0.000360867
0.0140014 -0.0240005 -0.00035685
0.0140011 -0.0230008 -0.000352892
0.0140017 -0.0220008 -0.000345637
0.0140014 -0.0210006 -0.00033663
0.0140016 -0.0200009 -0.000321937
0.0140015 -0.0190007 -0.000309842
0.0140019 -0.0180006 -0.00029383
0.0140016 -0.0170007 -0.0002792
0.0140019 -0.0160005 -0.000262124
0.0140015 -0.0150006 -0.000242376
0.0140015 -0.0140008 -0.000222172
0.0140012 -0.0130013 -0.000202001
0.0140014 -0.012001 -0.000181561
0.0140009 -0.0110012 -0.000160291
0.014001 -0.0100013 -0.000138304
0.0140008 -0.00900168 -0.000115271
0.0140009 -0.00800203 -9.49565e-05
0.0140006 -0.00700186 -7.75921e-05
0.0140009 -0.0060019 -6.11843e-05
0.0140006 -0.00500185 -4.61347e-05
0.0140009 -0.0040021 -3.18418e-05
0.0140009 -0.00300176 -1.78581e-05
0.0140008 -0.00200188 -5.95757e-06
0.0140006 -0.00100195 5.64861e-06
0.0140005 -1.88548e-06 1.39753e-05
0.0140005 0.000997963 2.0079e-05
0.0140006 0.00199839 2.3745e-05
0.0140009 0.00299788 2.75073e-05
0.0140006 0.0039982 2.93207e-05
0.014001 0.00499805 3.06459e-05
0.0140006 0.0059983 2.78949e-05
0.0140006 0.00699828 2.66833e-05
0.0140005 0.00799829 2.13678e-05
0.0140003 0.00899879 1.85168e-05
0.0140006 0.00999862 1.23794e-05
0.0140003 0.0109985 9.86569e-06
0.0140006 0.0119988 6.95874e-06
0.0140001 0.0129984 7.2381e-06
-0.049 0.015 0
-0.05 0.015 0
-0.048 0.015 -3.37992e-07
-0.0469999 0.0149996 -2.11086e-06
-0.0460001 0.015 -4.54457e-06
-0.0450003 0.0149995 -6.39874e-06
-0.0440002 0.0149997 -7.04681e-06
-0.0430002 0.0149996 -5.02229e-06
-0.0419995 0.0149995 -4.07089e-06
-0.041 0.0149996 -3.3867e-06
-0.0399998 0.0149997 -6.53035e-06
-0.0389999 0.0149995 -8.98699e-06
-0.0379998 0.0149999 -1.29192e-05
-0.0369997 0.0149997 -1.40285e-05
-0.0359998 0.0150002 -1.48064e-05
-0.0349996 0.0149998 -1.57246e-05
-0.0339997 0.0150003 -1.62887e-05
-0.0329997 0.0149998 -1.72148e-05
-0.032 0.0150002 -1.80894e-05
-0.0309996 0.0150002 -1.9676e-05
-0.03 0.015 -2.18688e-05
-0.029 0.0150001 -2.40628e-05
-0.0279995 0.0149999 -2.60296e-05
-0.027 0.0149999 -2.45313e-05
-0.0259995 0.0149999 -2.38037e-05
-0.0250001 0.0149997 -2.11795e-05
-0.0239995 0.0149996 -2.269e-05
-0.0230001 0.0149994 -2.22914e-05
-0.0219996 0.0149994 -2.64563e-05
-0.021 0.0149995 -2.71289e-05
-0.0199996 0.0149994 -3.20872e-05
-0.019 0.0149995 -3.18642e-05
-0.0179996 0.0149997 -3.35841e-05
-0.017 0.0149996 -3.11256e-05
-0.0159996 0.0149995 -3.16922e-05
-0.015 0.0149995 -2.9475e-05
-0.0139997 0.0149994 -3.19325e-05
-0.0129997 0.0149998 -3.01939e-05
-0.0119996 0.0149993 -3.14502e-05
-0.0109996 0.0149998 -2.75852e-05
-0.00999937 0.0149993 -2.63345e-05
-0.00899954 0.0149994 -2.25676e-05
-0.00799916 0.0149993 -2.25794e-05
-0.00699944 0.0149994 -2.18654e-05
-0.00599942 0.0149992 -2.10876e-05
-0.00499946 0.014999 -1.81584e-05
-0.00399929 0.0149992 -1.50107e-05
-0.00299948 0.0149988 -1.26342e-05
-0.00199912 0.0149989 -1.12998e-05
-0.000999344 0.014999 -1.06538e-05
6.74125e-07 0.0149989 -9.67849e-06
0.00100038 0.0149989 -7.95043e-06
0.002001 0.0149988 -6.39662e-06
0.00300054 0.0149989 -3.85365e-06
0.0040007 0.0149989 -2.92459e-06
0.00500044 0.0149989 -9.23479e-07
0.00600045 0.0149991 -1.46254e-06
0.00700047 0.0149989 -3.35363e-07
0.00800037 0.0149991 -1.39467e-06
0.00900064 0.014999 -3.92133e-07
0.0100003 0.0149989 -4.82837e-07
0.0110005 0.0149987 1.82544e-06
0.0120003 0.0149988 3.74808e-06
0.0130003 0.0149985 6.03218e-06
0.0140003 0.0139985 6.45626e-06
0.0140003 0.0149986 6.77302e-06
0.015 -0.05 0
0.015 -0.049 0
0.0150002 -0.048 -8.24589e-07
0.0150003 -0.0469998 -4.63371e-06
0.0150003 -0.0459995 -1.26032e-05
0.0150003 -0.0449998 -2.79442e-05
0.0150005 -0.0439996 -4.48721e-05
0.0150004 -0.0429994 -6.29441e-05
0.0150007 -0.0419998 -8.17849e-05
0.0150005 -0.0409997 -0.000102184
0.0150009 -0.0399998 -0.000121798
0.0150006 -0.0390001 -0.000142358
0.0150009 -0.0380002 -0.000165137
0.0150007 -0.0370006 -0.000189421
0.0150007 -0.0360006 -0.000219362
0.0150008 -0.0350008 -0.000245198
0.0150009 -0.0340011 -0.000271851
0.0150011 -0.0330009 -0.000295997
0.0150007 -0.0320014 -0.000323171
0.0150018 -0.0310021 -0.000343787
0.0150018 -0.0300008 -0.000355554
0.0150012 -0.0290014 -0.000359988
0.0150013 -0.0280013 -0.000365766
0.015001 -0.027001 -0.00036803
0.0150011 -0.0260011 -0.000367501
0.0150011 -0.0250007 -0.000365465
0.0150011 -0.0240009 -0.000360617
0.0150014 -0.0230006 -0.000355378
0.0150013 -0.0220006 -0.000348187
0.0150013 -0.0210009 -0.000336606
0.0150013 -0.0200004 -0.000324537
0.0150014 -0.0190009 -0.000309375
0.0150012 -0.0180002 -0.000296173
0.0150015 -0.0170006 -0.000280609
0.0150013 -0.0160006 -0.000263098
0.0150015 -0.0150007 -0.000242693
0.0150014 -0.0140007 -0.00022159
0.0150015 -0.0130013 -0.000201021
0.0150011 -0.0120011 -0.00017857
0.0150011 -0.0110014 -0.000157616
0.0150008 -0.0100012 -0.000133855
0.0150008 -0.00900181 -0.000111502
0.015001 -0.00800163 -9.04549e-05
0.0150009 -0.00700206 -7.39449e-05
0.0150009 -0.00600211 -5.67186e-05
0.0150007 -0.00500202 -4.09927e-05
0.0150007 -0.00400186 -2.55573e-05
0.0150008 -0.00300219 -1.29579e-05
0.0150009 -0.00200164 8.90227e-08
0.0150006 -0.00100203 9.90834e-06
0.0150005 -2.08823e-06 1.91659e-05
0.0150006 0.000997976 2.39005e-05
0.0150007 0.00199787 2.74874e-05
0.0150009 0.00299833 3.07273e-05
0.0150008 0.00399794 3.45989e-05
0.0150009 0.00499837 3.37767e-05
0.0150009 0.00599816 3.29686e-05
0.0150006 0.00699824 2.91384e-05
0.0150008 0.00799845 2.56054e-05
0.0150007 0.00899822 1.98024e-05
0.0150006 0.00999871 1.58438e-05
0.0150007 0.0109985 1.00643e-05
0.0150003 0.0119985 9.35508e-06
0.0150005 0.0129983 7.42666e-06
0.0150006 0.0139987 7.6639e-06
-0.049 0.016 0
-0.05 0.016 0
-0.0480002 0.016 -3.5812e-07
-0.0469999 0.0160001 -1.28117e-06
-0.0460003 0.0159998 -3.34248e-06
-0.0449999 0.0159998 -5.56621e-06
-0.0440001 0.0159997 -5.85468e-06
-0.0429998 0.0159998 -6.532e-06
-0.0419998 0.0159996 -4.27867e-06
-0.0409998 0.0160001 -5.69778e-06
-0.0399999 0.0159998 -5.90833e-06
-0.0389997 0.0159998 -1.01064e-05
-0.0380001 0.0159997 -1.14918e-05
-0.0369994 0.016 -1.3886e-05
-0.0359999 0.0159998 -1.4038e-05
-0.0349994 0.0160001 -1.48271e-05
-0.0339999 0.016 -1.53025e-05
-0.0329994 0.0160004 -1.72003e-05
-0.032 0.016 -1.75778e-05
-0.0309997 0.0160003 -1.97081e-05
-0.0300001 0.0159999 -2.12253e-05
-0.0289998 0.0159999 -2.4024e-05
-0.028 0.0159999 -2.4269e-05
-0.0269999 0.0159999 -2.49947e-05
-0.026 0.0159998 -2.20813e-05
-0.0249998 0.0159999 -2.23356e-05
-0.0239999 0.0159996 -2.08315e-05
-0.0229997 0.0159997 -2.36682e-05
-0.0219998 0.0159994 -2.42183e-05
-0.0209999 0.0159993 -2.83842e-05
-0.0199999 0.0159994 -2.95099e-05
-0.019 0.0159992 -3.30098e-05
-0.0179999 0.0159993 -3.21959e-05
-0.017 0.0159995 -3.23577e-05
-0.0159996 0.0159995 -2.97156e-05
-0.015 0.0159994 -2.99295e-05
-0.0139994 0.0159995 -2.83897e-05
-0.013 0.0159993 -2.9752e-05
-0.0119991 0.0159994 -2.73176e-05
-0.0110001 0.0159995 -2.64187e-05
-0.00999931 0.0159994 -2.25944e-05
-0.00899997 0.0159994 -2.09254e-05
-0.00799905 0.0159993 -1.87698e-05
-0.00699964 0.0159994 -1.76416e-05
-0.00599894 0.0159993 -1.63157e-05
-0.00499968 0.0159994 -1.44064e-05
-0.00399902 0.015999 -1.24863e-05
-0.00299937 0.0159992 -1.03776e-05
-0.00199925 0.0159992 -9.55211e-06
-0.000999357 0.0159992 -7.57389e-06
6.69551e-07 0.015999 -6.92484e-06
0.00100046 0.0159991 -4.69481e-06
0.00200063 0.0159991 -3.69861e-06
0.0030008 0.0159989 -1.39929e-06
0.0040003 0.0159992 -2.78058e-07
0.00500076 0.015999 1.23966e-06
0.00600025 0.0159989 1.00969e-06
0.00700071 0.0159992 1.0882e-06
0.0080004 0.0159988 -4.60711e-07
0.00900048 0.0159989 6.21281e-07
0.0100003 0.0159988 2.00532e-09
0.0110006 0.0159986 2.34278e-06
0.0120003 0.0159987 3.24231e-06
0.0130007 0.0159987 6.41143e-06
0.0140004 0.0159987 6.50592e-06
0.0150005 0.0149985 7.3205e-06
0.0150005 0.0159986 7.77563e-06
0.016 -0.05 0
0.016 -0.049 0
0.016 -0.0479998 -1.2297e-06
0.0160001 -0.0469997 -5.4289e-06
0.0160002 -0.0459996 -1.4868e-05
0.0160003 -0.0449997 -2.82903e-05
0.0160003 -0.0439992 -4.46052e-05
0.0160007 -0.0429998 -6.15136e-05
0.0160005 -0.0419993 -8.03543e-05
0.0160011 -0.0410001 -0.000102123
0.0160007 -0.0399995 -0.000122367
0.016001 -0.0390002 -0.000143084
0.0160007 -0.038 -0.00016463
0.016001 -0.0370004 -0.000191075
0.0160009 -0.0360004 -0.000218014
0.0160013 -0.0350011 -0.000247253
0.0160013 -0.0340005 -0.000272228
0.0160011 -0.0330012 -0.000299708
0.0160017 -0.0320014 -0.000324071
0.0160012 -0.0310018 -0.000345594
0.0160013 -0.0300017 -0.000356201
0.0160017 -0.0290014 -0.000364898
0.0160016 -0.0280012 -0.000369163
0.0160016 -0.0270014 -0.000372085
0.0160015 -0.0260006 -0.000371571
0.0160015 -0.0250008 -0.000367758
0.0160011 -0.0240005 -0.000363321
0.0160017 -0.0230006 -0.000359012
0.0160017 -0.0220003 -0.000351815
0.0160019 -0.0210003 -0.000340955
0.0160017 -0.0200006 -0.000325906
0.0160019 -0.0190003 -0.000312665
0.0160017 -0.0180006 -0.000297252
0.0160018 -0.0170006 -0.000280707
0.0160018 -0.0160006 -0.000263133
0.0160016 -0.0150006 -0.000240025
0.0160015 -0.0140008 -0.000219939
0.0160014 -0.0130011 -0.000196822
0.0160014 -0.0120011 -0.000176347
0.0160012 -0.0110013 -0.000152131
0.016001 -0.0100016 -0.000131065
0.0160009 -0.00900158 -0.000106043
0.0160008 -0.00800216 -8.67855e-05
0.0160006 -0.00700161 -6.79897e-05
0.0160008 -0.00600232 -5.08814e-05
0.0160005 -0.00500201 -3.39059e-05
0.0160006 -0.00400212 -1.94909e-05
0.0160004 -0.00300188 -6.24089e-06
0.0160007 -0.00200191 4.88856e-06
0.0160007 -0.00100216 1.56338e-05
0.0160006 -2.06111e-06 2.3416e-05
0.0160007 0.00099786 2.7712e-05
0.0160007 0.00199801 3.07052e-05
0.0160005 0.00299772 3.37727e-05
0.0160005 0.00399821 3.65232e-05
0.0160005 0.00499793 3.79472e-05
0.0160004 0.00599833 3.58198e-05
0.0160004 0.00699811 3.4169e-05
0.0160005 0.00799832 2.84156e-05
0.0160003 0.00899851 2.42256e-05
0.0160004 0.00999846 1.60898e-05
0.0160002 0.0109986 1.26298e-05
0.0160002 0.0119986 9.08868e-06
0.016 0.0129984 9.67379e-06
0.016 0.0139985 8.24091e-06
0.0160003 0.0149986 7.69443e-06
-0.049 0.017 0
-0.05 0.017 0
-0.0480002 0.017 6.03415e-08
-0.0470002 0.0169998 -6.67524e-07
-0.0459999 0.0169999 -1.81887e-06
-0.0450003 0.0169997 -3.47719e-06
-0.0439996 0.0169997 -5.62205e-06
-0.0430001 0.0169996 -5.80193e-06
-0.0419995 0.0169997 -6.93289e-06
-0.0409999 0.0169995 -6.02412e-06
-0.0399997 0.0169999 -8.60934e-06
-0.0389999 0.0169997 -8.71284e-06
-0.0379998 0.0169999 -1.18936e-05
-0.0369997 0.0169997 -1.13658e-05
-0.0360001 0.0170001 -1.29162e-05
-0.0349997 0.017 -1.28792e-05
-0.0340001 0.0170003 -1.4981e-05
-0.0329996 0.0170001 -1.55921e-05
-0.0319998 0.0170003 -1.84219e-05
-0.0309999 0.017 -1.92149e-05
-0.0299999 0.017 -2.14442e-05
-0.029 0.017 -2.13228e-05
-0.028 0.0169999 -2.31197e-05
-0.0270002 0.0169997 -2.17604e-05
-0.0259995 0.0169997 -2.32766e-05
-0.0250002 0.0169994 -2.18906e-05
-0.0239993 0.0169998 -2.43741e-05
-0.0229998 0.0169993 -2.32221e-05
-0.0219996 0.0169997 -2.59256e-05
-0.0210001 0.0169995 -2.48544e-05
-0.0199997 0.0169996 -2.8392e-05
-0.0190003 0.0169995 -2.85117e-05
-0.0179998 0.0169995 -3.09257e-05
-0.0170002 0.0169997 -2.93802e-05
-0.0159998 0.0169995 -2.94316e-05
-0.0149999 0.0169993 -2.62166e-05
-0.0139997 0.0169996 -2.7047e-05
-0.0129998 0.0169996 -2.44098e-05
-0.0119996 0.0169996 -2.50906e-05
-0.0109994 0.0169996 -2.21985e-05
-0.00999952 0.0169996 -2.1673e-05
-0.00899933 0.0169994 -1.87372e-05
-0.0079995 0.0169996 -1.66355e-05
-0.00699944 0.0169995 -1.46736e-05
-0.00599907 0.0169993 -1.20477e-05
-0.00499924 0.0169992 -1.14762e-05
-0.00399893 0.0169992 -9.70344e-06
-0.00299945 0.0169992 -1.03052e-05
-0.00199924 0.016999 -7.86672e-06
-0.000999642 0.0169993 -7.69791e-06
6.97652e-07 0.016999 -4.26726e-06
0.00100057 0.0169992 -3.44313e-06
0.00200068 0.0169991 4.13806e-08
0.00300039 0.0169993 9.69766e-07
0.00400047 0.0169991 3.48193e-06
0.0050007 0.0169991 3.03699e-06
0.00600046 0.016999 3.62047e-06
0.00700074 0.0169988 2.00424e-06
0.00800055 0.0169992 2.24251e-06
0.0090004 0.0169989 5.22294e-07
0.0100005 0.0169992 1.80794e-06
0.0110007 0.0169988 8.95632e-07
0.0120003 0.0169988 4.34027e-06
0.0130006 0.0169987 3.92237e-06
0.0140003 0.0169987 7.01252e-06
0.0150005 0.0169986 5.24992e-06
0.0160004 0.0159988 6.84648e-06
0.0160002 0.0169983 7.53879e-06
0.017 -0.05 0
0.017 -0.049 0
0.0169999 -0.048 -1.48818e-06
0.0170002 -0.047 -5.51642e-06
0.0170002 -0.0459997 -1.42227e-05
0.0170003 -0.0449997 -2.81551e-05
0.0170004 -0.0439999 -4.31413e-05
0.0170004 -0.0429993 -5.84209e-05
0.0170007 -0.042 -7.74128e-05
0.0170005 -0.0409995 -9.98317e-05
0.0170009 -0.0399999 -0.000121849
0.0170005 -0.0389997 -0.0001433
0.0170007 -0.0380003 -0.000164843
0.0170005 -0.0370004 -0.000188919
0.0170009 -0.0360004 -0.000218787
0.0170009 -0.0350006 -0.00024527
0.017001 -0.034001 -0.000272198
0.0170015 -0.033001 -0.000296567
0.0170015 -0.0320014 -0.000324102
0.0170017 -0.0310013 -0.000346249
0.0170015 -0.0300014 -0.000360266
0.0170015 -0.0290018 -0.000366698
0.0170016 -0.0280013 -0.000372227
0.0170011 -0.0270008 -0.000374226
0.0170016 -0.0260008 -0.000373647
0.0170013 -0.0250006 -0.000371553
0.0170014 -0.0240005 -0.00036681
0.0170013 -0.0230005 -0.000363086
0.0170017 -0.0220001 -0.000356366
0.0170014 -0.0210003 -0.000345104
0.0170016 -0.0200002 -0.000331274
0.0170015 -0.0190005 -0.000314822
0.0170019 -0.0180003 -0.0002986
0.0170016 -0.0170006 -0.00028074
0.0170016 -0.0160006 -0.000258596
0.0170017 -0.0150009 -0.000235855
0.0170015 -0.0140011 -0.000211846
0.0170013 -0.0130008 -0.000191901
0.0170012 -0.0120012 -0.00016767
0.0170008 -0.0110013 -0.000147347
0.0170007 -0.0100015 -0.000122689
0.0170009 -0.00900181 -0.000101636
0.0170009 -0.00800191 -8.01855e-05
0.0170008 -0.00700229 -6.32959e-05
0.017001 -0.00600176 -4.41627e-05
0.0170009 -0.0050023 -2.72498e-05
0.0170008 -0.00400208 -1.25615e-05
0.0170007 -0.00300231 -8.0381e-07
0.0170007 -0.0020022 1.08091e-05
0.0170006 -0.00100211 2.06601e-05
0.0170009 -1.93962e-06 2.80572e-05
0.0170008 0.00099787 3.23492e-05
0.0170008 0.00199763 3.37032e-05
0.0170008 0.00299796 3.73354e-05
0.0170007 0.00399787 3.92789e-05
0.0170005 0.00499815 3.94076e-05
0.0170007 0.00599822 3.75076e-05
0.0170008 0.00699802 3.4644e-05
0.0170006 0.00799836 3.06044e-05
0.0170007 0.00899817 2.46165e-05
0.0170007 0.0099986 1.97006e-05
0.0170005 0.0109982 1.28512e-05
0.0170004 0.0119987 1.19015e-05
0.0170005 0.0129985 9.72602e-06
0.0170004 0.0139986 9.66853e-06
0.0170008 0.0149984 8.76513e-06
0.0170007 0.0159987 8.70497e-06
-0.049 0.018 0
-0.05 0.018 0
-0.0479998 0.018 3.5828e-08
-0.047 0.0179999 3.85821e-07
-0.0459998 0.0179997 -1.10102e-08
-0.0449996 0.0179997 -8.32554e-07
-0.0439999 0.0179995 -2.11208e-06
-0.0429998 0.0179993 -5.0803e-06
-0.0419999 0.0179996 -6.08598e-06
-0.0409998 0.0179998 -8.8627e-06
-0.0399999 0.0179997 -8.58711e-06
-0.0389998 0.0179999 -1.05739e-05
-0.038 0.0179997 -9.89422e-06
-0.0369996 0.0180001 -1.1178e-05
-0.0359998 0.0179999 -1.1508e-05
-0.0349996 0.0180004 -1.27824e-05
-0.0339998 0.0180001 -1.33658e-05
-0.0329994 0.0180004 -1.5746e-05
-0.0320002 0.0180003 -1.61655e-05
-0.0309994 0.0180002 -1.87051e-05
-0.0300003 0.018 -1.86397e-05
-0.0289998 0.018 -2.04659e-05
-0.028 0.0179998 -1.93336e-05
-0.0269999 0.0179996 -2.18375e-05
-0.0259998 0.0179997 -2.10106e-05
-0.0249998 0.0179998 -2.48192e-05
-0.0239998 0.0179993 -2.39644e-05
-0.0230001 0.0179999 -2.6398e-05
-0.0219998 0.0179994 -2.35511e-05
-0.0209999 0.0179997 -2.43325e-05
-0.0199999 0.0179994 -2.25053e-05
-0.019 0.0179995 -2.54309e-05
-0.0179999 0.0179995 -2.58547e-05
-0.0170001 0.0179995 -2.76272e-05
-0.0159998 0.0179997 -2.57228e-05
-0.0150002 0.0179997 -2.54338e-05
-0.0139995 0.0179995 -2.23068e-05
-0.0130001 0.0179995 -2.21789e-05
-0.0119991 0.0179995 -1.95843e-05
-0.0109998 0.0179993 -1.96863e-05
-0.00999914 0.0179994 -1.82975e-05
-0.00900005 0.0179995 -1.74563e-05
-0.00799892 0.0179993 -1.54601e-05
-0.00699993 0.0179994 -1.20894e-05
-0.00599908 0.0179992 -1.01696e-05
-0.00499967 0.0179993 -7.63623e-06
-0.00399916 0.0179995 -7.89347e-06
-0.0029995 0.0179993 -6.05763e-06
-0.00199927 0.0179994 -6.75093e-06
-0.000999561 0.0179991 -3.72155e-06
8.06062e-07 0.0179993 -3.39714e-06
0.00100046 0.017999 4.99419e-07
0.00200075 0.0179993 1.66039e-06
0.00300073 0.017999 4.99106e-06
0.00400041 0.0179991 5.34277e-06
0.00500072 0.0179992 6.80111e-06
0.00600047 0.017999 5.31964e-06
0.00700078 0.0179992 5.23714e-06
0.00800027 0.0179988 2.46699e-06
0.00900087 0.0179991 3.34492e-06
0.0100002 0.0179987 9.83237e-07
0.0110005 0.0179988 2.59144e-06
0.0120001 0.0179987 1.00685e-06
0.0130005 0.0179987 4.07792e-06
0.0139999 0.0179985 3.3522e-06
0.0150005 0.0179988 6.69874e-06
0.0160005 0.0179984 5.71625e-06
0.0170006 0.0169988 6.50098e-06
0.0170004 0.0179986 8.60984e-06
0.018 -0.05 0
0.018 -0.049 0
0.0180001 -0.048 -1.05655e-06
0.0179999 -0.047 -5.74352e-06
0.0180001 -0.0459999 -1.42484e-05
0.0180004 -0.0449999 -2.65066e-05
0.0180005 -0.0439995 -3.98022e-05
0.0180003 -0.0429998 -5.45711e-05
0.0180003 -0.0419994 -7.31293e-05
0.0180007 -0.0409997 -9.65557e-05
0.0180006 -0.0399997 -0.000119411
0.0180007 -0.039 -0.000140982
0.0180005 -0.0379999 -0.00016247
0.0180007 -0.0370003 -0.000188174
0.0180009 -0.0360003 -0.000215303
0.0180008 -0.0350007 -0.000243758
0.0180012 -0.0340007 -0.000268189
0.0180013 -0.0330011 -0.000295097
0.0180014 -0.0320009 -0.000321626
0.0180023 -0.0310008 -0.000351312
0.018003 -0.0300021 -0.00036768
0.0180013 -0.029002 -0.000375259
0.0180009 -0.0280008 -0.00037445
0.0180015 -0.0270012 -0.000376258
0.0180013 -0.0260006 -0.000374701
0.0180014 -0.0250008 -0.000371748
0.0180011 -0.0240003 -0.000367901
0.0180016 -0.0230001 -0.000364781
0.0180015 -0.0220003 -0.000358001
0.0180018 -0.021 -0.000347142
0.0180017 -0.0200003 -0.00033127
0.0180018 -0.0190003 -0.000316037
0.0180018 -0.0180004 -0.000298214
0.0180018 -0.0170003 -0.000278319
0.0180017 -0.0160007 -0.000257103
0.0180016 -0.0150007 -0.000229337
0.0180016 -0.014001 -0.000207471
0.0180014 -0.013001 -0.000183355
0.0180014 -0.0120011 -0.000164056
0.0180013 -0.0110009 -0.000138842
0.018001 -0.0100019 -0.000118569
0.018001 -0.00900143 -9.29627e-05
0.018001 -0.00800238 -7.51382e-05
0.0180008 -0.00700166 -5.50813e-05
0.0180005 -0.00600278 -3.72693e-05
0.0180004 -0.00500199 -1.90676e-05
0.0180006 -0.00400247 -6.63722e-06
0.0180004 -0.00300219 4.71956e-06
0.0180007 -0.00200212 1.48073e-05
0.0180004 -0.0010022 2.54119e-05
0.0180004 -2.35303e-06 3.25244e-05
0.0180006 0.00099768 3.56968e-05
0.0180006 0.00199802 3.80908e-05
0.0180008 0.00299762 4.00094e-05
0.0180005 0.00399815 4.22179e-05
0.0180005 0.00499778 4.21094e-05
0.0180002 0.00599829 3.94157e-05
0.0180002 0.00699804 3.64585e-05
0.0180003 0.00799835 3.13601e-05
0.0180002 0.0089982 2.6884e-05
0.0180003 0.00999828 1.89105e-05
0.0180003 0.0109983 1.54211e-05
0.0180003 0.0119987 1.17568e-05
0.0180003 0.0129984 1.20796e-05
0.0180002 0.0139989 1.02942e-05
0.0180002 0.0149987 9.28242e-06
0.0180004 0.0159988 8.97112e-06
0.0180004 0.0169988 9.40328e-06
-0.049 0.019 0
-0.05 0.019 0
-0.0479999 0.0189998 1.73582e-07
-0.0470003 0.0190001 2.95146e-07
-0.0459997 0.0189998 1.09558e-06
-0.045 0.019 1.0469e-06
-0.0439996 0.0189997 -4.65928e-07
-0.0429998 0.0189997 -2.55062e-06
-0.042 0.0189999 -6.35902e-06
-0.0409998 0.0189998 -7.66356e-06
-0.0399999 0.0189998 -1.02472e-05
-0.0389997 0.0189998 -8.84474e-06
-0.0379999 0.019 -1.08766e-05
-0.0369998 0.019 -9.91631e-06
-0.0360001 0.0190002 -1.28109e-05
-0.0349997 0.0190001 -1.2499e-05
-0.0339999 0.0190001 -1.49611e-05
-0.0329999 0.019 -1.4042e-05
-0.0319995 0.0190003 -1.71148e-05
-0.0309999 0.0189998 -1.66875e-05
-0.0299998 0.0190001 -1.89548e-05
-0.0289997 0.0189999 -1.72803e-05
-0.0279998 0.019 -1.9184e-05
-0.0270001 0.0189999 -1.83483e-05
-0.0259995 0.0189997 -2.24586e-05
-0.0249998 0.0189996 -2.28491e-05
-0.0239998 0.0189998 -2.63923e-05
-0.023 0.0189994 -2.3816e-05
-0.0219995 0.0189996 -2.38102e-05
-0.0210001 0.0189992 -1.94302e-05
-0.0199996 0.0189996 -2.03708e-05
-0.0190003 0.0189994 -1.99466e-05
-0.0179996 0.0189997 -2.31789e-05
-0.0170001 0.0189995 -2.32186e-05
-0.0159997 0.0189995 -2.45267e-05
-0.0150001 0.0189995 -2.16444e-05
-0.0139998 0.0189994 -2.17492e-05
-0.0129999 0.0189993 -1.77913e-05
-0.0119996 0.0189996 -1.79447e-05
-0.0109995 0.0189997 -1.57342e-05
-0.00999957 0.0189997 -1.71326e-05
-0.00899944 0.0189997 -1.63153e-05
-0.00799953 0.0189997 -1.48192e-05
-0.00699944 0.0189994 -1.26488e-05
-0.00599934 0.0189995 -8.31351e-06
-0.0049995 0.0189995 -6.62544e-06
-0.00399939 0.0189993 -3.34803e-06
-0.0029996 0.0189993 -4.21809e-06
-0.00199931 0.0189993 -1.81205e-06
-0.000999766 0.0189991 -3.55319e-06
7.13444e-07 0.0189992 -4.44941e-07
0.00100061 0.0189992 -5.98614e-07
0.00200065 0.0189991 4.06502e-06
0.00300047 0.0189992 4.90894e-06
0.00400054 0.0189989 8.51094e-06
0.00500075 0.0189991 7.43146e-06
0.00600044 0.0189991 8.47941e-06
0.00700065 0.0189991 5.94073e-06
0.00800042 0.0189992 6.03394e-06
0.00900038 0.0189989 2.94211e-06
0.0100002 0.018999 3.61601e-06
0.0110007 0.0189987 8.47074e-07
0.0120003 0.0189989 3.14567e-06
0.0130006 0.0189986 9.08625e-07
0.0140004 0.0189986 4.70668e-06
0.0150004 0.0189985 3.79722e-06
0.0160005 0.0189986 8.16942e-06
0.0170002 0.0189987 6.97648e-06
0.0180005 0.0179985 8.06504e-06
0.0180005 0.0189986 9.44043e-06
0.019 -0.05 0
0.019 -0.049 0
0.0189999 -0.0479999 -2.30159e-06
0.019 -0.0469997 -6.37883e-06
0.019 -0.0460002 -1.40963e-05
0.0190001 -0.0449995 -2.57257e-05
0.0190002 -0.0439996 -3.87601e-05
0.0190002 -0.042999 -5.25335e-05
0.0190003 -0.0419995 -7.08875e-05
0.0190005 -0.0409995 -9.30011e-05
0.0190005 -0.0399998 -0.000115389
0.0190007 -0.0389994 -0.000137552
0.0190005 -0.038 -0.00015924
0.0190009 -0.0369999 -0.00018353
0.0190008 -0.0360003 -0.000212508
0.019001 -0.0350005 -0.00023861
0.019001 -0.0340009 -0.000265185
0.0190014 -0.0330007 -0.000290215
0.0190014 -0.0320012 -0.00031965
0.0190008 -0.0310002 -0.000351526
0.019002 -0.0300007 -0.000378417
0.0190011 -0.029 -0.000380404
0.0190013 -0.0280009 -0.000378434
0.0190016 -0.0270014 -0.00037788
0.0190017 -0.0260009 -0.00037622
0.019001 -0.0250004 -0.000373329
0.0190015 -0.0240006 -0.000368355
0.0190015 -0.0230004 -0.000363706
0.0190018 -0.0220001 -0.000356104
0.0190014 -0.0210003 -0.000344838
0.0190016 -0.0199999 -0.000330576
0.0190016 -0.0190004 -0.00031345
0.0190015 -0.0180002 -0.0002957
0.0190018 -0.0170005 -0.000277016
0.0190016 -0.0160007 -0.000252628
0.0190019 -0.0150006 -0.00022722
0.0190013 -0.0140012 -0.000199498
0.0190012 -0.013001 -0.000178503
0.019001 -0.0120013 -0.000153717
0.019001 -0.0110013 -0.000133408
0.0190009 -0.0100016 -0.000107341
0.0190012 -0.00900211 -8.58766e-05
0.0190008 -0.0080018 -6.4277e-05
0.0190009 -0.00700274 -4.79795e-05
0.019001 -0.00600222 -2.87191e-05
0.0190007 -0.00500263 -1.23112e-05
0.0190008 -0.00400228 5.41578e-07
0.0190006 -0.0030023 8.98695e-06
0.0190004 -0.00200256 1.95214e-05
0.0190007 -0.00100209 2.86186e-05
0.0190009 -2.65215e-06 3.65715e-05
0.0190007 0.000997756 4.01e-05
0.0190012 0.00199783 4.17734e-05
0.0190007 0.00299809 4.41192e-05
0.0190006 0.00399815 4.56632e-05
0.0190007 0.00499825 4.4557e-05
0.0190007 0.00599821 4.1651e-05
0.0190005 0.00699795 3.69602e-05
0.0190004 0.00799831 3.28373e-05
0.0190004 0.00899805 2.63064e-05
0.0190007 0.00999843 2.28606e-05
0.0190005 0.010998 1.57421e-05
0.0190003 0.0119986 1.59808e-05
0.0190007 0.0129985 1.18418e-05
0.0190004 0.0139988 1.1133e-05
0.0190005 0.0149987 8.67476e-06
0.0190005 0.0159988 9.64703e-06
0.0190007 0.0169989 7.75234e-06
0.0190005 0.0179988 9.71106e-06
-0.049 0.02 0
-0.05 0.02 0
-0.0479999 0.0199998 -6.73957e-08
-0.0470002 0.0199996 7.60197e-07
-0.0459997 0.0199996 1.58286e-06
-0.0449998 0.0199993 2.7685e-06
-0.0439999 0.0199996 2.09613e-06
-0.0429998 0.0199995 -1.06647e-06
-0.042 0.0199998 -3.959e-06
-0.0409999 0.0199996 -7.96664e-06
-0.0399999 0.0199997 -8.23191e-06
-0.0389998 0.0199998 -1.00524e-05
-0.0380001 0.0199998 -9.15987e-06
-0.0369997 0.0200002 -1.14587e-05
-0.0360001 0.02 -1.21891e-05
-0.0349998 0.0200003 -1.42659e-05
-0.0339999 0.0200004 -1.32198e-05
-0.0329997 0.0200003 -1.47729e-05
-0.032 0.0200001 -1.33327e-05
-0.0309994 0.0200001 -1.60544e-05
-0.03 0.0199999 -1.50525e-05
-0.0289997 0.02 -1.74295e-05
-0.0279998 0.0199999 -1.56133e-05
-0.0269997 0.0200001 -1.9097e-05
-0.0259998 0.0199996 -1.84415e-05
-0.0250001 0.0199999 -2.31486e-05
-0.0239996 0.0199995 -2.14459e-05
-0.0229997 0.02 -2.31271e-05
-0.0219997 0.0199994 -1.85765e-05
-0.0209999 0.0199999 -1.86166e-05
-0.0199999 0.0199997 -1.58669e-05
-0.0189998 0.02 -1.84832e-05
-0.0179999 0.0199998 -1.87215e-05
-0.0169998 0.0199999 -2.13944e-05
-0.0159998 0.0199996 -2.01733e-05
-0.015 0.0199997 -2.16589e-05
-0.0139997 0.0199994 -1.81457e-05
-0.013 0.0199995 -1.85267e-05
-0.0119994 0.0199994 -1.46482e-05
-0.011 0.0199997 -1.56547e-05
-0.00999938 0.0199995 -1.41324e-05
-0.00900006 0.0199996 -1.54584e-05
-0.00799925 0.0199994 -1.4351e-05
-0.00700008 0.0199993 -1.24544e-05
-0.00599902 0.0199993 -9.47572e-06
-0.00499974 0.0199996 -5.24757e-06
-0.00399924 0.0199995 -2.6098e-06
-0.00299993 0.0199995 1.00119e-06
-0.00199941 0.0199992 2.2646e-07
-0.000999854 0.0199992 1.64986e-06
7.35576e-07 0.019999 -8.5756e-07
0.00100056 0.0199992 1.54193e-06
0.00200092 0.0199992 1.38639e-06
0.00300053 0.0199992 5.49012e-06
0.00400088 0.0199992 5.95218e-06
0.00500051 0.019999 9.12585e-06
0.00600052 0.0199993 8.05637e-06
0.0070008 0.0199991 9.47322e-06
0.00800046 0.0199992 6.5817e-06
0.0090008 0.0199991 7.95261e-06
0.0100004 0.0199989 4.57127e-06
0.0110008 0.0199989 5.95241e-06
0.0120003 0.019999 2.54923e-06
0.0130009 0.0199988 5.18649e-06
0.0140002 0.0199987 3.27634e-06
0.0150006 0.0199986 7.81575e-06
0.0160003 0.0199988 6.45881e-06
0.0170005 0.0199984 9.74171e-06
0.0180003 0.0199988 7.16233e-06
0.0190002 0.0189989 6.81532e-06
0.0190004 0.0199987 8.16818e-06
0.02 -0.05 0
0.02 -0.049 0
0.0200002 -0.0479997 -2.40456e-06
0.0200002 -0.0469997 -8.56398e-06
0.0200002 -0.0459998 -1.57521e-05
0.0200005 -0.0449994 -2.57032e-05
0.0200004 -0.0439993 -3.75959e-05
0.0200002 -0.0429993 -5.12502e-05
0.0200005 -0.0419992 -6.91652e-05
0.0200005 -0.0409997 -8.98201e-05
0.0200007 -0.0399995 -0.000111874
0.0200004 -0.0389997 -0.00013264
0.0200004 -0.0379996 -0.000156127
0.0200007 -0.0370001 -0.00018125
0.0200009 -0.0360003 -0.000208641
0.0200011 -0.0350005 -0.000235453
0.0200011 -0.0340004 -0.000261315
0.0200009 -0.033001 -0.000288303
0.020001 -0.0320005 -0.000316132
0.020001 -0.0310018 -0.000347254
0.0200033 -0.0300017 -0.000369776
0.0200027 -0.0290006 -0.00038063
0.0200019 -0.0280013 -0.000381052
0.0200015 -0.0270017 -0.000380686
0.0200013 -0.026 -0.000378793
0.0200015 -0.0250009 -0.000373576
0.0200013 -0.0240001 -0.000369864
0.0200019 -0.0230007 -0.000362919
0.0200015 -0.0220002 -0.000355638
0.0200021 -0.021 -0.000342529
0.0200017 -0.0200001 -0.000327821
0.020002 -0.0190003 -0.000309938
0.0200018 -0.0180002 -0.000292029
0.0200018 -0.0170005 -0.00027059
0.0200019 -0.0160005 -0.000250749
0.0200018 -0.0150008 -0.000220752
0.0200018 -0.014001 -0.000196836
0.0200015 -0.0130012 -0.000168409
0.0200017 -0.0120019 -0.000148591
0.0200009 -0.0110016 -0.000121421
0.0200013 -0.0100022 -0.000100397
0.0200008 -0.00900193 -7.24526e-05
0.0200008 -0.00800249 -5.45047e-05
0.0200008 -0.00700209 -3.53007e-05
0.0200004 -0.0060027 -1.97806e-05
0.0200004 -0.00500191 -3.28259e-06
0.0200005 -0.00400295 6.56423e-06
0.0200005 -0.00300207 1.48181e-05
0.0200007 -0.00200235 2.28213e-05
0.0200006 -0.00100264 3.23216e-05
0.0200003 -2.46883e-06 3.92627e-05
0.0200006 0.000997531 4.25908e-05
0.0200006 0.00199792 4.50042e-05
0.0200008 0.0029978 4.56529e-05
0.0200005 0.00399833 4.72042e-05
0.0200001 0.00499791 4.68277e-05
0.0200001 0.00599829 4.40535e-05
0.0200002 0.00699806 3.96236e-05
0.0200001 0.0079982 3.37311e-05
0.0200006 0.00899825 2.89426e-05
0.0200003 0.0099983 2.1957e-05
0.0200001 0.0109985 1.98461e-05
0.0200002 0.0119985 1.57685e-05
0.0200003 0.0129983 1.51195e-05
0.0200003 0.0139988 1.07637e-05
0.0200004 0.0149985 8.26209e-06
0.0200005 0.0159986 7.62144e-06
0.0200003 0.016999 8.99732e-06
0.0200004 0.0179989 7.75252e-06
0.0200003 0.0189989 7.99442e-06
-0.049 0.021 0
-0.05 0.021 0
-0.0480001 0.0209999 -7.28536e-08
-0.0470002 0.0209998 -4.14597e-08
-0.0459999 0.0209997 1.45499e-06
-0.0450003 0.0209998 2.24476e-06
-0.0439998 0.0209998 1.46081e-06
-0.0430002 0.0209997 -7.6955e-07
-0.0419999 0.0209997 -4.39995e-06
-0.041 0.0209996 -5.93097e-06
-0.0399998 0.0209998 -8.56684e-06
-0.0389998 0.0210001 -7.92454e-06
-0.0379999 0.0210001 -1.08573e-05
-0.0369998 0.0210002 -1.03336e-05
-0.0359999 0.021 -1.35704e-05
-0.0349997 0.021 -1.20091e-05
-0.0339997 0.0210003 -1.38058e-05
-0.0329998 0.021 -1.08465e-05
-0.0319998 0.0210001 -1.35302e-05
-0.0310002 0.0209998 -1.1992e-05
-0.0299999 0.021 -1.51106e-05
-0.0289998 0.0209996 -1.32582e-05
-0.0279994 0.0209998 -1.61978e-05
-0.0269998 0.0209994 -1.4849e-05
-0.0259996 0.0209999 -1.91463e-05
-0.0249999 0.0209995 -1.79916e-05
-0.0239996 0.0209998 -2.06094e-05
-0.023 0.0209995 -1.69872e-05
-0.0219997 0.0209998 -1.7411e-05
-0.021 0.0209994 -1.4247e-05
-0.0199996 0.0209999 -1.58525e-05
-0.0190001 0.0209998 -1.52675e-05
-0.0179995 0.021 -1.71634e-05
-0.017 0.0209995 -1.63345e-05
-0.0159996 0.0209998 -1.79121e-05
-0.0150001 0.0209994 -1.60892e-05
-0.0139996 0.0209995 -1.79757e-05
-0.0130001 0.0209996 -1.4536e-05
-0.0119998 0.0209998 -1.58671e-05
-0.0109997 0.0209994 -1.26233e-05
-0.00999974 0.0209997 -1.42575e-05
-0.00899986 0.0209994 -1.26533e-05
-0.00799956 0.0209996 -1.31047e-05
-0.00699957 0.0209995 -1.19614e-05
-0.00599932 0.0209995 -9.36262e-06
-0.00499954 0.0209995 -6.27832e-06
-0.00399958 0.0209994 -1.25553e-06
-0.00299985 0.0209995 1.02361e-06
-0.00199946 0.0209992 4.30127e-06
-0.00099985 0.0209991 2.55052e-06
5.04771e-07 0.0209991 3.28172e-06
0.00100019 0.0209992 8.84965e-07
0.00200051 0.0209993 3.4858e-06
0.00300066 0.0209992 3.74442e-06
0.00400072 0.0209992 7.64629e-06
0.00500064 0.0209993 7.68444e-06
0.00600034 0.0209992 1.028e-05
0.00700031 0.0209994 9.61155e-06
0.00800057 0.0209992 1.15733e-05
0.00900059 0.0209991 9.59186e-06
0.0100006 0.0209991 1.06558e-05
0.0110008 0.0209992 7.63816e-06
0.0120004 0.020999 9.42387e-06
0.0130007 0.0209988 6.45369e-06
0.0140006 0.0209989 9.72208e-06
0.0150005 0.0209987 7.80009e-06
0.0160005 0.0209988 1.14489e-05
0.0170004 0.0209986 9.05871e-06
0.0180002 0.020999 1.08259e-05
0.0190001 0.020999 7.69728e-06
0.0200002 0.0199988 4.88953e-06
0.0200004 0.0209992 8.82974e-06
0.021 -0.05 0
0.021 -0.049 0
0.0210001 -0.0480001 -3.53575e-06
0.0209998 -0.0469996 -8.604e-06
0.0210003 -0.0459999 -1.56009e-05
0.0210003 -0.0449991 -2.61254e-05
0.0210005 -0.0439995 -3.75727e-05
0.0210004 -0.0429995 -5.09994e-05
0.0210004 -0.0419998 -6.7223e-05
0.0210008 -0.0409994 -8.83247e-05
0.0210004 -0.0399999 -0.000108968
0.0210007 -0.0389994 -0.000132374
0.0210005 -0.038 -0.00015438
0.0210007 -0.0369998 -0.00017948
0.0210008 -0.0360002 -0.000206306
0.021001 -0.0350003 -0.0002328
0.0210011 -0.0340009 -0.000258844
0.0210011 -0.0330005 -0.000285321
0.0210013 -0.0320013 -0.000312766
0.0210015 -0.031001 -0.000340203
0.0210033 -0.0300004 -0.000367875
0.0210049 -0.0290029 -0.000385737
0.0210019 -0.0280014 -0.000387223
0.0210013 -0.0270005 -0.000383494
0.0210016 -0.0260007 -0.000379154
0.0210016 -0.0250005 -0.000376157
0.0210016 -0.0240005 -0.00036877
0.0210018 -0.0230004 -0.000362263
0.0210016 -0.0220004 -0.00035135
0.0210017 -0.0210005 -0.000339018
0.0210017 -0.0200002 -0.000323035
0.0210018 -0.0190006 -0.000304722
0.0210018 -0.0180007 -0.000284421
0.0210018 -0.0170008 -0.000265093
0.0210015 -0.016001 -0.000240221
0.0210018 -0.0150007 -0.000215921
0.0210013 -0.0140015 -0.000185392
0.0210016 -0.0130011 -0.000162624
0.0210009 -0.0120018 -0.000134556
0.0210014 -0.0110019 -0.000114236
0.0210006 -0.0100021 -8.57817e-05
0.0210011 -0.00900225 -6.38581e-05
0.0210009 -0.00800233 -4.02334e-05
0.0210008 -0.00700234 -2.55462e-05
0.0210009 -0.0060023 -8.72175e-06
0.0210006 -0.00500254 4.6695e-06
0.0210007 -0.00400247 1.47387e-05
0.0210004 -0.00300236 2.01501e-05
0.0210005 -0.00200267 2.81614e-05
0.0210003 -0.00100225 3.54106e-05
0.0210006 -2.66518e-06 4.26086e-05
0.0210008 0.000997832 4.61893e-05
0.0210008 0.0019977 4.77144e-05
0.0210005 0.00299806 4.85437e-05
0.0210008 0.00399803 4.84357e-05
0.0210007 0.00499816 4.80808e-05
0.0210006 0.00599799 4.6009e-05
0.0210006 0.00699831 4.17036e-05
0.0210005 0.00799831 3.56857e-05
0.0210005 0.00899805 2.86779e-05
0.0210006 0.00999845 2.56125e-05
0.0210003 0.0109981 1.92622e-05
0.0210006 0.0119986 1.91904e-05
0.0210005 0.0129983 1.35389e-05
0.0210004 0.0139987 1.13611e-05
0.0210005 0.0149984 7.3466e-06
0.0210004 0.0159989 7.4378e-06
0.0210006 0.0169988 5.85174e-06
0.0210006 0.017999 7.9389e-06
0.0210002 0.0189989 5.0698e-06
0.0210003 0.0199988 5.67992e-06
-0.049 0.022 0
-0.05 0.022 0
-0.048 0.0219998 -3.04e-07
-0.0470001 0.0219997 2.72613e-07
-0.0460001 0.0219995 5.66937e-07
-0.0450001 0.0219994 1.90469e-06
-0.0439998 0.0219996 6.74434e-07
-0.043 0.0219998 -1.48162e-06
-0.0419999 0.0219995 -3.81844e-06
-0.0409999 0.0219997 -6.31789e-06
-0.04 0.0219999 -7.05516e-06
-0.039 0.0219999 -9.4899e-06
-0.0379999 0.0220001 -9.24728e-06
-0.0369997 0.022 -1.12967e-05
-0.0360002 0.0220001 -1.02442e-05
-0.0349996 0.0220001 -1.16623e-05
-0.0340001 0.0220002 -9.17585e-06
-0.0329998 0.0220003 -1.07565e-05
-0.0320001 0.022 -8.32489e-06
-0.0309996 0.0220002 -1.12657e-05
-0.0299998 0.0219999 -1.00176e-05
-0.0289996 0.022 -1.34541e-05
-0.028 0.0219999 -1.19566e-05
-0.0269998 0.0220001 -1.56926e-05
-0.0259996 0.0219997 -1.45134e-05
-0.025 0.0220003 -1.80235e-05
-0.0239998 0.0219998 -1.53323e-05
-0.0229999 0.0219999 -1.65622e-05
-0.0219998 0.0219998 -1.3331e-05
-0.0209999 0.0219998 -1.49362e-05
-0.0199999 0.0219999 -1.34524e-05
-0.0189997 0.0220001 -1.48188e-05
-0.0179999 0.0219998 -1.33234e-05
-0.0169997 0.0219999 -1.35167e-05
-0.0159996 0.0219994 -1.13928e-05
-0.0149997 0.022 -1.35287e-05
-0.0139997 0.0219993 -1.15858e-05
-0.0129999 0.022 -1.42896e-05
-0.0119995 0.0219995 -1.12298e-05
-0.0109998 0.0219997 -1.27464e-05
-0.00999955 0.0219994 -9.14499e-06
-0.00899979 0.0219997 -1.02793e-05
-0.00799942 0.0219993 -8.59993e-06
-0.00699977 0.0219995 -9.05646e-06
-0.00599918 0.0219993 -7.19452e-06
-0.00499975 0.0219994 -4.49895e-06
-0.00399933 0.0219994 -1.08682e-06
-0.00299984 0.0219995 3.9239e-06
-0.00199939 0.0219992 5.39453e-06
-0.000999714 0.021999 8.23458e-06
2.44937e-07 0.0219992 5.67713e-06
0.0010003 0.0219993 6.81018e-06
0.00200028 0.0219995 4.60061e-06
0.00300041 0.0219994 7.6534e-06
0.00400063 0.0219994 7.29542e-06
0.00500049 0.0219993 1.1009e-05
0.00600025 0.0219995 1.03832e-05
0.0070005 0.0219993 1.32974e-05
0.00800008 0.0219991 1.22677e-05
0.00900085 0.021999 1.53111e-05
0.0100004 0.0219992 1.30268e-05
0.0110008 0.0219991 1.46419e-05
0.0120003 0.0219989 1.15591e-05
0.0130005 0.0219989 1.39551e-05
0.0140003 0.0219986 1.16668e-05
0.0150007 0.0219987 1.48325e-05
0.0160003 0.0219987 1.20845e-05
0.0170006 0.021999 1.4193e-05
0.0180001 0.0219986 1.13286e-05
0.0190006 0.0219989 1.3017e-05
0.0200003 0.0219989 1.04444e-05
0.0209999 0.0209993 5.75657e-06
0.0210003 0.021999 1.158e-05
0.022 -0.05 0
0.022 -0.049 0
0.0220002 -0.0479998 -2.01788e-06
0.0220001 -0.0469999 -7.87061e-06
0.0220002 -0.0459993 -1.50646e-05
0.0220005 -0.0449997 -2.48108e-05
0.0220005 -0.0439992 -3.57275e-05
0.0220007 -0.0429991 -4.76926e-05
0.0220001 -0.0419995 -6.49037e-05
0.0220006 -0.0409994 -8.49382e-05
0.0220004 -0.0399993 -0.000108031
0.0220004 -0.0389999 -0.000128561
0.0220006 -0.0379998 -0.000152635
0.0220005 -0.0369999 -0.000175941
0.0220006 -0.036 -0.000202845
0.0220009 -0.0350004 -0.000228083
0.0220006 -0.0340002 -0.0002549
0.0220009 -0.033001 -0.000281215
0.0220007 -0.0320007 -0.000307964
0.0220015 -0.0310015 -0.000333546
0.0220008 -0.0299991 -0.000365754
0.0220045 -0.0289988 -0.000392079
0.0220007 -0.0279986 -0.000390585
0.0220016 -0.027001 -0.00038214
0.0220012 -0.0260002 -0.000379948
0.0220017 -0.0250006 -0.00037405
0.0220018 -0.0240002 -0.000368644
0.022002 -0.0230005 -0.000360001
0.0220018 -0.0220005 -0.000348948
0.022002 -0.0210004 -0.000334852
0.0220019 -0.0200005 -0.000317577
0.022002 -0.0190006 -0.000299623
0.0220018 -0.0180006 -0.000278312
0.0220018 -0.0170006 -0.000255497
0.0220015 -0.0160008 -0.000232738
0.0220015 -0.0150014 -0.000203249
0.0220017 -0.0140012 -0.000177803
0.0220014 -0.0130014 -0.000148248
0.0220015 -0.0120016 -0.000127127
0.022001 -0.0110018 -9.88203e-05
0.0220012 -0.0100021 -7.81324e-05
0.0220007 -0.00900235 -4.90054e-05
0.0220009 -0.00800289 -3.12442e-05
0.0220005 -0.00700221 -1.19442e-05
0.0220006 -0.0060028 8.95896e-07
0.0220006 -0.00500218 1.56302e-05
0.0220003 -0.00400307 2.22296e-05
0.0220005 -0.00300226 2.79516e-05
0.0220004 -0.00200271 3.26218e-05
0.0220006 -0.00100264 4.02623e-05
0.0220004 -2.397e-06 4.53701e-05
0.0220005 0.000997763 4.85405e-05
0.0220006 0.00199787 5.02801e-05
0.0220007 0.00299796 4.99252e-05
0.0220003 0.0039981 4.90791e-05
0.0220002 0.00499777 4.8665e-05
0.0220005 0.00599852 4.68766e-05
0.0220001 0.00699791 4.37766e-05
0.0220002 0.00799831 3.65435e-05
0.0220003 0.00899803 3.06172e-05
0.0220001 0.00999835 2.29768e-05
0.0220001 0.0109985 2.13284e-05
0.022 0.0119981 1.56831e-05
0.0220002 0.0129984 1.50042e-05
0.0220002 0.0139986 1.06717e-05
0.0220004 0.0149986 8.51328e-06
0.0220004 0.0159988 6.87237e-06
0.0220005 0.0169987 7.43264e-06
0.0220005 0.0179989 6.06375e-06
0.0220006 0.0189987 6.41759e-06
0.0220004 0.019999 3.54418e-06
0.0220007 0.0209995 6.54198e-06
-0.049 0.023 0
-0.05 0.023 0
-0.0480001 0.023 -2.15433e-07
-0.0470002 0.0229996 -6.34213e-07
-0.0460001 0.0229998 -2.00567e-08
-0.0450001 0.0229996 -3.09697e-07
-0.0439998 0.0229999 -1.13273e-06
-0.0430004 0.0229997 -2.65062e-06
-0.0419997 0.0229996 -4.2155e-06
-0.0410005 0.0229999 -4.76113e-06
-0.04 0.0229999 -6.92836e-06
-0.0390001 0.0230001 -7.38611e-06
-0.0380001 0.0230001 -1.02557e-05
-0.0369996 0.0229999 -8.86022e-06
-0.0359999 0.0230001 -1.04547e-05
-0.0349999 0.0230001 -7.64562e-06
-0.034 0.0230001 -9.41923e-06
-0.033 0.023 -6.30718e-06
-0.0319999 0.0229998 -9.26227e-06
-0.0309999 0.0229997 -6.99553e-06
-0.0299999 0.0229997 -1.03674e-05
-0.0290001 0.0229994 -8.20436e-06
-0.0279997 0.0229996 -1.19296e-05
-0.0269999 0.0229995 -1.00924e-05
-0.0259998 0.0230001 -1.4712e-05
-0.0250001 0.0229997 -1.26804e-05
-0.0239996 0.0229999 -1.55981e-05
-0.0229999 0.0229999 -1.25308e-05
-0.0219997 0.0229996 -1.45247e-05
-0.0209999 0.0229998 -1.2682e-05
-0.0199997 0.0229996 -1.43193e-05
-0.0189998 0.0229995 -1.23739e-05
-0.0179995 0.0229998 -1.18434e-05
-0.0169997 0.0229995 -8.42753e-06
-0.0159995 0.0229999 -8.51501e-06
-0.0149999 0.0229995 -6.13372e-06
-0.0139994 0.0229999 -9.68487e-06
-0.0129996 0.0229993 -7.54947e-06
-0.0119997 0.0229997 -1.11696e-05
-0.0109998 0.0229992 -7.31037e-06
-0.00999942 0.0229995 -9.23134e-06
-0.00899954 0.0229993 -5.89894e-06
-0.00799923 0.0229996 -7.20096e-06
-0.00699958 0.0229993 -5.51924e-06
-0.00599947 0.0229995 -5.31888e-06
-0.0049996 0.0229994 -3.24825e-06
-0.00399946 0.0229994 -8.41493e-07
-0.00299971 0.0229995 1.97421e-06
-0.00199974 0.0229991 5.95129e-06
-0.000999769 0.0229995 7.57237e-06
2.6717e-07 0.0229993 9.6165e-06
0.00100016 0.0229996 8.41909e-06
0.00200053 0.0229995 9.58752e-06
0.00300039 0.0229992 9.33935e-06
0.0040002 0.0229991 1.18956e-05
0.00500053 0.0229994 1.20038e-05
0.00600029 0.0229993 1.3603e-05
0.00700046 0.0229994 1.34349e-05
0.00800037 0.0229993 1.58325e-05
0.00900077 0.0229991 1.60972e-05
0.0100004 0.0229992 1.83732e-05
0.0110005 0.0229992 1.7427e-05
0.0120005 0.022999 1.89396e-05
0.0130005 0.022999 1.65564e-05
0.0140006 0.0229989 1.7864e-05
0.0150004 0.0229989 1.49411e-05
0.0160006 0.022999 1.59671e-05
0.0170004 0.0229992 1.31937e-05
0.0180005 0.0229992 1.41129e-05
0.0190002 0.0229992 1.24219e-05
0.0200006 0.0229996 1.39987e-05
0.0210002 0.0229993 1.19216e-05
0.0220005 0.0219992 8.46139e-06
0.0220007 0.0229996 1.2067e-05
0.023 -0.05 0
0.023 -0.049 0
0.023 -0.0480001 -2.04588e-06
0.023 -0.0469996 -5.17229e-06
0.0230001 -0.0459997 -1.23103e-05
0.0230005 -0.0449995 -2.31863e-05
0.0230005 -0.0439996 -3.31401e-05
0.0230003 -0.0429991 -4.48545e-05
0.0230007 -0.0419995 -5.95419e-05
0.0230004 -0.0409991 -8.2134e-05
0.0230005 -0.0399996 -0.000103289
0.0230006 -0.0389991 -0.000127024
0.0230005 -0.0379997 -0.000147408
0.0230006 -0.0369995 -0.000171464
0.0230011 -0.0360005 -0.000197148
0.0230009 -0.0349999 -0.000223243
0.0230011 -0.0340009 -0.000248684
0.0230009 -0.0330004 -0.000275207
0.0230014 -0.032001 -0.000301897
0.0230009 -0.0310005 -0.000328089
0.0230021 -0.030002 -0.000354282
0.023005 -0.0290018 -0.000374781
0.0230045 -0.0279986 -0.000380597
0.0230015 -0.0270003 -0.00037853
0.0230019 -0.0260008 -0.000377349
0.0230014 -0.0250004 -0.000373283
0.0230021 -0.0240006 -0.000367325
0.0230014 -0.0230004 -0.000356574
0.0230019 -0.0220003 -0.000344951
0.0230016 -0.0210004 -0.000328048
0.0230021 -0.0200003 -0.000312027
0.0230019 -0.0190004 -0.000290447
0.0230019 -0.0180002 -0.000270098
0.0230019 -0.0170008 -0.000245858
0.0230016 -0.0160009 -0.000219743
0.0230017 -0.015001 -0.00019234
0.0230014 -0.0140016 -0.000162623
0.0230015 -0.0130017 -0.000138322
0.0230013 -0.012002 -0.000110581
0.0230011 -0.011002 -8.91192e-05
0.0230006 -0.0100022 -6.09725e-05
0.0230008 -0.00900239 -4.00797e-05
0.0230007 -0.00800258 -1.60738e-05
0.0230008 -0.00700231 -3.01967e-06
0.0230005 -0.0060025 1.325e-05
0.0230008 -0.00500236 2.46713e-05
0.0230007 -0.00400232 3.31341e-05
0.0230005 -0.00300275 3.49892e-05
0.0230005 -0.00200284 3.9725e-05
0.0230003 -0.00100231 4.3685e-05
0.0230005 -2.58155e-06 4.98832e-05
0.0230004 0.000997789 5.14737e-05
0.0230005 0.00199756 5.28903e-05
0.0230006 0.00299803 5.20853e-05
0.0230007 0.00399776 5.05326e-05
0.0230004 0.00499824 4.8039e-05
0.0230004 0.00599799 4.65083e-05
0.0230004 0.00699826 4.28567e-05
0.0230005 0.00799816 3.71365e-05
0.0230006 0.00899795 2.85929e-05
0.0230005 0.00999845 2.52442e-05
0.0230005 0.0109982 1.73685e-05
0.0230004 0.0119982 1.73914e-05
0.0230004 0.0129983 1.09368e-05
0.0230003 0.0139987 1.18084e-05
0.0230005 0.0149984 8.88255e-06
0.0230007 0.015999 9.57662e-06
0.0230005 0.0169987 5.98585e-06
0.0230006 0.017999 7.54858e-06
0.0230002 0.0189992 4.79777e-06
0.0230003 0.019999 5.83096e-06
0.023 0.0209992 4.70857e-06
0.0230001 0.021999 9.46801e-06
-0.049 0.024 0
-0.05 0.024 0
-0.048 0.0239998 -1.70983e-07
-0.0470002 0.0239996 1.62214e-07
-0.0459999 0.0239997 -7.12413e-07
-0.0450002 0.0239996 -3.4085e-07
-0.0439998 0.0239997 -1.67445e-06
-0.0430003 0.0239996 -2.25255e-06
-0.0419999 0.0239997 -3.23006e-06
-0.0410001 0.0239997 -4.43928e-06
-0.0400002 0.0239999 -5.44206e-06
-0.039 0.0239999 -7.94261e-06
-0.0379999 0.024 -7.41304e-06
-0.037 0.024 -9.01082e-06
-0.0360001 0.0240003 -6.4214e-06
-0.0349997 0.0240003 -8.25672e-06
-0.0340003 0.0240001 -5.34861e-06
-0.0329997 0.0240002 -8.05255e-06
-0.0320002 0.0240001 -5.08418e-06
-0.0309999 0.024 -8.27898e-06
-0.03 0.0239999 -5.89228e-06
-0.0289997 0.0239999 -9.41464e-06
-0.0279999 0.0239997 -7.00246e-06
-0.0269997 0.0240001 -1.07246e-05
-0.026 0.0239997 -8.91402e-06
-0.025 0.0239998 -1.25648e-05
-0.0239998 0.0239998 -1.06927e-05
-0.0230002 0.024 -1.35975e-05
-0.0219995 0.0239999 -1.20926e-05
-0.0209999 0.0239999 -1.44688e-05
-0.0199996 0.024 -1.2435e-05
-0.0189998 0.0239998 -1.18765e-05
-0.0179994 0.0239998 -8.49924e-06
-0.0169996 0.0239999 -6.79991e-06
-0.0159998 0.0239997 -3.30967e-06
-0.0149996 0.0239996 -4.8499e-06
-0.0139996 0.0239997 -2.81585e-06
-0.0129996 0.024 -6.76685e-06
-0.0119996 0.0239997 -4.40735e-06
-0.0109996 0.0240001 -7.6089e-06
-0.00999928 0.0239995 -4.08091e-06
-0.00899952 0.0239998 -6.65387e-06
-0.00799933 0.0239994 -4.00548e-06
-0.00699962 0.0239995 -4.71072e-06
-0.00599942 0.0239995 -2.01758e-06
-0.00499986 0.0239994 -1.34693e-06
-0.00399946 0.0239997 2.6495e-07
-0.00299997 0.0239995 2.80901e-06
-0.00199985 0.0239994 4.85612e-06
-0.000999927 0.0239992 8.90667e-06
2.95251e-07 0.0239996 9.30712e-06
0.00100004 0.0239992 1.11622e-05
0.00200012 0.0239996 9.66484e-06
0.00300012 0.0239996 1.12445e-05
0.00400008 0.0239995 1.09191e-05
0.00500017 0.0239996 1.36529e-05
0.00600001 0.0239994 1.32598e-05
0.00700052 0.0239993 1.47275e-05
0.00800007 0.0239994 1.42826e-05
0.00900045 0.0239991 1.7369e-05
0.0100001 0.0239993 1.79728e-05
0.0110005 0.0239991 2.07418e-05
0.0120003 0.023999 1.95459e-05
0.0130007 0.0239989 2.03708e-05
0.0140004 0.0239991 1.74628e-05
0.0150005 0.0239989 1.74705e-05
0.0160004 0.0239991 1.42779e-05
0.0170002 0.0239994 1.4333e-05
0.0180002 0.0239991 1.21957e-05
0.0190005 0.0239992 1.29089e-05
0.0199999 0.0239991 1.16868e-05
0.0210004 0.0239994 1.28059e-05
0.022 0.0239991 1.13741e-05
0.0229998 0.0229991 9.6762e-06
0.0230003 0.0239995 1.2122e-05
0.024 -0.05 0
0.024 -0.049 0
0.0240003 -0.0479998 -3.4843e-07
0.0240003 -0.0469999 -4.16795e-06
0.0240003 -0.0459993 -1.16523e-05
0.0240007 -0.0449995 -2.15618e-05
0.0240007 -0.0439992 -3.2306e-05
0.0240007 -0.0429994 -4.25078e-05
0.0240004 -0.0419991 -5.97679e-05
0.0240008 -0.0409993 -7.96546e-05
0.0240006 -0.0399993 -0.000103269
0.0240005 -0.0389997 -0.000122085
0.0240006 -0.0379994 -0.000145257
0.0240008 -0.0369997 -0.000167578
0.0240006 -0.036 -0.000194659
0.0240008 -0.0350003 -0.000218581
0.0240006 -0.034 -0.000244283
0.024001 -0.0330009 -0.000270015
0.0240006 -0.0320005 -0.000297843
0.0240016 -0.0310014 -0.000322217
0.0240018 -0.030001 -0.000340999
0.0240026 -0.029001 -0.000356681
0.0240019 -0.0280012 -0.000368611
0.0240021 -0.0270007 -0.000376029
0.0240012 -0.0260005 -0.00037601
0.0240019 -0.0250005 -0.000373039
0.0240017 -0.0240002 -0.000365857
0.0240023 -0.0230003 -0.000356655
0.0240018 -0.0220003 -0.000341916
0.0240022 -0.0210002 -0.000325892
0.0240019 -0.0200005 -0.000305004
0.0240024 -0.0190003 -0.000286548
0.024002 -0.0180005 -0.000262726
0.0240019 -0.0170007 -0.000238513
0.0240018 -0.0160006 -0.000211447
0.0240015 -0.0150015 -0.000181208
0.0240015 -0.0140012 -0.000153368
0.0240014 -0.0130019 -0.000124476
0.0240014 -0.0120018 -0.000100249
0.0240009 -0.0110022 -7.16299e-05
0.0240007 -0.0100023 -4.93599e-05
0.0240006 -0.00900234 -2.2398e-05
0.0240008 -0.00800258 -4.98346e-06
0.0240006 -0.00700249 1.23635e-05
0.0240007 -0.00600256 2.37284e-05
0.0240005 -0.00500222 3.72123e-05
0.0240005 -0.00400287 4.2968e-05
0.0240003 -0.00300241 4.60664e-05
0.0240004 -0.00200275 4.67653e-05
0.0240004 -0.0010025 5.05222e-05
0.0240004 -2.47912e-06 5.37934e-05
0.0240004 0.000997726 5.4551e-05
0.0240005 0.00199789 5.49864e-05
0.0240005 0.00299793 5.33524e-05
0.0240004 0.00399797 5.1138e-05
0.0240004 0.00499791 4.79665e-05
0.0240003 0.00599823 4.48836e-05
0.0240002 0.00699775 4.19277e-05
0.0240003 0.00799839 3.59997e-05
0.0240001 0.00899797 2.98261e-05
0.0240001 0.00999822 2.17364e-05
0.0240001 0.0109983 1.92055e-05
0.0240002 0.0119983 1.29759e-05
0.0240001 0.0129985 1.32216e-05
0.0240005 0.0139983 1.07384e-05
0.0240005 0.0149983 1.04126e-05
0.0240004 0.0159987 9.19588e-06
0.0240005 0.016999 8.52773e-06
0.0240002 0.017999 5.87446e-06
0.0240008 0.0189991 6.683e-06
0.0240006 0.0199988 4.31113e-06
0.0240009 0.0209992 6.60157e-06
0.0240005 0.0219994 7.11765e-06
0.0240007 0.0229992 1.06177e-05
-0.049 0.025 0
-0.05 0.025 0
-0.0479999 0.0249999 1.04025e-07
-0.0469999 0.0249998 -4.60228e-07
-0.0459997 0.0249999 -2.30976e-07
-0.0450001 0.025 -1.48778e-06
-0.0439998 0.0249998 -1.12126e-06
-0.0430003 0.0249998 -2.24937e-06
-0.0419998 0.0249998 -1.71477e-06
-0.0410002 0.0249999 -2.79554e-06
-0.0399999 0.0249998 -3.56093e-06
-0.0390002 0.0249998 -4.95046e-06
-0.0380002 0.0249997 -6.61594e-06
-0.0369999 0.0249998 -6.34839e-06
-0.036 0.0249999 -7.26341e-06
-0.0349999 0.0250002 -5.32256e-06
-0.0339999 0.0249999 -6.75289e-06
-0.0330001 0.0250001 -4.25044e-06
-0.032 0.0249999 -7.19516e-06
-0.0309996 0.0249998 -5.13323e-06
-0.0299998 0.0249995 -8.01776e-06
-0.0289999 0.0249997 -5.57842e-06
-0.0279998 0.0249999 -8.74698e-06
-0.0270003 0.0249997 -6.28403e-06
-0.0259998 0.0250002 -9.8202e-06
-0.025 0.0249997 -7.36853e-06
-0.0239999 0.0250002 -1.04665e-05
-0.023 0.0249997 -9.72373e-06
-0.0219999 0.025 -1.29477e-05
-0.0209998 0.0249998 -1.25259e-05
-0.0199998 0.0249997 -1.25432e-05
-0.0189996 0.0249996 -9.65159e-06
-0.0179996 0.0249996 -7.17544e-06
-0.0169997 0.0249995 -3.96502e-06
-0.0159994 0.0249994 -3.31109e-06
-0.0149998 0.0249995 -9.7046e-07
-0.0139995 0.0249994 -3.26113e-06
-0.0129994 0.0249993 -8.48035e-07
-0.0119994 0.0249994 -4.61935e-06
-0.0109996 0.0249994 -2.08021e-06
-0.00999932 0.0249994 -6.00701e-06
-0.00899957 0.0249994 -3.59656e-06
-0.00799939 0.0249995 -5.17649e-06
-0.00699947 0.0249993 -1.49333e-06
-0.00599945 0.0249994 -7.92383e-07
-0.00499939 0.0249995 1.55807e-06
-0.00399961 0.0249995 1.78197e-06
-0.0029997 0.0249994 2.96506e-06
-0.00199972 0.0249993 5.2721e-06
-0.000999764 0.0249995 7.321e-06
1.5871e-07 0.0249993 9.82553e-06
0.00100027 0.0249996 9.91828e-06
0.0020002 0.0249992 1.04579e-05
0.00300007 0.0249995 1.01747e-05
0.00400026 0.0249994 1.1804e-05
0.00500034 0.0249994 1.29538e-05
0.00600008 0.0249995 1.46223e-05
0.00700023 0.0249994 1.47752e-05
0.00800001 0.0249992 1.62947e-05
0.00900043 0.0249994 1.61329e-05
0.00999997 0.0249992 1.90304e-05
0.0110003 0.0249992 1.91814e-05
0.0120004 0.0249989 2.14308e-05
0.0130004 0.024999 1.85115e-05
0.0140006 0.024999 1.84609e-05
0.0150005 0.0249992 1.41219e-05
0.0160001 0.0249991 1.41984e-05
0.0170003 0.0249994 1.10181e-05
0.0180002 0.0249992 1.11165e-05
0.019 0.0249993 8.93011e-06
0.0200003 0.0249995 1.01106e-05
0.0209999 0.0249994 9.12074e-06
0.0220006 0.0249995 1.06853e-05
0.0229998 0.0249993 9.70095e-06
0.0240003 0.0239992 1.04821e-05
0.0240005 0.0249996 1.0484e-05
0.025 -0.05 0
0.025 -0.049 0
0.0249998 -0.0479999 -1.13543e-06
0.025 -0.0469994 -3.35968e-06
0.0250001 -0.0459998 -1.06205e-05
0.0250002 -0.0449994 -2.24607e-05
0.0250005 -0.0439995 -3.3388e-05
0.0250003 -0.0429985 -4.59817e-05
0.0250005 -0.0419994 -6.00043e-05
0.0250004 -0.0409991 -8.21871e-05
0.0250005 -0.0399995 -0.000101187
0.0250004 -0.0389991 -0.000123428
0.0250005 -0.0379994 -0.000142821
0.0250007 -0.0369999 -0.000167022
0.0250008 -0.0360001 -0.000192559
0.0250011 -0.0349999 -0.000217384
0.0250013 -0.0340004 -0.000240843
0.0250011 -0.0330004 -0.000267092
0.0250014 -0.0320011 -0.000293922
0.0250013 -0.0310009 -0.000318101
0.0250019 -0.0300009 -0.000335137
0.0250021 -0.0290011 -0.000350222
0.0250027 -0.0280006 -0.000365566
0.0250017 -0.0270009 -0.000375903
0.0250021 -0.0260006 -0.000378192
0.0250016 -0.0250002 -0.000373898
0.0250019 -0.0240002 -0.000366599
0.0250017 -0.023 -0.000354766
0.0250018 -0.0220003 -0.000340923
0.0250013 -0.0210002 -0.000321541
0.0250019 -0.0200003 -0.000302699
0.0250017 -0.0190005 -0.00028019
0.0250021 -0.0180004 -0.000258572
0.0250016 -0.017001 -0.000232017
0.0250017 -0.0160006 -0.00020252
0.0250015 -0.0150011 -0.000172309
0.0250011 -0.0140016 -0.000141368
0.0250014 -0.0130017 -0.000114779
0.0250008 -0.012002 -8.41425e-05
0.0250008 -0.0110023 -5.81379e-05
0.0250003 -0.0100022 -2.9517e-05
0.0250007 -0.00900275 -8.59795e-06
0.0250004 -0.00800257 1.33945e-05
0.0250004 -0.00700272 2.57925e-05
0.0250005 -0.00600255 3.904e-05
0.0250003 -0.00500272 4.8594e-05
0.0250008 -0.00400215 5.53977e-05
0.025001 -0.00300251 5.64495e-05
0.0250004 -0.00200296 5.65703e-05
0.0250005 -0.00100252 5.66462e-05
0.0250004 -2.65904e-06 5.9247e-05
0.0250004 0.000997608 5.81956e-05
0.0250004 0.00199773 5.65694e-05
0.0250006 0.00299793 5.40594e-05
0.0250002 0.00399788 5.06396e-05
0.0250005 0.00499821 4.64065e-05
0.025 0.0059978 4.257e-05
0.0250001 0.00699835 3.88667e-05
0.0250004 0.00799781 3.41038e-05
0.0250006 0.00899829 2.72259e-05
0.0250004 0.00999853 2.34099e-05
0.0250002 0.0109984 1.57394e-05
0.0250002 0.0119983 1.61511e-05
0.0250003 0.0129981 1.09192e-05
0.0250003 0.0139984 1.2205e-05
0.0250001 0.0149983 1.00822e-05
0.0250004 0.0159986 1.03752e-05
0.0250004 0.0169989 7.05567e-06
0.0250003 0.0179989 7.14644e-06
0.025 0.0189992 5.52854e-06
0.0250004 0.0199989 6.42999e-06
0.0250001 0.0209992 6.19156e-06
0.0250003 0.0219991 9.38112e-06
0.025 0.0229994 9.92402e-06
0.0250001 0.0239996 1.1817e-05
-0.049 0.026 0
-0.05 0.026 0
-0.0479999 0.0260001 -4.15341e-08
-0.0469998 0.0260001 5.55151e-07
-0.0459998 0.026 -8.00726e-07
-0.045 0.0259998 -8.28838e-08
-0.0439996 0.0259998 -1.37096e-06
-0.0429999 0.0259998 -4.61062e-07
-0.0419999 0.0259998 -1.89583e-06
-0.041 0.0259999 -1.5724e-06
-0.0400001 0.0259997 -3.1322e-06
-0.0390001 0.0259999 -3.57173e-06
-0.0380002 0.0259999 -3.99503e-06
-0.037 0.026 -5.1925e-06
-0.0360003 0.0260004 -4.02154e-06
-0.035 0.0260002 -5.46394e-06
-0.0340004 0.0260004 -3.22551e-06
-0.0329997 0.0260002 -5.51978e-06
-0.0320002 0.0260001 -3.42704e-06
-0.031 0.0259999 -6.40819e-06
-0.0299999 0.0259997 -4.5615e-06
-0.0289999 0.0259999 -8.05539e-06
-0.0279999 0.0259997 -5.79802e-06
-0.0269999 0.0259998 -8.85588e-06
-0.026 0.0259996 -5.83572e-06
-0.025 0.0260001 -8.0913e-06
-0.0239998 0.0259996 -6.23777e-06
-0.0229999 0.026 -9.93914e-06
-0.0219998 0.0259996 -1.05018e-05
-0.021 0.0259999 -1.32276e-05
-0.0199995 0.0259998 -1.13399e-05
-0.0189999 0.0259999 -8.89904e-06
-0.0179996 0.0259998 -5.55638e-06
-0.0169995 0.0259997 -3.72934e-06
-0.0159998 0.0259997 -1.68365e-06
-0.0149995 0.0259997 -2.51675e-06
-0.0139995 0.0259997 3.92526e-07
-0.0129995 0.0259997 -1.32704e-06
-0.0119992 0.0259999 1.63078e-06
-0.0109995 0.0259998 -1.95196e-06
-0.00999938 0.0259996 3.322e-07
-0.00899932 0.0259997 -3.22452e-06
-0.00799951 0.0259996 3.24398e-07
-0.00699937 0.0259996 -7.18784e-08
-0.00599946 0.0259997 4.30925e-06
-0.00499962 0.0259997 3.93464e-06
-0.00399937 0.0259996 5.93319e-06
-0.00299958 0.0259996 5.63759e-06
-0.00199936 0.0259996 7.26219e-06
-0.000999856 0.0259996 8.37643e-06
3.15694e-07 0.0259995 9.83694e-06
0.00100031 0.0259992 1.02502e-05
0.00200026 0.0259996 1.07214e-05
0.00300029 0.0259993 1.0253e-05
0.00400029 0.0259995 1.17924e-05
0.00500026 0.0259995 1.32608e-05
0.0060003 0.0259995 1.61141e-05
0.00700048 0.0259994 1.63405e-05
0.00800028 0.0259996 1.7203e-05
0.00900027 0.0259996 1.69882e-05
0.0100003 0.0259992 1.79145e-05
0.0110007 0.0259991 1.88459e-05
0.0120002 0.0259992 1.86759e-05
0.0130006 0.025999 1.83231e-05
0.0140002 0.0259992 1.55418e-05
0.0150003 0.0259992 1.43127e-05
0.0160002 0.0259995 1.1476e-05
0.017 0.0259992 1.08273e-05
0.018 0.0259995 8.67576e-06
0.0190002 0.0259991 8.20902e-06
0.0199999 0.0259995 7.02343e-06
0.0210003 0.0259993 8.7225e-06
0.0220002 0.0259994 8.87503e-06
0.0230004 0.0259995 1.03627e-05
0.0240002 0.0259993 7.95718e-06
0.0250001 0.0249992 8.96004e-06
0.0250006 0.0259996 7.34224e-06
0.026 -0.05 0
0.026 -0.049 0
0.0260002 -0.0479998 -2.79009e-07
0.0260002 -0.0469999 -3.7934e-06
0.0260003 -0.0459994 -1.13658e-05
0.0260004 -0.0449995 -2.2568e-05
0.0260005 -0.0439992 -3.56712e-05
0.0260003 -0.0429996 -4.81261e-05
0.0260001 -0.0419991 -6.50969e-05
0.0260005 -0.0409993 -8.32728e-05
0.0260004 -0.0399992 -0.000104055
0.0260006 -0.0389995 -0.000122026
0.0260007 -0.0379993 -0.000144423
0.0260007 -0.0369997 -0.000167506
0.0260007 -0.0359997 -0.000193681
0.0260007 -0.0350007 -0.000217266
0.0260009 -0.0339998 -0.000241429
0.0260009 -0.0330009 -0.000266292
0.0260008 -0.0320003 -0.000292676
0.0260017 -0.0310011 -0.000314401
0.0260014 -0.0300008 -0.000330792
0.0260019 -0.0290007 -0.000348024
0.0260017 -0.0280008 -0.000364686
0.026002 -0.0270011 -0.000379641
0.0260015 -0.0260005 -0.000380313
0.026002 -0.0250004 -0.000376133
0.0260019 -0.0240001 -0.000366292
0.0260021 -0.0230004 -0.000356081
0.026002 -0.0219999 -0.000338058
0.026002 -0.0210002 -0.000319846
0.0260016 -0.0200002 -0.000294769
0.0260019 -0.0190007 -0.000275154
0.0260018 -0.0180004 -0.000248825
0.0260019 -0.0170007 -0.000223706
0.0260014 -0.0160011 -0.000192663
0.0260016 -0.0150015 -0.000160992
0.0260015 -0.0140014 -0.000130653
0.0260011 -0.013002 -0.000100974
0.0260012 -0.0120018 -7.17698e-05
0.0260006 -0.0110026 -3.98643e-05
0.0260005 -0.0100027 -1.45734e-05
0.0260002 -0.00900261 1.0947e-05
0.0260002 -0.00800243 2.87067e-05
0.0260001 -0.0070025 4.46582e-05
0.0260006 -0.00600242 5.43189e-05
0.0260005 -0.00500254 6.38435e-05
0.0260006 -0.00400284 6.74359e-05
0.0260004 -0.00300236 6.88355e-05
0.0260006 -0.00200235 6.65956e-05
0.026 -0.00100259 6.48585e-05
0.0260004 -2.48881e-06 6.39174e-05
0.026 0.000997448 6.0843e-05
0.0260004 0.00199767 5.80158e-05
0.0260003 0.00299771 5.3107e-05
0.0260005 0.00399791 4.83889e-05
0.0260004 0.00499795 4.4049e-05
0.0260006 0.00599803 3.96081e-05
0.0260003 0.00699791 3.63825e-05
0.0260005 0.00799825 3.1178e-05
0.026 0.00899824 2.68775e-05
0.0260001 0.00999837 1.92677e-05
0.0260004 0.0109985 1.79102e-05
0.0260005 0.0119982 1.27945e-05
0.0260002 0.0129984 1.48267e-05
0.0260003 0.0139983 1.18566e-05
0.0260006 0.0149986 1.10125e-05
0.0260004 0.0159987 9.41911e-06
0.0260004 0.0169987 8.92761e-06
0.0260001 0.0179989 6.43358e-06
0.0260007 0.0189991 7.03599e-06
0.0260004 0.0199986 5.24325e-06
0.0260008 0.020999 7.767e-06
0.0260002 0.0219996 8.84276e-06
0.0260005 0.0229993 1.15716e-05
0.0260002 0.0239994 1.14543e-05
0.0260005 0.0249995 9.5263e-06
-0.049 0.027 0
-0.05 0.027 0
-0.0479997 0.0269999 2.66471e-07
-0.0469997 0.0270001 -3.62746e-07
-0.0459997 0.027 5.77953e-07
-0.0449998 0.0270001 -8.43042e-07
-0.0439998 0.027 7.21619e-07
-0.0429997 0.0269999 -8.50653e-07
-0.0419997 0.0270001 7.22819e-07
-0.0409999 0.0269997 -8.08834e-07
-0.0399999 0.0270001 3.82277e-07
-0.039 0.0269998 -1.03987e-06
-0.0380001 0.0269999 -1.69359e-06
-0.0370001 0.0269999 -2.86284e-06
-0.0360004 0.0269999 -3.92117e-06
-0.0350001 0.027 -2.91193e-06
-0.0340003 0.0269998 -4.05073e-06
-0.033 0.0270001 -1.99058e-06
-0.0319999 0.0269999 -4.817e-06
-0.031 0.0269998 -3.1645e-06
-0.0299997 0.0269998 -6.18084e-06
-0.0289998 0.027 -4.82004e-06
-0.0279999 0.0270001 -8.19028e-06
-0.0270001 0.0269998 -6.30124e-06
-0.026 0.027 -8.18609e-06
-0.0250003 0.0269998 -5.39645e-06
-0.0239999 0.0270001 -6.80432e-06
-0.0229998 0.0269996 -7.38043e-06
-0.0219997 0.0270001 -1.01299e-05
-0.0209998 0.0269997 -1.14247e-05
-0.0199998 0.027 -1.01942e-05
-0.0189998 0.0269997 -8.15406e-06
-0.0179998 0.0269995 -4.59538e-06
-0.017 0.0269995 -3.24679e-06
-0.0159995 0.0269995 -2.75156e-06
-0.0149997 0.0269996 -1.44603e-06
-0.0139995 0.0269996 -1.68744e-06
-0.0129995 0.0269995 2.17114e-06
-0.0119996 0.0269996 6.49009e-07
-0.0109992 0.0269992 3.82934e-06
-0.00999935 0.0269995 3.03924e-07
-0.00899944 0.0269994 3.12262e-06
-0.00799947 0.0269996 1.33899e-06
-0.00699933 0.0269995 5.19587e-06
-0.00599976 0.0269995 4.52755e-06
-0.00499953 0.0269994 6.92243e-06
-0.00399952 0.0269994 5.94147e-06
-0.00299978 0.0269995 6.94666e-06
-0.00199935 0.0269997 7.12543e-06
-0.000999665 0.0269995 8.40076e-06
3.16965e-07 0.0269995 9.52342e-06
0.00100032 0.0269996 1.08231e-05
0.00200019 0.0269995 1.13786e-05
0.00300033 0.0269997 1.24015e-05
0.004 0.0269995 1.27313e-05
0.00500013 0.0269995 1.47371e-05
0.00600027 0.0269993 1.53285e-05
0.0070005 0.0269995 1.71299e-05
0.00800016 0.0269994 1.71201e-05
0.00900054 0.0269995 1.69299e-05
0.0100002 0.0269992 1.69352e-05
0.0110004 0.0269994 1.67078e-05
0.0120003 0.0269993 1.69196e-05
0.0130004 0.0269994 1.493e-05
0.0139999 0.0269991 1.39442e-05
0.015 0.0269993 1.09964e-05
0.0159999 0.0269992 1.06926e-05
0.017 0.0269995 8.86655e-06
0.0179998 0.0269991 8.61232e-06
0.0189999 0.0269996 6.83797e-06
0.0200003 0.0269991 7.34723e-06
0.0209998 0.0269993 6.41369e-06
0.0220004 0.0269992 8.12005e-06
0.0229999 0.0269995 7.29236e-06
0.0240004 0.0269993 7.66227e-06
0.0249997 0.0269996 4.12558e-06
0.0260003 0.0259995 4.6907e-06
0.0260004 0.0269994 2.81852e-06
0.027 -0.05 0
0.027 -0.049 0
0.0269999 -0.048 -1.58651e-06
0.0270001 -0.0469995 -4.09971e-06
0.027 -0.046 -1.09196e-05
0.0270002 -0.0449995 -2.29959e-05
0.0270003 -0.0439997 -3.60742e-05
0.0270002 -0.0429991 -5.04269e-05
0.0270005 -0.0419994 -6.43935e-05
0.0270007 -0.0409991 -8.40398e-05
0.0270005 -0.0399997 -0.000101651
0.0270006 -0.0389995 -0.000124262
0.0270007 -0.0379996 -0.000144435
0.0270007 -0.0369998 -0.000168428
0.0270008 -0.036 -0.000193532
0.0270013 -0.0350001 -0.000218159
0.027001 -0.0340007 -0.000240753
0.0270015 -0.0330003 -0.000265074
0.0270013 -0.0320011 -0.000288349
0.0270019 -0.0310006 -0.000309749
0.0270019 -0.0300008 -0.000327515
0.0270021 -0.0290009 -0.000343827
0.0270021 -0.0280008 -0.000362344
0.0270025 -0.0270009 -0.000377037
0.0270021 -0.0260002 -0.000385053
0.0270018 -0.025 -0.000379331
0.0270021 -0.0240004 -0.000370392
0.0270018 -0.0229997 -0.00035538
0.0270019 -0.0220005 -0.000339745
0.0270018 -0.0209998 -0.000315506
0.0270017 -0.0200003 -0.000293298
0.027002 -0.0190002 -0.000265673
0.0270013 -0.0180002 -0.000242466
0.0270016 -0.0170006 -0.000212946
0.0270013 -0.016001 -0.000182693
0.0270012 -0.0150014 -0.000149225
0.0270011 -0.0140018 -0.000118553
0.0270012 -0.0130019 -8.86423e-05
0.0270008 -0.0120023 -5.69889e-05
0.0270004 -0.0110025 -2.59223e-05
0.0270003 -0.0100024 2.0825e-06
0.0270002 -0.00900311 2.45709e-05
0.027 -0.00800271 4.48883e-05
0.0270003 -0.00700279 5.951e-05
0.027 -0.00600265 7.02301e-05
0.0270005 -0.00500286 7.7237e-05
0.0270006 -0.00400244 7.95972e-05
0.0270005 -0.00300253 7.93837e-05
0.0270005 -0.00200262 7.53284e-05
0.0270008 -0.00100195 7.14219e-05
0.0270001 -2.5392e-06 6.77269e-05
0.0270005 0.000997759 6.41287e-05
0.0270004 0.00199773 5.82527e-05
0.0270004 0.00299781 5.28307e-05
0.0270003 0.0039977 4.54751e-05
0.0270003 0.00499809 4.1353e-05
0.0270001 0.00599785 3.70261e-05
0.0270003 0.00699844 3.382e-05
0.0269998 0.00799791 2.88263e-05
0.0270004 0.00899835 2.33816e-05
0.0270002 0.00999818 1.96179e-05
0.0270004 0.0109983 1.40696e-05
0.0270003 0.0119986 1.58055e-05
0.0270002 0.0129983 1.23099e-05
0.0270002 0.0139985 1.31691e-05
0.027 0.0149984 1.15027e-05
0.0270002 0.0159986 1.07613e-05
0.027 0.0169987 8.47793e-06
0.0270004 0.0179989 8.07994e-06
0.0270001 0.0189988 6.9295e-06
0.0270004 0.0199987 6.64448e-06
0.027 0.0209991 7.72863e-06
0.0270003 0.0219995 1.04339e-05
0.0270001 0.0229992 1.12292e-05
0.0270002 0.0239995 1.21566e-05
0.027 0.0249992 8.82657e-06
0.0270006 0.0259997 4.86024e-06
-0.049 0.028 0
-0.05 0.028 0
-0.048 0.028 2.5566e-09
-0.0469996 0.028 1.09007e-06
-0.0459995 0.0279999 1.07772e-07
-0.0449997 0.028 1.80557e-06
-0.0439998 0.0279998 3.61097e-07
-0.0429998 0.0279997 2.4014e-06
-0.0420001 0.0279998 1.31984e-07
-0.0409997 0.0279999 2.17872e-06
-0.0399999 0.0279999 4.81457e-08
-0.0389996 0.0280002 1.77477e-06
-0.0380004 0.0280001 1.34025e-07
-0.0369999 0.0280001 -5.31254e-07
-0.0360006 0.0280004 -1.55444e-06
-0.0349999 0.0280001 -3.29372e-06
-0.0340005 0.0280002 -2.7246e-06
-0.0330001 0.0280001 -4.66747e-06
-0.0319999 0.028 -2.70602e-06
-0.0309999 0.0279999 -4.68184e-06
-0.0299999 0.0279999 -2.88794e-06
-0.029 0.0279999 -6.39317e-06
-0.028 0.0279999 -4.76411e-06
-0.027 0.028 -7.79774e-06
-0.0259997 0.0279997 -4.96753e-06
-0.025 0.0280002 -6.27405e-06
-0.0239996 0.0279995 -4.36108e-06
-0.0229999 0.028 -5.97312e-06
-0.0219999 0.0279996 -6.53593e-06
-0.0209998 0.028 -7.34538e-06
-0.0199997 0.0279998 -7.02662e-06
-0.0189998 0.0279999 -4.34368e-06
-0.0179998 0.0279996 -3.52591e-06
-0.0169996 0.0279995 -1.781e-06
-0.0159999 0.0279994 -1.76948e-06
-0.0149995 0.0279997 -1.87966e-06
-0.0139997 0.0279996 4.01139e-07
-0.0129995 0.0279997 6.76736e-07
-0.0119994 0.0279994 4.4813e-06
-0.0109997 0.0279997 3.52903e-06
-0.00999957 0.0279995 7.09534e-06
-0.00899943 0.0279997 4.81093e-06
-0.00799965 0.0279995 7.80058e-06
-0.00699931 0.0279995 5.44814e-06
-0.00599966 0.0279995 8.17798e-06
-0.00499976 0.0279996 6.26053e-06
-0.00399964 0.0279997 8.41636e-06
-0.00299966 0.0279997 6.89174e-06
-0.00199936 0.0279997 8.25998e-06
-0.000999561 0.0279997 7.80584e-06
5.3607e-07 0.0279997 9.89545e-06
0.00100027 0.0279995 1.06338e-05
0.00200029 0.0279993 1.28551e-05
0.0030002 0.0279995 1.23121e-05
0.00400021 0.0279996 1.36058e-05
0.00500039 0.0279994 1.27427e-05
0.00600037 0.0279997 1.46355e-05
0.00700044 0.0279993 1.3676e-05
0.00800017 0.0279998 1.53175e-05
0.00900044 0.0279992 1.44175e-05
0.0100003 0.0279997 1.54043e-05
0.0110006 0.0279993 1.45138e-05
0.0120002 0.0279994 1.38694e-05
0.0130005 0.0279992 1.27685e-05
0.014 0.0279994 1.12792e-05
0.0150003 0.0279992 1.09174e-05
0.016 0.0279993 9.97918e-06
0.0170002 0.0279991 9.70984e-06
0.0179998 0.0279997 8.65946e-06
0.0190002 0.0279992 7.80166e-06
0.0199998 0.0279996 6.37843e-06
0.0210002 0.0279993 6.69636e-06
0.022 0.0279996 5.51271e-06
0.023 0.0279993 6.3807e-06
0.0240002 0.0279997 3.82208e-06
0.0250002 0.0279997 4.03901e-06
0.026 0.0279999 5.59646e-07
0.0269999 0.0269996 -1.40759e-07
0.0270001 0.0279994 2.30039e-07
0.028 -0.05 0
0.028 -0.049 0
0.028 -0.0479997 -1.33705e-06
0.028 -0.0469997 -5.32418e-06
0.0280003 -0.0459993 -1.17201e-05
0.028 -0.0449999 -2.16728e-05
0.0280002 -0.0439992 -3.49502e-05
0.0280002 -0.0429993 -4.85235e-05
0.0280001 -0.0419993 -6.53694e-05
0.0280003 -0.0409994 -8.1526e-05
0.0280003 -0.0399994 -0.000102169
0.0280005 -0.0389997 -0.000122031
0.0280005 -0.037999 -0.000145343
0.0280006 -0.0370001 -0.000168076
0.0280009 -0.0360001 -0.000193989
0.0280009 -0.0350004 -0.000217205
0.0280009 -0.0339998 -0.000241289
0.0280011 -0.0330004 -0.000262526
0.0280014 -0.0320009 -0.000285249
0.0280017 -0.0310009 -0.00030477
0.0280017 -0.0300012 -0.000322337
0.0280019 -0.0290009 -0.000340663
0.0280026 -0.0280012 -0.00035691
0.0280022 -0.0270006 -0.000375525
0.028002 -0.0260007 -0.000387487
0.0280021 -0.0249998 -0.000386381
0.0280019 -0.0239998 -0.000373672
0.0280021 -0.0229997 -0.000359329
0.028002 -0.0219998 -0.000338462
0.0280021 -0.0209998 -0.000317372
0.0280019 -0.0200001 -0.000289419
0.0280019 -0.0190001 -0.000264952
0.0280018 -0.0180004 -0.000234461
0.0280015 -0.0170006 -0.00020506
0.0280015 -0.016001 -0.000170851
0.0280012 -0.0150014 -0.000136982
0.0280009 -0.0140018 -0.000105593
0.0280008 -0.013002 -7.41823e-05
0.0280006 -0.0120021 -4.31884e-05
0.0280004 -0.0110027 -1.03322e-05
0.0280002 -0.0100027 1.58609e-05
0.028 -0.00900303 4.02154e-05
0.028 -0.008003 5.82848e-05
0.0279996 -0.00700288 7.37361e-05
0.0280002 -0.00600277 8.33684e-05
0.0280003 -0.00500253 9.01176e-05
0.0280007 -0.00400283 9.04961e-05
0.0280001 -0.00300274 8.91041e-05
0.0280004 -0.00200245 8.36191e-05
0.0280004 -0.00100237 7.67001e-05
0.0280007 -2.34854e-06 7.10291e-05
0.0280002 0.000997654 6.506e-05
0.0280005 0.00199756 5.99446e-05
0.0280002 0.00299792 5.1888e-05
0.0280005 0.00399791 4.3997e-05
0.0279999 0.00499819 3.9102e-05
0.0280005 0.00599793 3.52864e-05
0.0280002 0.00699818 3.266e-05
0.0280004 0.00799812 2.71132e-05
0.028 0.00899824 2.26673e-05
0.0280001 0.0099985 1.50603e-05
0.0280002 0.0109984 1.53158e-05
0.0280004 0.0119983 1.13479e-05
0.0280004 0.0129986 1.43414e-05
0.0280003 0.0139982 1.22365e-05
0.0280002 0.0149986 1.27368e-05
0.0280001 0.0159986 1.17567e-05
0.0280004 0.0169984 1.05053e-05
0.0280001 0.0179987 8.18818e-06
0.0280005 0.0189987 7.78189e-06
0.028 0.0199991 5.9473e-06
0.0280007 0.020999 7.96165e-06
0.0280001 0.0219993 9.69135e-06
0.0280002 0.0229993 1.14256e-05
0.0279999 0.0239994 1.1119e-05
0.0280004 0.0249993 9.06519e-06
0.0280002 0.0259993 4.12456e-06
0.0280002 0.0269993 5.87536e-07
-0.049 0.029 0
-0.05 0.029 0
-0.0479999 0.0289998 4.93022e-07
-0.0469997 0.029 3.25414e-07
-0.0459998 0.0290001 2.11471e-06
-0.0449994 0.0290002 9.12599e-07
-0.0439999 0.0290001 3.12835e-06
-0.0429996 0.0290002 1.30241e-06
-0.042 0.029 3.43315e-06
-0.0409998 0.0290001 1.59908e-06
-0.0399999 0.0289999 3.89852e-06
-0.0390002 0.029 2.56024e-06
-0.038 0.0289997 2.62752e-06
-0.0370001 0.0289999 5.36706e-07
-0.0360004 0.0289998 -1.79794e-06
-0.0350002 0.029 -2.74387e-06
-0.0340003 0.0289999 -5.23071e-06
-0.033 0.0289998 -3.24572e-06
-0.0320003 0.0289999 -5.33103e-06
-0.0309999 0.0289997 -2.03434e-06
-0.0299999 0.029 -3.93224e-06
-0.0289999 0.0289998 -1.44665e-06
-0.0279998 0.0290002 -4.53333e-06
-0.0269998 0.0289998 -3.1016e-06
-0.0259999 0.029 -5.61443e-06
-0.0249999 0.0289996 -4.00023e-06
-0.0239998 0.029 -4.7509e-06
-0.0230002 0.0289997 -4.00078e-06
-0.0219997 0.0289999 -3.47373e-06
-0.0210002 0.0289996 -3.41244e-06
-0.0199995 0.0289998 -1.72738e-06
-0.0189999 0.0289994 -2.62064e-06
-0.0179994 0.0289996 -1.16444e-06
-0.0169998 0.0289996 -2.27237e-06
-0.0159993 0.0289997 -1.7241e-06
-0.0149999 0.0289994 -8.20322e-07
-0.0139995 0.0289999 -5.46982e-07
-0.0129997 0.0289994 2.92229e-06
-0.0119995 0.0289999 2.58039e-06
-0.0109997 0.0289994 7.35821e-06
-0.00999983 0.0289998 5.96083e-06
-0.00899991 0.0289992 9.94124e-06
-0.00799966 0.0289996 6.80751e-06
-0.00699975 0.0289996 9.18814e-06
-0.00599956 0.0289996 5.58548e-06
-0.00499981 0.0289997 8.11e-06
-0.00399992 0.0289997 5.96672e-06
-0.00299947 0.0289996 7.82163e-06
-0.00199982 0.0289996 6.59556e-06
-0.000999702 0.0289996 8.4582e-06
5.31791e-07 0.0289997 9.05061e-06
0.00100021 0.0289996 1.17548e-05
0.0020001 0.0289996 1.25632e-05
0.00300015 0.0289996 1.42986e-05
0.0040002 0.0289993 1.31599e-05
0.00500025 0.0289997 1.35135e-05
0.00600041 0.0289991 1.15726e-05
0.00700029 0.0289997 1.28941e-05
0.00800019 0.0289993 1.28677e-05
0.00900044 0.0289997 1.40343e-05
0.0100004 0.0289993 1.38823e-05
0.0110003 0.0289995 1.34334e-05
0.0120002 0.0289992 1.21596e-05
0.013 0.0289993 1.05679e-05
0.0140003 0.0289992 1.01635e-05
0.0150002 0.0289995 9.65102e-06
0.0160001 0.0289994 1.03788e-05
0.0169999 0.0289994 9.75333e-06
0.0179999 0.0289993 9.20353e-06
0.0189999 0.0289998 7.47622e-06
0.0200001 0.0289993 7.18192e-06
0.0209998 0.0289995 4.79909e-06
0.0220003 0.0289993 4.86271e-06
0.0229999 0.0289996 2.50268e-06
0.0240004 0.0289994 3.72503e-06
0.025 0.0289999 8.75466e-07
0.0260003 0.0289994 1.89847e-06
0.0269999 0.0289999 -1.76033e-06
0.028 0.0279998 -2.60984e-06
0.0280005 0.0289995 -3.82754e-07
0.029 -0.05 0
0.029 -0.049 0
0.029 -0.0479998 -2.37747e-06
0.0290003 -0.0469997 -5.66772e-06
0.0289999 -0.0459994 -1.11052e-05
0.0290002 -0.0449992 -2.05866e-05
0.029 -0.0439996 -3.29778e-05
0.0290001 -0.0429993 -4.78827e-05
0.0290006 -0.0419992 -6.24197e-05
0.0290004 -0.0409995 -8.1177e-05
0.0290007 -0.0399995 -9.89193e-05
0.0290007 -0.0389996 -0.000123131
0.0290006 -0.0379994 -0.000143046
0.0290011 -0.0369998 -0.000167039
0.029001 -0.0359997 -0.000191194
0.0290012 -0.0350001 -0.000216716
0.029001 -0.0340005 -0.000237892
0.0290018 -0.0330003 -0.00026103
0.0290017 -0.0320008 -0.000280837
0.029002 -0.0310007 -0.000301889
0.0290018 -0.0300008 -0.000320395
0.0290021 -0.0290008 -0.000337169
0.0290022 -0.0280009 -0.000354351
0.0290026 -0.027001 -0.000370677
0.0290024 -0.0260006 -0.00038672
0.0290018 -0.0249998 -0.000391114
0.0290018 -0.0239996 -0.000379937
0.0290018 -0.0229988 -0.000359048
0.029002 -0.0219996 -0.000340204
0.0290018 -0.0209992 -0.000314792
0.0290016 -0.0199999 -0.000291389
0.0290018 -0.0189997 -0.000260284
0.0290016 -0.0179999 -0.000232143
0.0290012 -0.0170007 -0.000197038
0.029001 -0.016001 -0.000161638
0.0290011 -0.0150013 -0.000125066
0.0290008 -0.0140019 -9.25663e-05
0.0290008 -0.0130023 -6.11194e-05
0.0290003 -0.012002 -2.81942e-05
0.0290005 -0.0110028 2.67129e-06
0.029 -0.0100026 3.07348e-05
0.0290003 -0.00900327 5.25853e-05
0.0289999 -0.00800282 7.23451e-05
0.029 -0.00700338 8.54726e-05
0.0289999 -0.00600283 9.47838e-05
0.0290006 -0.00500285 9.89385e-05
0.0290002 -0.0040024 0.000100325
0.0290004 -0.00300244 9.68179e-05
0.0290003 -0.00200262 9.0309e-05
0.0290007 -0.00100208 8.06466e-05
0.0290004 -2.79985e-06 7.36974e-05
0.0290004 0.000997941 6.73481e-05
0.0290002 0.00199789 6.04561e-05
0.0290004 0.00299824 5.24918e-05
0.029 0.00399794 4.35545e-05
0.0290003 0.00499824 3.77465e-05
0.0289999 0.00599793 3.44414e-05
0.0290004 0.00699832 3.00984e-05
0.0289999 0.0079982 2.58931e-05
0.0290001 0.00899815 1.85058e-05
0.0289999 0.00999814 1.54236e-05
0.0290002 0.0109983 1.03764e-05
0.029 0.0119985 1.39979e-05
0.0290003 0.0129985 1.01307e-05
0.0290002 0.0139987 1.28508e-05
0.0290001 0.0149984 1.34085e-05
0.0290005 0.0159986 1.39691e-05
0.0290001 0.0169985 1.03635e-05
0.0290004 0.0179987 8.70725e-06
0.0289999 0.0189988 7.34811e-06
0.0290003 0.019999 6.50234e-06
0.0289998 0.0209992 7.78859e-06
0.0290002 0.0219995 9.5035e-06
0.0289999 0.022999 1.04789e-05
0.0290002 0.0239992 9.98717e-06
0.029 0.0249992 8.01915e-06
0.0290003 0.0259996 5.07835e-06
0.0290001 0.0269995 2.20096e-07
0.0289999 0.0279992 -1.34481e-06
-0.049 0.03 0
-0.05 0.03 0
-0.0479999 0.0299998 1.75452e-07
-0.0469999 0.03 1.67176e-06
-0.046 0.0300001 9.55079e-07
-0.0449999 0.0300002 3.04592e-06
-0.0440001 0.0300001 1.61614e-06
-0.0429999 0.03 4.22065e-06
-0.0420001 0.03 1.78688e-06
-0.0409999 0.0300001 4.20652e-06
-0.0400004 0.0300001 2.04387e-06
-0.0389996 0.0300001 4.53689e-06
-0.0380005 0.0300004 3.19274e-06
-0.0369997 0.0300002 2.41544e-06
-0.0360004 0.0300003 1.35457e-07
-0.0349998 0.0300002 -3.2204e-06
-0.0340003 0.03 -3.60014e-06
-0.0330001 0.03 -6.13359e-06
-0.0320002 0.0299999 -3.12609e-06
-0.031 0.03 -4.25532e-06
-0.0300001 0.0299999 -1.72552e-07
-0.0289997 0.0299999 -2.17647e-06
-0.0279999 0.0299997 7.77702e-07
-0.0269998 0.03 -2.78133e-06
-0.0259996 0.03 -1.51404e-06
-0.0250001 0.03 -4.39638e-06
-0.0239997 0.0299998 -3.36775e-06
-0.0229999 0.0299998 -2.85839e-06
-0.0219996 0.0299997 -1.27997e-06
-0.0209999 0.0299999 9.6166e-07
-0.0199996 0.0299997 4.37831e-07
-0.0189999 0.0299999 1.19532e-06
-0.0179999 0.0299995 -1.75118e-06
-0.0169998 0.0299997 -1.66743e-06
-0.0159996 0.0299995 -2.08317e-06
-0.0149997 0.0299999 -1.16705e-06
-0.0139998 0.0299994 1.44104e-06
-0.0129998 0.0299999 1.4709e-06
-0.0119997 0.0299994 5.32448e-06
-0.0109999 0.0299996 4.72411e-06
-0.00999965 0.0299992 9.46868e-06
-0.00899982 0.0299998 7.31778e-06
-0.00799964 0.0299996 1.01237e-05
-0.00699985 0.0299999 6.13105e-06
-0.00599963 0.0299996 8.57905e-06
-0.00499971 0.0299997 6.12274e-06
-0.00399958 0.0299995 9.2223e-06
-0.00299989 0.0299997 7.43068e-06
-0.0019996 0.0299998 9.07204e-06
-0.000999642 0.0299998 8.04016e-06
4.34661e-07 0.0299999 1.02356e-05
0.00100038 0.0299998 1.11389e-05
0.00200028 0.0299997 1.36783e-05
0.0030001 0.0299994 1.33632e-05
0.00400024 0.0299998 1.4043e-05
0.00500009 0.0299995 1.20641e-05
0.00600004 0.0299997 1.29779e-05
0.00700006 0.0299993 1.17966e-05
0.00800023 0.0299996 1.41707e-05
0.00900029 0.0299995 1.39763e-05
0.0100002 0.0299996 1.53179e-05
0.0110002 0.0299996 1.35783e-05
0.0119999 0.0299996 1.24263e-05
0.0130003 0.0299994 1.09033e-05
0.0140002 0.0299995 1.07045e-05
0.0149999 0.0299995 1.1148e-05
0.016 0.0299995 1.15567e-05
0.0170001 0.0299994 1.07103e-05
0.0179998 0.0299995 9.8244e-06
0.0190003 0.0299996 7.95325e-06
0.0199999 0.0299997 6.55169e-06
0.0210003 0.0299995 5.79798e-06
0.022 0.03 3.99929e-06
0.0230002 0.0299996 3.79106e-06
0.0239999 0.03 1.20362e-06
0.0250003 0.0299996 2.07011e-06
0.0260001 0.03 -6.91868e-07
0.0270004 0.0299998 7.30443e-08
0.0280004 0.0299998 -2.58816e-06
0.0289998 0.0289997 -2.93152e-06
0.0290002 0.0299996 -3.20753e-07
0.03 -0.05 0
0.03 -0.049 0
0.0300001 -0.0479997 -1.43931e-06
0.0299999 -0.0469996 -6.06254e-06
0.0300002 -0.0459993 -1.15148e-05
0.0300001 -0.0449996 -2.01782e-05
0.0300002 -0.0439991 -3.23977e-05
0.0300004 -0.0429992 -4.71908e-05
0.0300002 -0.0419994 -6.49009e-05
0.0300003 -0.0409994 -8.19644e-05
0.0300003 -0.0399994 -0.000102558
0.0300004 -0.0389997 -0.000122178
0.0300005 -0.0379996 -0.000144134
0.0300006 -0.0370002 -0.000166489
0.0300009 -0.0359998 -0.000191991
0.030001 -0.0350005 -0.000214666
0.0300013 -0.0340001 -0.000238297
0.0300014 -0.0330007 -0.000258051
0.0300019 -0.0320008 -0.000279193
0.0300017 -0.0310005 -0.000299428
0.0300019 -0.0300012 -0.000317988
0.0300022 -0.0290006 -0.000335444
0.0300024 -0.0280008 -0.00035039
0.0300024 -0.0270005 -0.000366474
0.0300027 -0.0260008 -0.000380215
0.0300035 -0.0249996 -0.000388609
0.0300025 -0.023999 -0.000380661
0.030002 -0.0229991 -0.000362485
0.0300022 -0.021999 -0.000338648
0.0300022 -0.0209991 -0.000315963
0.0300024 -0.0199996 -0.000286846
0.0300019 -0.0189996 -0.000259306
0.0300019 -0.0179997 -0.00022604
0.0300015 -0.0170003 -0.000192738
0.0300011 -0.0160011 -0.000153855
0.0300007 -0.0150018 -0.000115768
0.0300007 -0.0140017 -8.15567e-05
0.0300005 -0.0130022 -4.79788e-05
0.0300003 -0.0120022 -1.58501e-05
0.03 -0.0110029 1.65942e-05
0.03 -0.010003 4.38461e-05
0.0299998 -0.00900314 6.78395e-05
0.0299999 -0.00800317 8.57721e-05
0.0299998 -0.00700318 9.83805e-05
0.0300002 -0.0060033 0.00010546
0.0299999 -0.00500258 0.000108937
0.0300007 -0.00400243 0.000108099
0.0300001 -0.00300249 0.000105807
0.0300005 -0.00200243 9.71301e-05
0.0300002 -0.00100241 8.57645e-05
0.0300007 -2.16585e-06 7.64415e-05
0.0300004 0.000997848 6.84523e-05
0.0300006 0.00199767 6.15304e-05
0.0300003 0.00299838 5.22593e-05
0.0300003 0.003998 4.27931e-05
0.0299999 0.00499822 3.70553e-05
0.0300003 0.00599801 3.22002e-05
0.0299998 0.00699814 2.89052e-05
0.0300001 0.00799815 2.31388e-05
0.0299998 0.00899845 1.88938e-05
0.0300002 0.00999825 1.07891e-05
0.0300001 0.0109984 1.23337e-05
0.0300001 0.0119984 8.86604e-06
0.0300001 0.0129986 1.22442e-05
0.0300002 0.0139984 1.08402e-05
0.0300001 0.0149985 1.41276e-05
0.0299999 0.0159986 1.45731e-05
0.0300002 0.0169987 1.15028e-05
0.0299999 0.0179987 7.64899e-06
0.0300002 0.0189988 6.9442e-06
0.03 0.019999 5.81528e-06
0.0300003 0.0209992 6.81104e-06
0.03 0.0219991 8.36788e-06
0.0300002 0.0229994 9.50581e-06
0.0299997 0.0239993 8.38315e-06
0.0300001 0.0249994 6.71383e-06
0.03 0.0259994 4.42502e-06
0.0300003 0.0269993 2.17536e-06
0.0300001 0.0279997 -2.29526e-06
0.0300004 0.0289994 -9.54926e-08
-0.049 0.031 0
-0.05 0.031 0
-0.0480001 0.031 4.86746e-07
-0.0469998 0.0310001 -1.24932e-08
-0.0460001 0.031 1.69243e-06
-0.0449996 0.031 -3.26232e-08
-0.0440001 0.0310001 2.73829e-06
-0.0429999 0.0310001 9.1832e-07
-0.0420001 0.031 3.81203e-06
-0.0409999 0.0309998 1.63814e-06
-0.0399998 0.0309999 4.69167e-06
-0.0390002 0.0309997 3.33755e-06
-0.0379999 0.0309999 4.57549e-06
-0.0370002 0.0309998 2.69603e-06
-0.036 0.0309998 4.90503e-07
-0.0350001 0.0309999 -9.48777e-07
-0.034 0.031 -3.90011e-06
-0.033 0.0309997 -2.50542e-06
-0.0320004 0.031 -5.30237e-06
-0.031 0.0309999 -1.731e-06
-0.03 0.0310001 -3.06288e-06
-0.0290003 0.031 1.41378e-06
-0.028 0.0310001 -7.665e-07
-0.0270001 0.0310001 9.24486e-07
-0.0259997 0.0310001 -2.52149e-06
-0.025 0.0309998 -2.19626e-06
-0.0239997 0.0309998 -3.22921e-06
-0.0230002 0.0309997 -1.98116e-06
-0.0219997 0.0309999 4.90392e-07
-0.021 0.0309998 1.63663e-06
-0.0199994 0.0309998 3.88355e-06
-0.019 0.0309995 7.99164e-07
-0.0179993 0.0309998 5.31682e-07
-0.0170002 0.0309994 -2.87693e-06
-0.0159996 0.0309997 -1.74319e-06
-0.0149999 0.0309996 -4.9597e-07
-0.0139997 0.0309999 1.3447e-06
-0.0129996 0.0309994 4.34752e-06
-0.0119998 0.0309999 3.90033e-06
-0.011 0.0309995 7.36738e-06
-0.00999966 0.0309998 5.4904e-06
-0.00899994 0.0309996 9.13251e-06
-0.00799957 0.0309997 5.83327e-06
-0.00699954 0.0309995 8.95047e-06
-0.00599965 0.0310001 4.97063e-06
-0.00499961 0.0309997 8.60454e-06
-0.00399971 0.0310001 5.90347e-06
-0.00299946 0.0309997 8.8939e-06
-0.00199996 0.0309997 6.84704e-06
-0.00099953 0.0309998 9.09962e-06
4.08091e-07 0.0309996 8.88864e-06
0.00100013 0.0309995 1.20138e-05
0.00200025 0.0309996 1.30696e-05
0.00300027 0.0309995 1.55017e-05
0.0040001 0.0309995 1.46566e-05
0.00500013 0.0309996 1.52239e-05
0.00600002 0.0309994 1.35422e-05
0.00700026 0.0309994 1.53779e-05
0.00799989 0.0309994 1.56062e-05
0.00900046 0.0309997 1.71576e-05
0.0100001 0.0309995 1.63092e-05
0.0110002 0.0309997 1.56061e-05
0.0120003 0.0309996 1.3618e-05
0.013 0.0309994 1.25657e-05
0.0140001 0.0309993 1.22248e-05
0.0149998 0.0309994 1.23258e-05
0.016 0.0309994 1.26478e-05
0.0169996 0.0309993 1.22746e-05
0.0180004 0.0309992 1.14565e-05
0.0189998 0.0309993 9.96591e-06
0.0200004 0.0309991 9.2627e-06
0.0209999 0.0309994 6.51059e-06
0.0220002 0.0309993 6.23884e-06
0.0229999 0.0309997 3.32516e-06
0.0240004 0.0309992 4.56002e-06
0.0249999 0.0309996 1.08113e-06
0.0260005 0.0309995 2.4154e-06
0.0270002 0.0309996 -1.77694e-06
0.0280006 0.0309997 6.66126e-07
0.0290002 0.0309999 -2.04491e-06
0.0300003 0.0299996 -1.45564e-06
0.0300006 0.0309997 1.94619e-06
0.031 -0.05 0
0.031 -0.049 0
0.0310001 -0.0479997 -1.7821e-06
0.0310001 -0.047 -5.75682e-06
0.0309999 -0.0459996 -1.25125e-05
0.0309999 -0.0449993 -2.19254e-05
0.0310001 -0.0439995 -3.52468e-05
0.0310004 -0.0429997 -5.03494e-05
0.0310005 -0.0419993 -6.68382e-05
0.0310007 -0.0409997 -8.6425e-05
0.0310007 -0.0399995 -0.000104452
0.031001 -0.0389998 -0.000126191
0.031001 -0.0379994 -0.000145346
0.0310011 -0.0370003 -0.00016887
0.0310012 -0.036 -0.000192698
0.0310017 -0.0350006 -0.0002167
0.0310019 -0.0340005 -0.000236749
0.0310022 -0.0330007 -0.000257946
0.0310019 -0.0320006 -0.000276771
0.0310023 -0.0310006 -0.000297499
0.0310023 -0.0300007 -0.000317115
0.0310023 -0.0290006 -0.000332383
0.0310026 -0.0280007 -0.000346407
0.0310027 -0.0270006 -0.000359212
0.0310029 -0.0260005 -0.000369983
0.0310032 -0.0249999 -0.000377513
0.0310032 -0.0239993 -0.000379027
0.0310023 -0.0229985 -0.000364357
0.0310024 -0.0219986 -0.00034218
0.031002 -0.0209988 -0.000314435
0.0310019 -0.0199994 -0.00028751
0.031002 -0.0189992 -0.000254104
0.0310019 -0.0179993 -0.000223464
0.0310019 -0.0170001 -0.000186981
0.031001 -0.0160006 -0.000147891
0.0310009 -0.0150015 -0.000107816
0.0310008 -0.0140018 -7.09087e-05
0.0310008 -0.0130022 -3.68055e-05
0.0310007 -0.0120023 -2.70282e-06
0.0310005 -0.0110029 2.79323e-05
0.0310001 -0.0100026 5.74789e-05
0.031 -0.00900343 8.11452e-05
0.0309997 -0.00800296 0.00010081
0.0310001 -0.00700346 0.000112647
0.0309997 -0.00600263 0.000117598
0.0310003 -0.005003 0.000117825
0.0310003 -0.00400238 0.000117397
0.0310004 -0.0030024 0.000112442
0.0309999 -0.0020024 0.000103941
0.0310005 -0.00100241 9.01635e-05
0.0310004 -2.55605e-06 7.98699e-05
0.0310005 0.000997857 7.01207e-05
0.0310001 0.00199757 6.10303e-05
0.0310006 0.00299803 5.08439e-05
0.0310002 0.00399777 4.1065e-05
0.0310003 0.00499827 3.41492e-05
0.0309999 0.00599796 3.01322e-05
0.0310004 0.00699838 2.38762e-05
0.0309998 0.00799835 2.17592e-05
0.0310003 0.00899853 1.49657e-05
0.0309999 0.00999841 1.3073e-05
0.031 0.0109986 7.24063e-06
0.0309997 0.0119984 1.21532e-05
0.0309998 0.0129984 7.19224e-06
0.0310002 0.0139986 1.0698e-05
0.031 0.0149985 1.2473e-05
0.031 0.0159985 1.50868e-05
0.0310001 0.0169987 1.02147e-05
0.0310002 0.0179989 7.7692e-06
0.0309998 0.0189991 6.84655e-06
0.031 0.0199989 6.57803e-06
0.0309999 0.0209991 7.11508e-06
0.0310002 0.0219995 7.72605e-06
0.0309998 0.0229993 9.25957e-06
0.0310003 0.0239996 7.3206e-06
0.031 0.0249991 5.70406e-06
0.0310003 0.0259996 4.97447e-06
0.0309999 0.0269995 2.42623e-06
0.0310001 0.0279995 1.9287e-07
0.0309998 0.0289997 -1.62453e-06
0.0310002 0.0299995 1.28002e-06
-0.049 0.032 0
-0.05 0.032 0
-0.0479998 0.0319997 -2.63463e-07
-0.047 0.0320001 4.1321e-07
-0.0460001 0.0320001 -1.15419e-06
-0.0450001 0.0320003 4.88376e-07
-0.0440004 0.0320001 -8.41426e-07
-0.043 0.0320003 2.58551e-06
-0.0420003 0.032 1.04039e-06
-0.0409998 0.0320002 3.91222e-06
-0.0400003 0.0320002 2.07289e-06
-0.0389995 0.0320004 4.56345e-06
-0.0380004 0.0320001 4.16363e-06
-0.0369998 0.0320003 4.41226e-06
-0.0360003 0.0320001 3.7784e-06
-0.0349997 0.0320002 1.15615e-06
-0.0340003 0.0319999 1.1856e-06
-0.0329999 0.032 -2.91341e-06
-0.0320003 0.0319998 -9.79281e-07
-0.031 0.032 -4.12186e-06
-0.0300001 0.0319999 -3.13761e-07
-0.0290001 0.0319998 -2.56345e-06
-0.028 0.0319999 1.0608e-06
-0.027 0.0319998 -1.82934e-06
-0.0259998 0.0319996 7.33528e-09
-0.0249999 0.0319998 -1.9481e-06
-0.0239999 0.0319997 -8.81937e-07
-0.023 0.0319998 3.25148e-07
-0.022 0.0319998 1.26996e-06
-0.0209997 0.0319999 4.16314e-06
-0.0199998 0.0319997 2.9455e-06
-0.0189998 0.0319997 4.20208e-06
-0.0179998 0.0319995 1.4836e-07
-0.0170001 0.0319998 1.92091e-07
-0.0159999 0.0319996 -1.43127e-06
-0.015 0.0320001 3.04025e-07
-0.0139995 0.0319995 2.62869e-06
-0.0130002 0.0319999 3.65673e-06
-0.0119993 0.0319994 6.28713e-06
-0.0110001 0.0319997 4.87679e-06
-0.00999944 0.0319995 7.43072e-06
-0.00899979 0.0319995 5.08309e-06
-0.00799966 0.0319995 7.86801e-06
-0.00699974 0.0319998 5.1743e-06
-0.00599951 0.0319998 8.231e-06
-0.00499964 0.0320002 5.73662e-06
-0.00399943 0.0319996 8.78837e-06
-0.00299977 0.0319999 6.60752e-06
-0.00199964 0.0319999 8.64429e-06
-0.000999893 0.0319997 7.09955e-06
2.25693e-07 0.0319999 9.64555e-06
0.00100002 0.0319998 1.02981e-05
0.00200037 0.0319999 1.35012e-05
0.00300006 0.0319996 1.34953e-05
0.00400009 0.0319998 1.50916e-05
0.00500007 0.0319996 1.37638e-05
0.00599995 0.0319995 1.56745e-05
0.00699987 0.0319993 1.46538e-05
0.00800016 0.0319993 1.66601e-05
0.00899996 0.0319995 1.56045e-05
0.01 0.0319996 1.61282e-05
0.0110002 0.0319996 1.43114e-05
0.012 0.0319997 1.34981e-05
0.0130003 0.0319996 1.25208e-05
0.0139998 0.0319996 1.1933e-05
0.015 0.0319997 1.16935e-05
0.0159998 0.0319997 1.11001e-05
0.0169999 0.0319994 1.09055e-05
0.0179996 0.0319996 1.06791e-05
0.019 0.0319994 1.05986e-05
0.02 0.0319996 9.14006e-06
0.0210001 0.0319997 9.16289e-06
0.0220001 0.0319998 6.51822e-06
0.023 0.0319998 6.93164e-06
0.0239999 0.0320001 3.52689e-06
0.025 0.0319996 5.41882e-06
0.0260002 0.0319999 1.51844e-06
0.0270001 0.0319996 3.28128e-06
0.0280003 0.0319998 -1.12635e-06
0.0290002 0.0319998 2.01767e-06
0.0300003 0.0319999 -1.47149e-06
0.031 0.0309999 -1.13704e-06
0.0310001 0.0319997 1.56505e-06
0.032 -0.05 0
0.032 -0.049 0
0.0320001 -0.048 -8.08936e-07
0.0320002 -0.0469997 -6.73815e-06
0.0319999 -0.0459994 -1.40825e-05
0.0320002 -0.045 -2.46466e-05
0.0320003 -0.0439997 -3.68077e-05
0.0320001 -0.0429996 -5.2529e-05
0.0320003 -0.0419997 -7.00892e-05
0.0320002 -0.0409997 -8.905e-05
0.0320005 -0.0399997 -0.000108241
0.0320005 -0.0389998 -0.000127028
0.0320006 -0.0379999 -0.00014816
0.0320008 -0.037 -0.000172366
0.0320007 -0.0360003 -0.000196395
0.0320009 -0.0350006 -0.000217868
0.0320014 -0.0340004 -0.00023941
0.0320015 -0.0330007 -0.000257132
0.0320018 -0.0320007 -0.000275549
0.0320018 -0.0310006 -0.000295074
0.032002 -0.0300009 -0.000313403
0.0320023 -0.0290004 -0.000328623
0.0320025 -0.028001 -0.000339487
0.0320027 -0.027 -0.000350143
0.032003 -0.0260007 -0.000357426
0.0320031 -0.0250003 -0.000362552
0.0320034 -0.024 -0.000366132
0.0320039 -0.0229988 -0.000361459
0.0320031 -0.0219985 -0.000340594
0.0320026 -0.0209986 -0.000313219
0.032002 -0.019999 -0.000281858
0.0320021 -0.0189992 -0.000250391
0.0320018 -0.0179995 -0.00021624
0.0320015 -0.0170002 -0.000180435
0.0320013 -0.0160004 -0.000140549
0.0320008 -0.0150013 -9.91022e-05
0.0320007 -0.0140017 -6.19363e-05
0.0320003 -0.0130023 -2.389e-05
0.0320004 -0.0120023 8.87633e-06
0.0319998 -0.0110026 4.11156e-05
0.032 -0.010003 6.83457e-05
0.0319996 -0.00900302 9.39237e-05
0.0319997 -0.00800302 0.000112764
0.0319999 -0.00700299 0.000124723
0.032 -0.00600317 0.000128652
0.0319998 -0.00500258 0.000128331
0.0320004 -0.00400258 0.000124512
0.0319999 -0.00300229 0.000120747
0.0320004 -0.00200198 0.000110026
0.0320003 -0.00100245 9.65494e-05
0.0320006 -2.13012e-06 8.28909e-05
0.0320001 0.000997843 7.1647e-05
0.0320002 0.0019978 6.08287e-05
0.032 0.00299784 4.9398e-05
0.0320002 0.00399808 3.75981e-05
0.0319998 0.00499816 3.23713e-05
0.0320002 0.00599813 2.54138e-05
0.0319997 0.00699822 2.24976e-05
0.0320001 0.00799829 1.77379e-05
0.0319997 0.00899867 1.72929e-05
0.0320001 0.00999839 8.28125e-06
0.032 0.0109985 1.01044e-05
0.0320003 0.0119983 4.76177e-06
0.0319999 0.0129987 8.95984e-06
0.032 0.0139984 5.86062e-06
0.0320002 0.0149987 1.10991e-05
0.032 0.0159987 1.20029e-05
0.0319999 0.0169991 1.03858e-05
0.0319997 0.0179988 6.61637e-06
0.032 0.018999 7.78291e-06
0.0319998 0.0199989 6.68887e-06
0.032 0.0209993 6.75804e-06
0.032 0.0219993 7.32683e-06
0.0320002 0.0229994 8.79788e-06
0.0319997 0.0239992 7.00722e-06
0.0320001 0.0249994 5.08979e-06
0.0319999 0.0259994 4.41397e-06
0.0320001 0.0269995 4.24769e-06
0.0319997 0.0279998 -2.87241e-07
0.032 0.0289995 1.32943e-06
0.0320002 0.0299998 -8.36606e-07
0.0320003 0.0309996 1.26917e-06
-0.049 0.033 0
-0.05 0.033 0
-0.048 0.033 1.41399e-07
-0.0469998 0.0329998 -9.99191e-07
-0.0460003 0.0330003 1.79496e-08
-0.0449998 0.0329999 -1.92082e-06
-0.0440003 0.033 8.71596e-07
-0.043 0.0329996 -2.8378e-07
-0.0420002 0.0329998 3.05132e-06
-0.0410002 0.0329998 1.58812e-06
-0.0400001 0.0329998 4.17887e-06
-0.039 0.0329997 3.22738e-06
-0.0379998 0.0329999 4.54932e-06
-0.0370001 0.0329997 5.03932e-06
-0.036 0.0329999 4.28897e-06
-0.0350001 0.0329996 4.88375e-06
-0.0339999 0.0330001 1.02889e-06
-0.0330001 0.0329997 1.94958e-06
-0.032 0.0329999 -3.11251e-06
-0.0310002 0.0330002 -3.9924e-07
-0.0300001 0.0330001 -4.08818e-06
-0.029 0.0330001 -1.546e-07
-0.0279999 0.0330001 -3.35475e-06
-0.0269999 0.033 -2.52639e-07
-0.0259998 0.033 -2.11805e-06
-0.0250002 0.033 6.23947e-07
-0.0239998 0.0330001 6.21765e-07
-0.0230002 0.0329998 1.91502e-06
-0.0219997 0.0329999 2.78228e-06
-0.0209998 0.0329997 2.51541e-06
-0.0199996 0.0329997 4.13169e-06
-0.0190001 0.0329997 1.71812e-06
-0.0179996 0.0329998 2.79808e-06
-0.0170003 0.0329994 -6.44523e-07
-0.0159997 0.033 2.50851e-07
-0.0149999 0.0329993 -3.13853e-07
-0.0139998 0.0329998 1.50899e-06
-0.0129999 0.0329995 3.62716e-06
-0.0119998 0.0329996 3.96111e-06
-0.0109999 0.0329997 5.88933e-06
-0.00999935 0.0329997 3.87787e-06
-0.00899974 0.0329998 6.21532e-06
-0.00799973 0.0329997 3.86875e-06
-0.00699987 0.0329998 7.31087e-06
-0.00599996 0.033 4.2386e-06
-0.00499958 0.0329998 7.48663e-06
-0.00399944 0.0330002 4.53208e-06
-0.00299955 0.0329999 7.57689e-06
-0.00199942 0.0330001 5.93841e-06
-0.000999428 0.0329998 8.96931e-06
-8.29748e-08 0.0329996 8.78758e-06
0.00100041 0.0329997 1.15736e-05
0.00199985 0.0329993 1.15299e-05
0.00300009 0.0329996 1.34911e-05
0.00399983 0.0329996 1.25655e-05
0.00500003 0.0329996 1.4202e-05
0.00600007 0.0329996 1.30105e-05
0.00700007 0.0329996 1.46624e-05
0.00800037 0.0329996 1.29425e-05
0.00900011 0.0329994 1.31365e-05
0.0100002 0.0329998 1.10189e-05
0.0110002 0.0329995 1.12337e-05
0.012 0.0329995 1.01089e-05
0.0130001 0.0329997 1.01499e-05
0.0140001 0.0329995 8.9547e-06
0.0149998 0.0329996 7.82575e-06
0.0160002 0.0329995 6.58711e-06
0.0169998 0.0329995 6.62156e-06
0.0180002 0.0329994 6.95269e-06
0.0189998 0.0329991 7.94738e-06
0.0200002 0.0329995 8.57739e-06
0.0209998 0.0329994 7.61661e-06
0.0220004 0.0329997 7.64894e-06
0.0229997 0.0329996 5.59316e-06
0.0240003 0.0329994 6.2189e-06
0.0250001 0.0329997 3.10036e-06
0.0260004 0.0329993 3.59529e-06
0.0269999 0.0329997 -1.10344e-07
0.0280004 0.0329995 1.54803e-06
0.0289999 0.0329998 -1.2472e-06
0.0300001 0.033 1.80937e-06
0.0309999 0.0329997 -1.51917e-06
0.0320002 0.0319996 -3.50672e-06
0.0320003 0.033 6.03046e-07
0.033 -0.05 0
0.033 -0.049 0
0.033 -0.0479999 -1.71064e-06
0.033 -0.047 -6.92258e-06
0.033 -0.046 -1.62097e-05
0.0330003 -0.0449999 -2.57703e-05
0.0330004 -0.0439993 -3.9886e-05
0.0330005 -0.043 -5.39285e-05
0.0330002 -0.0419997 -7.09766e-05
0.0330007 -0.041 -8.96423e-05
0.0330007 -0.0399995 -0.000107706
0.0330008 -0.0389998 -0.000127703
0.0330009 -0.0379998 -0.000148886
0.0330011 -0.0370004 -0.000172501
0.0330014 -0.0360002 -0.0001958
0.0330018 -0.0350003 -0.000217187
0.0330019 -0.0340006 -0.000236139
0.0330021 -0.0330008 -0.000254613
0.0330024 -0.0320004 -0.000271125
0.033002 -0.0310003 -0.00028899
0.0330025 -0.0300007 -0.000307503
0.0330024 -0.0290005 -0.000320544
0.0330029 -0.0280003 -0.000330489
0.0330028 -0.027 -0.000337543
0.0330029 -0.0260002 -0.000343282
0.0330031 -0.0249999 -0.000346602
0.0330032 -0.0240002 -0.000347921
0.0330037 -0.0229992 -0.000343507
0.0330033 -0.0219988 -0.000330386
0.0330026 -0.0209984 -0.000304578
0.0330024 -0.0199992 -0.000275408
0.0330018 -0.0189991 -0.000240885
0.0330018 -0.0179995 -0.000209352
0.0330016 -0.0169998 -0.000172294
0.0330011 -0.0160003 -0.00013198
0.0330011 -0.0150011 -9.04014e-05
0.0330003 -0.0140017 -5.05653e-05
0.0330008 -0.013002 -1.24802e-05
0.033 -0.0120023 2.35671e-05
0.0330003 -0.0110028 5.2824e-05
0.0329997 -0.0100025 7.95977e-05
0.0330002 -0.00900334 0.000102707
0.0329998 -0.00800271 0.000122272
0.0329999 -0.00700322 0.000134437
0.0330001 -0.00600256 0.000136362
0.0330002 -0.00500286 0.000135246
0.0330002 -0.00400237 0.000131103
0.0330004 -0.00300222 0.000124354
0.0330001 -0.00200206 0.000114129
0.0330008 -0.0010023 9.97649e-05
0.0330004 -2.02422e-06 8.56491e-05
0.0330004 0.000997986 7.34578e-05
0.0330003 0.00199784 6.06593e-05
0.0330002 0.00299819 4.83171e-05
0.0329999 0.00399785 3.64331e-05
0.0330001 0.00499854 2.93312e-05
0.0329998 0.00599795 2.38844e-05
0.0330002 0.00699844 1.75637e-05
0.0329998 0.00799842 1.76088e-05
0.0330002 0.00899856 1.27175e-05
0.0329998 0.00999834 1.1181e-05
0.0330001 0.0109987 3.43596e-06
0.0329996 0.0119984 7.40617e-06
0.0329999 0.0129987 1.65643e-06
0.0329998 0.0139984 5.23673e-06
0.033 0.0149988 6.42115e-06
0.033 0.0159987 1.02724e-05
0.0329996 0.0169986 7.28616e-06
0.033 0.0179992 8.01643e-06
0.0329997 0.0189989 8.47867e-06
0.033 0.019999 8.69542e-06
0.033 0.0209988 8.05184e-06
0.033 0.0219995 7.85368e-06
0.0330002 0.0229992 9.26155e-06
0.0330002 0.0239996 7.3265e-06
0.033 0.0249991 5.39752e-06
0.0330005 0.0259998 5.6351e-06
0.0330001 0.0269996 3.51726e-06
0.033 0.0279995 1.79105e-06
0.033 0.0289998 -1.73497e-06
0.0330002 0.0299995 2.1196e-07
0.033 0.0309999 -4.30105e-06
0.0329997 0.0319999 -1.31554e-06
-0.049 0.034 0
-0.05 0.034 0
-0.048 0.034 -4.02421e-07
-0.0470002 0.0340002 -3.31481e-08
-0.046 0.0339998 -1.50519e-06
-0.0450001 0.0340004 -1.29789e-07
-0.0440004 0.0340002 -1.384e-06
-0.0429999 0.0340004 1.42656e-06
-0.0420004 0.0340002 3.68971e-07
-0.0409998 0.0340004 2.46573e-06
-0.0400003 0.0340002 1.17512e-06
-0.0389999 0.0340003 2.41228e-06
-0.0380002 0.0340002 3.55429e-06
-0.0369999 0.0340003 4.33983e-06
-0.0360004 0.0340001 6.60956e-06
-0.0349996 0.0340004 3.82447e-06
-0.0340003 0.0340001 4.69584e-06
-0.0329997 0.0340001 -1.13479e-06
-0.032 0.0339998 1.64207e-06
-0.0310002 0.034 -3.27717e-06
-0.0300001 0.0339997 5.69008e-07
-0.029 0.0339999 -4.48834e-06
-0.028 0.0339997 -8.57369e-07
-0.027 0.0339996 -4.42911e-06
-0.0259999 0.0339999 1.99295e-07
-0.0249998 0.0339998 -4.52655e-07
-0.0239999 0.0339997 3.31077e-06
-0.0229999 0.034 3.56965e-06
-0.022 0.0339997 3.75297e-06
-0.0209998 0.0340002 3.34293e-06
-0.0199998 0.0339996 1.43165e-06
-0.0189999 0.0340002 2.79136e-06
-0.0179998 0.0339994 1.07067e-06
-0.017 0.0339999 2.3901e-06
-0.0159999 0.0339995 3.64355e-07
-0.0150001 0.0339998 5.73955e-07
-0.0139995 0.0339997 6.99854e-07
-0.0130001 0.0339997 1.12624e-06
-0.0119994 0.0339995 3.41545e-06
-0.0110002 0.0339994 2.27587e-06
-0.00999953 0.0339996 4.59937e-06
-0.00899993 0.0339993 1.97174e-06
-0.0079998 0.0339998 4.81224e-06
-0.00699979 0.0339998 2.05102e-06
-0.00599963 0.0339997 5.96175e-06
-0.00499982 0.0340001 3.24772e-06
-0.00399957 0.034 7.24318e-06
-0.00299966 0.0340001 5.31178e-06
-0.00199957 0.0340001 9.23306e-06
-0.000999663 0.0340001 8.45138e-06
2.20165e-07 0.0339998 1.1787e-05
0.00100002 0.0339996 1.05677e-05
0.00200005 0.0339997 1.15017e-05
0.00299995 0.0339998 9.13499e-06
0.00399996 0.0339998 1.0316e-05
0.00500018 0.0339996 9.72007e-06
0.00600011 0.0339996 1.24996e-05
0.00700008 0.0339993 1.11279e-05
0.00800043 0.0339992 1.13559e-05
0.00900005 0.0339994 8.94891e-06
0.0100002 0.0339993 8.69371e-06
0.0110004 0.0339999 7.98348e-06
0.0120001 0.0339995 8.1161e-06
0.0130002 0.0339999 7.94802e-06
0.014 0.0339995 6.47892e-06
0.0150003 0.0339996 5.08907e-06
0.0159998 0.0339996 2.90247e-06
0.0170002 0.0339996 2.26577e-06
0.0179997 0.0339994 2.03591e-06
0.0190001 0.0339997 3.31368e-06
0.0199999 0.0339995 3.28617e-06
0.0209999 0.0339998 5.26104e-06
0.0220001 0.0339996 4.27789e-06
0.023 0.0339999 5.32667e-06
0.024 0.0339996 2.17862e-06
0.0250002 0.0339998 3.19014e-06
0.0260003 0.0339995 -7.01029e-07
0.0269999 0.0339997 7.60929e-07
0.0280006 0.0339997 -2.96779e-06
0.0290002 0.0339999 -2.03108e-07
0.0300005 0.0339998 -3.27239e-06
0.0310001 0.0339997 -1.58559e-07
0.0320004 0.0339998 -4.05821e-06
0.0330001 0.0329998 -4.43221e-06
0.0329999 0.0339999 -8.62282e-07
0.034 -0.05 0
0.034 -0.049 0
0.0339999 -0.0480003 -1.31411e-06
0.0340002 -0.0469998 -8.75169e-06
0.034 -0.046 -1.63662e-05
0.034 -0.0449999 -2.68641e-05
0.0340002 -0.044 -3.74779e-05
0.034 -0.0429998 -5.31646e-05
0.0340002 -0.0419994 -6.86662e-05
0.0340001 -0.0409997 -8.76316e-05
0.0340002 -0.0399997 -0.000105029
0.0340005 -0.0390001 -0.000124921
0.0340009 -0.0379997 -0.000145712
0.0340009 -0.0370003 -0.000170103
0.0340009 -0.0360003 -0.000191391
0.0340014 -0.0350004 -0.000210782
0.0340016 -0.0340002 -0.000230652
0.0340018 -0.0330004 -0.000246709
0.0340018 -0.0320007 -0.000263186
0.0340021 -0.0310007 -0.000279948
0.0340021 -0.0300004 -0.000296818
0.0340025 -0.029 -0.00031039
0.0340024 -0.0280007 -0.000317477
0.0340026 -0.0269998 -0.000322875
0.0340029 -0.0260002 -0.00032672
0.034003 -0.0249998 -0.00032839
0.0340032 -0.0239997 -0.000327373
0.034003 -0.022999 -0.000322433
0.0340029 -0.0219987 -0.000308897
0.0340026 -0.0209985 -0.000290436
0.0340025 -0.0199988 -0.000262002
0.0340022 -0.0189987 -0.00023167
0.0340017 -0.017999 -0.00019734
0.0340013 -0.0169997 -0.00016296
0.0340011 -0.0160003 -0.000121922
0.0340005 -0.0150011 -8.034e-05
0.0340004 -0.0140016 -4.0717e-05
0.0340002 -0.0130023 -4.32674e-07
0.0340004 -0.0120028 3.5338e-05
0.0339995 -0.011003 6.55923e-05
0.0339998 -0.0100028 8.8885e-05
0.0339997 -0.00900295 0.000110126
0.034 -0.00800276 0.000128949
0.0339998 -0.00700289 0.000138783
0.034 -0.00600275 0.000142201
0.034 -0.00500212 0.000139508
0.0340002 -0.00400254 0.000134325
0.0339999 -0.00300218 0.000126624
0.0340004 -0.00200178 0.000115982
0.034 -0.00100209 0.000100577
0.0340004 -1.82057e-06 8.68492e-05
0.0340001 0.000997731 7.28144e-05
0.0340002 0.00199842 6.14263e-05
0.0340002 0.00299815 4.76112e-05
0.034 0.00399813 3.60117e-05
0.0339997 0.00499826 2.85716e-05
0.0339999 0.00599828 2.07421e-05
0.0339997 0.00699847 1.68487e-05
0.034 0.00799818 1.31914e-05
0.034 0.00899864 1.3221e-05
0.0340001 0.00999846 4.71371e-06
0.0339999 0.0109989 5.57229e-06
0.0340001 0.0119987 -9.1257e-07
0.0339999 0.0129988 3.91872e-06
0.0340002 0.0139984 7.96093e-07
0.0340001 0.0149988 5.31125e-06
0.034 0.0159986 5.88022e-06
0.0339998 0.0169989 7.35303e-06
0.0339996 0.0179988 7.41057e-06
0.034 0.018999 1.04225e-05
0.0339997 0.0199992 9.45158e-06
0.0339999 0.0209991 9.11044e-06
0.0339999 0.0219991 8.77035e-06
0.0339998 0.0229993 9.47529e-06
0.0339998 0.0239993 7.81195e-06
0.0339998 0.0249994 5.92174e-06
0.034 0.0259994 5.01414e-06
0.0339999 0.0269998 4.62199e-06
0.0339998 0.0279996 -4.43e-07
0.034 0.0289996 -3.89679e-07
0.0340003 0.0300001 -4.28424e-06
0.0340002 0.0309999 -2.72553e-06
0.0340004 0.0319997 -6.76477e-06
0.0340003 0.0329999 -1.73264e-06
-0.049 0.035 0
-0.05 0.035 0
-0.0480002 0.0350001 1.23667e-07
-0.0469999 0.0350001 -7.40854e-07
-0.0460002 0.0350001 4.64898e-07
-0.0450001 0.0349999 -1.15461e-06
-0.0440003 0.0349999 6.77039e-07
-0.043 0.0349999 -9.58925e-07
-0.0419999 0.0350001 9.44312e-07
-0.041 0.0349999 -2.23301e-07
-0.04 0.035 1.169e-06
-0.0389998 0.0349999 9.40408e-07
-0.0380001 0.0350001 1.59827e-06
-0.0370002 0.0349999 3.99642e-06
-0.036 0.0350001 3.06291e-06
-0.035 0.0349997 5.2024e-06
-0.0340001 0.035 5.80096e-07
-0.0329999 0.0349997 3.18508e-06
-0.0319999 0.035 -1.86397e-06
-0.0309999 0.0349999 2.64873e-06
-0.03 0.0349999 -2.18955e-06
-0.0289999 0.0349998 1.98691e-06
-0.0279999 0.0349997 -3.33958e-06
-0.0269999 0.0349996 4.21988e-07
-0.0259998 0.0349999 -2.23849e-06
-0.0250001 0.035 2.5584e-06
-0.0239999 0.0350001 2.65685e-06
-0.0230002 0.0349998 5.33658e-06
-0.0219999 0.0350002 4.29742e-06
-0.021 0.0349997 2.91876e-06
-0.0199998 0.0350001 2.10166e-06
-0.0190001 0.0349996 3.09088e-07
-0.0179998 0.0350001 2.51903e-06
-0.0170001 0.0349996 1.20795e-06
-0.0159999 0.0349999 2.53509e-06
-0.0150001 0.0349995 6.48473e-07
-0.0139998 0.0349997 4.59229e-07
-0.0129999 0.0349996 4.79284e-07
-0.0119997 0.0349997 3.7945e-07
-0.0109998 0.0349999 2.09338e-06
-0.00999969 0.0349998 9.15696e-07
-0.00900006 0.0350001 3.34686e-06
-0.00799983 0.0349999 1.24985e-06
-0.00699999 0.0350001 4.71415e-06
-0.00599984 0.0349999 2.15402e-06
-0.00499964 0.0349999 5.98586e-06
-0.00399996 0.0349998 3.64412e-06
-0.00299963 0.0349997 7.51388e-06
-0.00199977 0.035 6.753e-06
-0.00099975 0.0349999 1.05701e-05
3.25509e-07 0.0349998 9.97795e-06
0.00100044 0.0349997 1.05198e-05
0.00200008 0.0349997 7.45312e-06
0.00300012 0.0349995 6.90123e-06
0.00400006 0.0349995 5.71412e-06
0.00500002 0.0349996 7.8677e-06
0.00600011 0.0349995 8.03253e-06
0.00700015 0.0349997 9.22881e-06
0.00800007 0.0349994 7.48135e-06
0.00900013 0.0349995 6.80519e-06
0.0100002 0.0349997 5.38777e-06
0.0110002 0.0349993 5.66077e-06
0.0120004 0.0349998 5.39619e-06
0.0129999 0.0349995 4.94028e-06
0.0140004 0.0349999 3.96484e-06
0.0149999 0.0349994 2.15507e-06
0.0160004 0.0349998 9.64913e-07
0.017 0.0349991 -2.35876e-07
0.0180001 0.0349996 -6.5184e-07
0.019 0.0349991 -8.90615e-07
0.0200001 0.0349996 -1.87443e-07
0.0210001 0.0349992 -4.7858e-07
0.022 0.0349994 1.03146e-06
0.0229997 0.0349992 1.36119e-07
0.0240002 0.0349995 1.44294e-06
0.0249997 0.034999 -1.09633e-06
0.0260004 0.0349994 -2.4414e-07
0.0269997 0.0349992 -2.68957e-06
0.0280005 0.0349998 -9.20302e-07
0.029 0.0349996 -3.65422e-06
0.0300005 0.035 -2.02406e-06
0.0310004 0.0349998 -5.43918e-06
0.0320004 0.0350001 -3.0574e-06
0.0330002 0.0349997 -6.1758e-06
0.0340004 0.0339997 -5.32933e-06
0.0340006 0.035 -2.16626e-06
0.035 -0.05 0
0.035 -0.049 0
0.035 -0.0479998 -2.45357e-06
0.0349998 -0.047 -7.86519e-06
0.0349999 -0.0459998 -1.61214e-05
0.0350002 -0.0449996 -2.36059e-05
0.0350006 -0.0439994 -3.68477e-05
0.0350004 -0.043 -4.87725e-05
0.0350005 -0.0419993 -6.53308e-05
0.0350005 -0.0409999 -8.19762e-05
0.0350007 -0.0399993 -0.000100865
0.0350008 -0.039 -0.000120853
0.0350009 -0.038 -0.000141838
0.035001 -0.0370004 -0.000162657
0.0350015 -0.0360004 -0.000182821
0.0350017 -0.0350001 -0.000201925
0.0350018 -0.0340004 -0.000218647
0.0350025 -0.0330005 -0.000236764
0.0350023 -0.0320002 -0.000252072
0.0350022 -0.0310003 -0.000268569
0.0350026 -0.0300003 -0.00028506
0.0350029 -0.0290007 -0.000297342
0.0350029 -0.0280003 -0.00030379
0.0350029 -0.0270001 -0.000306531
0.0350032 -0.0259997 -0.000309463
0.0350029 -0.0249997 -0.000310097
0.035003 -0.0239994 -0.000307459
0.0350026 -0.0229991 -0.000300228
0.0350027 -0.0219991 -0.000288203
0.0350024 -0.0209992 -0.000269061
0.0350024 -0.0199988 -0.000246502
0.0350019 -0.0189992 -0.000214991
0.0350016 -0.017999 -0.000184979
0.0350015 -0.0170002 -0.000148653
0.0350006 -0.016 -0.000110745
0.0350005 -0.0150012 -7.00207e-05
0.0350001 -0.0140017 -3.09271e-05
0.0350006 -0.0130022 8.13301e-06
0.0349999 -0.0120023 4.54139e-05
0.0350001 -0.0110028 7.34199e-05
0.0349997 -0.0100027 9.60307e-05
0.035 -0.00900307 0.000114938
0.0349997 -0.00800238 0.000132577
0.0350002 -0.00700263 0.000142476
0.0349998 -0.00600229 0.000143069
0.0350004 -0.00500259 0.000140423
0.0349998 -0.0040019 0.000134736
0.0350002 -0.00300203 0.00012512
0.0350001 -0.00200204 0.000113609
0.0350002 -0.00100197 9.9053e-05
0.0350002 -1.6397e-06 8.5467e-05
0.035 0.000998097 7.33605e-05
0.0350001 0.00199821 5.9857e-05
0.035 0.00299831 4.78969e-05
0.035 0.00399831 3.60214e-05
0.0349999 0.0049987 2.68853e-05
0.035 0.0059981 1.99599e-05
0.035 0.00699869 1.24813e-05
0.0349996 0.00799855 1.232e-05
0.0350001 0.00899862 6.96902e-06
0.0349998 0.00999862 7.18091e-06
0.0349999 0.0109987 -7.69635e-07
0.0349997 0.0119988 3.5288e-06
0.0350001 0.0129988 -1.81581e-06
0.0349999 0.0139984 2.80681e-06
0.0349999 0.0149988 1.44151e-06
0.0349998 0.0159988 4.94755e-06
0.0349996 0.0169988 3.93602e-06
0.0349999 0.0179992 8.65741e-06
0.0349996 0.0189986 9.79931e-06
0.0349999 0.0199993 1.05661e-05
0.035 0.0209988 9.91328e-06
0.0349999 0.0219993 9.13945e-06
0.0349998 0.0229991 9.54116e-06
0.0349997 0.0239993 7.65569e-06
0.0350001 0.0249991 6.01873e-06
0.035 0.0259997 5.7595e-06
0.035 0.0269998 3.08571e-06
0.0349997 0.0279997 8.9961e-07
0.0350002 0.029 -4.17943e-06
0.0350001 0.0299994 -3.43616e-06
0.0350002 0.0309999 -7.28096e-06
0.035 0.0319997 -2.66709e-06
0.0350002 0.033 -5.30339e-06
0.0350001 0.0340001 -1.23667e-06
-0.049 0.036 0
-0.05 0.036 0
-0.0480001 0.0360001 -1.83851e-07
-0.0469999 0.0360001 4.59803e-07
-0.046 0.0360002 -7.86682e-07
-0.0449998 0.0360001 1.98613e-07
-0.044 0.0360004 -1.91679e-06
-0.0429999 0.0360003 -5.07842e-07
-0.0420004 0.0360003 -1.89275e-06
-0.0409994 0.0360004 -5.03202e-07
-0.0400002 0.0360001 -1.25662e-06
-0.0390001 0.0360004 -9.97096e-07
-0.0380002 0.0360004 2.32245e-07
-0.037 0.0360005 -1.46289e-07
-0.0360004 0.0359998 2.63853e-06
-0.035 0.0360003 2.04544e-07
-0.0340003 0.0359998 3.17878e-06
-0.0329998 0.0360002 -9.56653e-07
-0.0320001 0.036 3.91666e-06
-0.0309997 0.036 -2.50031e-07
-0.0299999 0.0359997 4.68356e-06
-0.0289997 0.0359999 -4.64201e-07
-0.0279999 0.0359996 3.1638e-06
-0.0269996 0.0359999 -1.71255e-06
-0.0259998 0.0359997 1.93999e-06
-0.025 0.0359999 -2.44887e-07
-0.0239998 0.036 3.72707e-06
-0.0229998 0.036 3.30576e-06
-0.0219999 0.0359999 4.17325e-06
-0.021 0.0360003 2.7819e-06
-0.0199999 0.0359997 8.49419e-07
-0.0189999 0.0360002 1.92267e-06
-0.018 0.0359997 1.24679e-06
-0.017 0.036 4.35839e-06
-0.016 0.0359995 3.27145e-06
-0.0150002 0.0359998 4.08203e-06
-0.014 0.0359996 2.1158e-06
-0.0130001 0.0359997 1.28228e-06
-0.012 0.0359996 1.05934e-06
-0.0109999 0.0359995 2.70726e-07
-0.00999974 0.0359997 2.17359e-06
-0.0090001 0.0359997 1.58331e-06
-0.00799975 0.0359999 4.39252e-06
-0.00700004 0.036 3.22065e-06
-0.00599985 0.036 6.609e-06
-0.00499991 0.0359998 4.91173e-06
-0.00399976 0.036 7.68546e-06
-0.00299975 0.0359998 6.14424e-06
-0.0019997 0.0360001 8.26023e-06
-0.000999692 0.036 7.51967e-06
3.62525e-07 0.036 8.46104e-06
0.00100034 0.0360001 6.33681e-06
0.00200015 0.0359998 4.37566e-06
0.00300026 0.0359998 1.91157e-06
0.00399996 0.0359999 2.03951e-06
0.00500006 0.0359997 2.59261e-06
0.00600017 0.0359998 4.75132e-06
0.00700016 0.0359997 4.26779e-06
0.00800031 0.0359996 4.16166e-06
0.00900015 0.0359997 2.94138e-06
0.0100001 0.0359997 2.63275e-06
0.0110003 0.0359998 2.44663e-06
0.012 0.0359998 1.93332e-06
0.0130004 0.0359999 1.95277e-06
0.014 0.0359997 8.54334e-07
0.0150004 0.0359999 1.03918e-06
0.0159999 0.0359995 -5.73886e-08
0.0170004 0.0359999 -2.0229e-07
0.0179998 0.0359997 -1.53973e-06
0.0190001 0.0359997 -1.65098e-06
0.0199998 0.0359995 -3.01489e-06
0.021 0.0359998 -1.49643e-06
0.0219997 0.0359995 -2.05871e-06
0.023 0.0359998 -6.54292e-07
0.0239999 0.0359996 -2.6594e-06
0.0249999 0.0359997 -1.40303e-06
0.0260001 0.0359996 -3.66854e-06
0.0269998 0.0359994 -1.68686e-06
0.0279998 0.0359995 -3.96754e-06
0.0289998 0.0359996 -2.40738e-06
0.0300001 0.0359995 -6.01424e-06
0.0310001 0.036 -4.84559e-06
0.0320004 0.0359995 -7.96438e-06
0.0329999 0.0360001 -3.96353e-06
0.0340005 0.0359996 -5.87145e-06
0.0349999 0.0349999 -5.23324e-06
0.035 0.0359999 -1.11522e-06
0.036 -0.05 0
0.036 -0.049 0
0.036 -0.048 -2.06287e-06
0.0359999 -0.0469997 -9.06718e-06
0.0359999 -0.046 -1.42377e-05
0.0360001 -0.0449998 -2.37291e-05
0.036 -0.0439998 -3.30885e-05
0.0360001 -0.0429993 -4.77517e-05
0.036 -0.0419995 -6.08501e-05
0.036 -0.0409996 -7.862e-05
0.0360004 -0.0399998 -9.56556e-05
0.0360005 -0.039 -0.000116056
0.0360006 -0.0379998 -0.000134764
0.0360007 -0.0370003 -0.000154063
0.0360011 -0.036 -0.000172307
0.0360012 -0.0350003 -0.00018855
0.0360016 -0.0340002 -0.000207311
0.0360015 -0.0330001 -0.000222008
0.0360021 -0.0320002 -0.000239374
0.0360017 -0.0310005 -0.000253883
0.0360024 -0.0300003 -0.000269555
0.0360021 -0.0290002 -0.000280841
0.0360024 -0.0280002 -0.000286447
0.0360025 -0.0270001 -0.00028862
0.0360028 -0.0259999 -0.000291174
0.0360027 -0.0249999 -0.000290158
0.0360027 -0.0239995 -0.00028706
0.0360024 -0.0229997 -0.000279585
0.0360027 -0.0219993 -0.000266172
0.0360024 -0.0209995 -0.00024901
0.036002 -0.0199994 -0.000225381
0.0360018 -0.0189992 -0.000199704
0.0360015 -0.0179995 -0.000167993
0.0360011 -0.017 -0.000135023
0.0360006 -0.0160005 -9.81456e-05
0.0360003 -0.0150011 -6.03732e-05
0.0360006 -0.0140016 -2.33417e-05
0.0359998 -0.0130024 1.65668e-05
0.0360003 -0.0120023 5.09631e-05
0.0359999 -0.0110028 7.98877e-05
0.0360002 -0.0100025 0.000100139
0.0359998 -0.00900264 0.000119236
0.0360002 -0.00800262 0.000134271
0.036 -0.00700256 0.000142425
0.0360004 -0.00600243 0.000142754
0.0359997 -0.00500181 0.000139622
0.0360004 -0.00400203 0.00013169
0.036 -0.00300206 0.000122798
0.0360001 -0.00200177 0.000109394
0.0360002 -0.00100182 9.52858e-05
0.0360003 -1.65634e-06 8.22721e-05
0.0360002 0.000997997 6.94061e-05
0.0359999 0.00199904 5.71448e-05
0.0359999 0.0029983 4.43624e-05
0.0359998 0.0039987 3.30355e-05
0.0359999 0.00499831 2.44397e-05
0.0359998 0.00599866 1.55945e-05
0.0359998 0.00699848 1.14504e-05
0.0359997 0.00799824 6.49058e-06
0.036 0.00899866 7.59409e-06
0.036 0.00999848 1.21867e-06
0.0359999 0.0109989 3.85384e-06
0.0360001 0.0119987 -2.60083e-06
0.0359998 0.0129991 3.28711e-06
0.0360001 0.0139987 5.87836e-08
0.0359999 0.014999 2.6861e-06
0.0359998 0.0159991 1.96238e-06
0.0359999 0.016999 4.97629e-06
0.0359999 0.0179989 7.0646e-06
0.0359998 0.018999 1.01577e-05
0.0359998 0.0199991 9.52592e-06
0.0359999 0.0209993 9.53239e-06
0.036 0.021999 9.26052e-06
0.0359999 0.0229994 8.88689e-06
0.0359998 0.023999 7.55649e-06
0.0359998 0.0249995 5.38046e-06
0.0360001 0.0259992 4.53994e-06
0.0359997 0.0269998 3.97583e-06
0.036 0.0279997 -6.5215e-07
0.036 0.0289997 -2.11222e-06
0.0360004 0.0299999 -6.47711e-06
0.0360002 0.0309999 -4.29724e-06
0.0360002 0.0319998 -6.00937e-06
0.0360005 0.0329999 -1.07264e-06
0.0360005 0.0339997 -4.66543e-06
0.0360007 0.0349998 -1.38701e-06
-0.049 0.037 0
-0.05 0.037 0
-0.0480002 0.0370003 3.38526e-07
-0.0469998 0.0370003 -3.99389e-07
-0.0460002 0.0369998 6.75205e-07
-0.0449999 0.0370001 -1.63175e-06
-0.044 0.0369998 -8.21244e-07
-0.043 0.0370003 -3.03671e-06
-0.0419998 0.0370001 -1.41492e-06
-0.0409998 0.037 -2.01716e-06
-0.0399999 0.0370001 -7.47697e-07
-0.0389999 0.0369998 -1.40172e-06
-0.0380001 0.0370004 -2.37019e-06
-0.0370001 0.037 -1.7631e-06
-0.0360001 0.0370004 -3.20487e-06
-0.0350001 0.037 -1.42434e-09
-0.0340002 0.037 -1.55414e-06
-0.0329998 0.0369997 3.24926e-06
-0.032 0.037 1.97926e-07
-0.0309998 0.0369995 4.89887e-06
-0.0300001 0.037 1.22694e-06
-0.0289997 0.0369993 6.07532e-06
-0.0279999 0.0369997 1.64841e-06
-0.0269999 0.0369994 4.96161e-06
-0.0259997 0.0369997 3.51753e-07
-0.0249998 0.0369998 2.84804e-06
-0.0239998 0.0369999 1.66276e-07
-0.0229997 0.037 2.00343e-06
-0.022 0.0370002 7.07626e-07
-0.0209997 0.0369999 1.26029e-06
-0.0200001 0.037 1.55306e-06
-0.019 0.0369997 9.64746e-07
-0.018 0.0369999 3.59093e-06
-0.017 0.0369996 3.05322e-06
-0.0159999 0.0370001 6.04097e-06
-0.0150003 0.0369998 4.59317e-06
-0.0139999 0.0370001 4.86847e-06
-0.0130003 0.0369998 2.34602e-06
-0.012 0.0369998 1.15588e-06
-0.0109999 0.0369998 4.53988e-07
-0.01 0.037 3.90379e-07
-0.00900013 0.0370001 2.82513e-06
-0.00799993 0.0370002 3.07721e-06
-0.00700009 0.0369997 6.34942e-06
-0.00599991 0.0369999 4.76497e-06
-0.00499977 0.0369999 7.13092e-06
-0.00399992 0.0369996 4.46811e-06
-0.00299958 0.0370001 6.17728e-06
-0.00199994 0.0369996 3.99597e-06
-0.000999415 0.0369998 5.31361e-06
2.1431e-07 0.0369998 3.44024e-06
0.00100057 0.0369999 2.96905e-06
0.00200011 0.0369995 5.69281e-07
0.00300055 0.0369998 5.62168e-07
0.00400013 0.0369994 1.4651e-07
0.00500031 0.0369995 1.66433e-06
0.00600001 0.0369997 1.61008e-06
0.00700012 0.0369997 2.39954e-06
0.00800024 0.0369999 1.31669e-06
0.00900018 0.0369996 1.29166e-06
0.0100002 0.0369994 8.40293e-09
0.011 0.0369996 3.41624e-07
0.0120003 0.0369995 -6.02296e-07
0.013 0.0369999 -9.83827e-08
0.0140005 0.037 -5.57792e-07
0.015 0.0369997 3.7987e-07
0.0160006 0.0369997 2.1085e-07
0.0170001 0.0369993 1.09694e-06
0.0180003 0.0369997 6.21957e-08
0.0190002 0.0369994 1.91377e-07
0.0199997 0.0369996 -1.19908e-06
0.0209999 0.0369994 -1.63927e-06
0.022 0.0369995 -2.31424e-06
0.0229997 0.0369992 -2.59761e-06
0.0239999 0.0369995 -2.66249e-06
0.0249996 0.0369994 -3.61341e-06
0.0259997 0.0369994 -3.56176e-06
0.0269996 0.0369996 -3.55618e-06
0.0279998 0.0369997 -2.337e-06
0.0289995 0.0369995 -2.67299e-06
0.0300001 0.037 -2.3798e-06
0.0309996 0.0369998 -4.12257e-06
0.032 0.037 -3.18622e-06
0.0329998 0.037 -4.25154e-06
0.0340002 0.0370002 -8.06511e-07
0.0349998 0.0369998 -2.09652e-06
0.0360003 0.0359996 -4.30358e-06
0.0360006 0.0370001 5.08033e-07
0.037 -0.05 0
0.037 -0.049 0
0.037 -0.0479995 -3.11443e-06
0.0369999 -0.047 -7.65106e-06
0.037 -0.046 -1.3927e-05
0.037 -0.0449997 -2.11826e-05
0.0370002 -0.0439997 -3.48036e-05
0.0370003 -0.0430001 -4.59266e-05
0.0370003 -0.0419995 -5.95953e-05
0.0370002 -0.0409999 -7.31788e-05
0.0370006 -0.0399997 -9.06123e-05
0.0370005 -0.0389998 -0.000110465
0.0370009 -0.0380002 -0.000127852
0.0370011 -0.0370001 -0.000143553
0.0370012 -0.0360002 -0.000158822
0.0370018 -0.0350001 -0.0001766
0.0370014 -0.0340004 -0.000191002
0.0370018 -0.0330002 -0.000209192
0.0370018 -0.0320002 -0.000222445
0.0370022 -0.0310002 -0.000238243
0.0370023 -0.0300003 -0.000250168
0.0370024 -0.0290003 -0.000261769
0.0370025 -0.0280001 -0.000266257
0.0370028 -0.0270001 -0.000270109
0.037003 -0.0259997 -0.000269771
0.0370027 -0.0249997 -0.000270717
0.0370025 -0.0239996 -0.000264981
0.0370026 -0.0229996 -0.000258322
0.0370023 -0.0219993 -0.000243513
0.0370023 -0.0209995 -0.000227899
0.0370019 -0.0199995 -0.000206998
0.0370019 -0.019 -0.000181542
0.0370014 -0.0179996 -0.000152267
0.037001 -0.0170004 -0.000119447
0.0370006 -0.0160003 -8.47082e-05
0.0370006 -0.0150013 -5.04387e-05
0.0370004 -0.0140013 -1.26619e-05
0.0370004 -0.0130019 2.34447e-05
0.0369999 -0.0120026 5.85243e-05
0.0370001 -0.0110025 8.23325e-05
0.037 -0.0100024 0.000104759
0.0370002 -0.00900263 0.000120626
0.0369998 -0.00800244 0.000135304
0.0370001 -0.00700231 0.000140759
0.0369999 -0.00600182 0.00013992
0.0370001 -0.00500221 0.00013474
0.0370001 -0.00400164 0.000128209
0.0369999 -0.00300178 0.000115427
0.0370003 -0.00200169 0.000103452
0.037 -0.0010016 8.89001e-05
0.0370002 -1.67683e-06 7.77962e-05
0.0370002 0.000998366 6.57245e-05
0.0369999 0.00199861 5.17198e-05
0.0370001 0.00299846 3.97516e-05
0.0369999 0.00399864 2.82886e-05
0.0369999 0.00499853 1.97259e-05
0.0369998 0.00599858 1.33782e-05
0.0369999 0.00699844 7.02136e-06
0.0369998 0.00799869 5.87817e-06
0.0369998 0.00899871 2.59773e-06
0.0369998 0.00999895 4.78247e-06
0.0369998 0.0109989 -7.99245e-07
0.0369999 0.011999 3.06556e-06
0.0369998 0.0129989 -1.10292e-06
0.0369999 0.0139988 2.47334e-06
0.0369998 0.014999 4.14648e-07
0.0369999 0.0159991 2.45321e-06
0.0369996 0.0169989 2.8446e-06
0.0369994 0.0179992 6.85509e-06
0.0369995 0.018999 8.27023e-06
0.0369996 0.0199995 7.84513e-06
0.0370001 0.0209991 8.8959e-06
0.0369998 0.0219994 7.3026e-06
0.0369996 0.0229991 8.77732e-06
0.0369999 0.0239993 5.70807e-06
0.0369997 0.0249992 5.36655e-06
0.0369997 0.0259993 3.9446e-06
0.0369998 0.0269996 3.6271e-06
0.0369999 0.0279997 1.59981e-06
0.0369999 0.029 -2.73291e-06
0.0369999 0.0299994 -4.12556e-06
0.0370001 0.0309999 -6.66022e-06
0.0370001 0.0319997 -1.90126e-06
0.0369999 0.0329998 -3.05478e-06
0.0370001 0.0339996 -2.6344e-07
0.0370005 0.0349998 -4.33214e-06
0.037 0.036 -1.27324e-06
-0.049 0.038 0
-0.05 0.038 0
-0.048 0.0380002 7.562e-09
-0.0469998 0.0380002 9.79455e-07
-0.0459998 0.038 -5.9369e-07
-0.0449998 0.038 2.53179e-07
-0.044 0.038 -2.59928e-06
-0.0429997 0.038 -1.02408e-06
-0.0420001 0.0380002 -2.38986e-06
-0.0409997 0.0380002 -3.49657e-07
-0.0400003 0.0380004 -1.39633e-06
-0.0389997 0.0380006 -1.91589e-06
-0.0380003 0.0380003 -3.22044e-06
-0.0369998 0.0380005 -5.40029e-06
-0.0360004 0.0380001 -4.05807e-06
-0.0349999 0.0380003 -4.34678e-06
-0.0340002 0.0379998 6.89754e-07
-0.0329998 0.038 -1.86442e-07
-0.0319999 0.0379995 4.62564e-06
-0.0309998 0.038 1.23726e-06
-0.0299998 0.0379998 5.70998e-06
-0.0289997 0.0380001 2.34209e-06
-0.0279998 0.0379995 6.88167e-06
-0.0269999 0.038 3.17703e-06
-0.0259997 0.0379996 5.80561e-06
-0.0249996 0.0379999 1.04672e-06
-0.0240001 0.038 1.882e-06
-0.0229996 0.0380004 -1.54553e-06
-0.0220001 0.038 -5.0599e-07
-0.0209997 0.0380003 -6.03709e-07
-0.0200001 0.0380001 3.77549e-07
-0.0189994 0.038 2.56873e-06
-0.0180001 0.0380001 2.202e-06
-0.017 0.038 5.2175e-06
-0.0159997 0.0379998 4.09613e-06
-0.0150002 0.0380001 6.22499e-06
-0.0140001 0.0379997 4.04009e-06
-0.0130002 0.0379999 3.63708e-06
-0.0120001 0.0379995 1.36747e-06
-0.0109999 0.0379998 5.55158e-07
-0.01 0.0379998 9.87715e-07
-0.00900017 0.0379999 1.70294e-06
-0.00799992 0.0379997 4.0808e-06
-0.00700016 0.0379999 3.65257e-06
-0.00599995 0.0379997 5.7286e-06
-0.00499961 0.038 3.4272e-06
-0.00399999 0.0380002 4.83342e-06
-0.00299967 0.0379998 2.49227e-06
-0.00199968 0.038 3.23564e-06
-0.000999692 0.0379997 1.05711e-06
2.70334e-08 0.038 1.30415e-06
0.00100038 0.0379997 6.43094e-09
0.00200013 0.0380002 1.40468e-07
0.00300042 0.0379998 -3.32123e-07
0.00400032 0.038 1.90051e-07
0.00500026 0.0379998 7.19659e-08
0.00600043 0.0379998 8.33465e-07
0.00700002 0.038 4.78185e-07
0.00800021 0.0379997 4.20508e-07
0.00900051 0.0379999 7.43332e-08
0.0100001 0.0379998 -5.2819e-07
0.0110003 0.0379998 -5.26777e-07
0.0120001 0.0379997 -7.76701e-07
0.0130003 0.0379999 1.36357e-07
0.0140001 0.038 2.99024e-07
0.0150005 0.0379998 9.4508e-07
0.016 0.0379999 9.90186e-07
0.0170004 0.0379999 7.22336e-07
0.0180002 0.0379997 9.07584e-07
0.0190002 0.0379999 4.63807e-08
0.02 0.0379996 -4.84067e-07
0.0210001 0.0379998 -1.74792e-06
0.0219998 0.0379997 -2.36302e-06
0.0230001 0.0379996 -3.74179e-06
0.024 0.0379996 -3.68947e-06
0.0249997 0.0379998 -3.6102e-06
0.0259995 0.0379995 -2.60848e-06
0.0269999 0.0379995 -2.01942e-06
0.0279999 0.0379995 -1.19159e-06
0.0289999 0.0379997 -8.08489e-07
0.03 0.0379998 -6.37734e-07
0.0309997 0.0379998 -7.14806e-07
0.0320001 0.0379998 -1.11319e-06
0.0329998 0.0379998 -8.41147e-08
0.0340002 0.0379997 -4.87516e-07
0.0350001 0.0379998 1.17265e-06
0.0360003 0.0379998 -2.84375e-08
0.0369999 0.0369999 -2.33523e-06
0.0370003 0.0379999 1.03372e-06
0.038 -0.05 0
0.038 -0.049 0
0.0379998 -0.0479999 -1.80401e-06
0.0380001 -0.0469999 -7.08561e-06
0.038 -0.0459998 -1.05015e-05
0.0380001 -0.0449997 -2.05014e-05
0.0379999 -0.0439997 -3.03569e-05
0.0380003 -0.0429996 -4.44607e-05
0.038 -0.0420001 -5.35849e-05
0.0380002 -0.0409997 -6.65798e-05
0.038 -0.0399999 -8.08922e-05
0.0380004 -0.0389996 -9.9771e-05
0.0380003 -0.0380004 -0.000116133
0.0380008 -0.0369999 -0.000129566
0.0380008 -0.036 -0.000144327
0.0380009 -0.0349998 -0.000157403
0.0380015 -0.0340001 -0.000176092
0.0380019 -0.0329996 -0.000187876
0.0380016 -0.0320003 -0.000204651
0.038002 -0.0310001 -0.000214732
0.038002 -0.0300003 -0.000228765
0.0380021 -0.0290002 -0.000236156
0.0380022 -0.0280002 -0.000244494
0.0380027 -0.0269997 -0.000245655
0.0380023 -0.026 -0.000248835
0.0380024 -0.0249998 -0.000245039
0.0380026 -0.0239998 -0.000243593
0.0380023 -0.0229993 -0.000234
0.0380021 -0.0219994 -0.000223294
0.0380019 -0.0209995 -0.000207211
0.0380016 -0.0199997 -0.000190171
0.0380015 -0.0189995 -0.000165769
0.038001 -0.0179997 -0.000137315
0.038001 -0.0169997 -0.000104552
0.0380007 -0.0160008 -7.40317e-05
0.0380003 -0.0150011 -3.8899e-05
0.0380001 -0.0140014 -6.0634e-06
0.0380002 -0.013002 3.21478e-05
0.0380003 -0.0120022 6.00671e-05
0.0380002 -0.0110023 8.64652e-05
0.0380005 -0.0100026 0.000103864
0.0380001 -0.00900239 0.000122
0.0380002 -0.00800244 0.000130663
0.0379999 -0.00700208 0.000136162
0.0380004 -0.00600187 0.000133215
0.0380001 -0.00500137 0.000130135
0.0380003 -0.00400174 0.000119358
0.0380002 -0.00300169 0.000108992
0.038 -0.00200184 9.42982e-05
0.0380002 -0.00100189 8.20403e-05
0.038 -1.2624e-06 7.02941e-05
0.0380001 0.000998284 5.87583e-05
0.0380002 0.00199882 4.56732e-05
0.0379998 0.00299825 3.30092e-05
0.0379999 0.00399905 2.28495e-05
0.0379998 0.00499834 1.59627e-05
0.0379999 0.00599881 9.72813e-06
0.0379996 0.00699858 6.73605e-06
0.0379998 0.00799888 2.04621e-06
0.038 0.00899876 3.85306e-06
0.0380001 0.00999898 -4.18278e-07
0.0380002 0.0109993 2.74782e-06
0.0380005 0.0119988 -2.61129e-06
0.0380001 0.0129989 2.64196e-06
0.0379997 0.0139991 -1.12819e-09
0.0379999 0.0149991 1.76006e-06
0.0379998 0.015999 1.47424e-06
0.0379999 0.0169993 3.86119e-06
0.0379998 0.0179993 5.62999e-06
0.0379998 0.0189991 7.30869e-06
0.0379998 0.0199991 7.02403e-06
0.0379999 0.0209993 6.93237e-06
0.0379998 0.0219991 7.62118e-06
0.0380001 0.0229995 7.14307e-06
0.0379997 0.0239992 6.3905e-06
0.038 0.0249992 3.67397e-06
0.0379996 0.0259994 3.39183e-06
0.0379998 0.0269997 3.94467e-06
0.0380001 0.0279995 1.86238e-06
0.0380001 0.0289996 9.46016e-08
0.0380002 0.0299998 -4.99252e-06
0.0380002 0.0309997 -4.52916e-06
0.0380004 0.0319999 -5.22446e-06
0.0380003 0.0329999 -1.8377e-08
0.0380004 0.0339995 -2.37968e-06
0.0380005 0.0350001 -7.24147e-07
0.0380002 0.0359995 -4.29764e-06
0.0380003 0.0369999 -4.54015e-07
-0.049 0.039 0
-0.05 0.039 0
-0.048 0.0390001 4.48412e-07
-0.0469998 0.0389999 -1.41378e-07
-0.0459999 0.0390003 1.26438e-06
-0.0449998 0.0390002 -5.57087e-07
-0.0439999 0.039 4.82584e-07
-0.043 0.0390003 -1.50232e-06
-0.0420001 0.0390001 -4.76787e-07
-0.0410001 0.0390001 -1.45421e-06
-0.0400003 0.0390001 -1.06978e-06
-0.0390003 0.0390001 -2.4866e-06
-0.0380002 0.0390003 -4.58926e-06
-0.0370002 0.0390001 -5.21282e-06
-0.0359999 0.0390005 -6.67593e-06
-0.0349999 0.0389999 -2.8641e-06
-0.0339998 0.0390002 -2.3488e-06
-0.0329998 0.0389996 3.12235e-06
-0.0319999 0.039 9.31099e-07
-0.0309997 0.0389994 4.54742e-06
-0.03 0.039 1.09427e-06
-0.0289994 0.0389997 5.69947e-06
-0.0279998 0.0389997 3.06332e-06
-0.0269995 0.0389996 7.62153e-06
-0.0259998 0.0389997 3.79306e-06
-0.0249998 0.0389994 5.07292e-06
-0.0239999 0.0389999 -4.33735e-07
-0.0229996 0.0389997 -6.09193e-07
-0.0220001 0.0390002 -3.22695e-06
-0.0209997 0.0389997 -1.11967e-06
-0.0199997 0.0389998 1.48726e-07
-0.0189999 0.0389997 1.03371e-06
-0.0179998 0.0389996 2.9233e-06
-0.0169998 0.0389998 2.05106e-06
-0.0159997 0.0389996 3.98093e-06
-0.0150001 0.039 2.65991e-06
-0.0139996 0.0389999 3.5006e-06
-0.0130003 0.0389997 1.68087e-06
-0.0119997 0.039 1.54464e-06
-0.0110003 0.0389996 8.15705e-07
-0.01 0.039 9.9947e-07
-0.00899988 0.0389998 2.20899e-06
-0.00800004 0.039 2.17105e-06
-0.00699992 0.0389998 3.77702e-06
-0.00600005 0.0389999 1.81954e-06
-0.00499995 0.0389999 2.89413e-06
-0.00400007 0.039 6.68129e-07
-0.00299983 0.039 2.05257e-06
-0.00200021 0.0389995 1.99427e-07
-0.000999431 0.039 8.73569e-07
-7.90064e-08 0.0389995 -7.00046e-07
0.00100022 0.0389996 -6.70272e-08
0.00200028 0.0389996 -2.58335e-07
0.00300047 0.0389996 7.03213e-07
0.00400023 0.0389997 2.76214e-07
0.00500063 0.0390001 -3.63722e-07
0.00600025 0.0389998 -1.30143e-06
0.00700066 0.039 -1.62677e-06
0.00800045 0.0389999 -1.5836e-06
0.00900045 0.0389998 -2.00205e-06
0.0100005 0.0389999 -2.43489e-06
0.0110002 0.0389998 -2.69196e-06
0.0120003 0.0389998 -2.19137e-06
0.0130002 0.039 -1.07118e-06
0.0140004 0.0389996 -4.13924e-07
0.0150003 0.0389999 -4.40563e-08
0.0160003 0.0389994 -8.31547e-07
0.0170001 0.0389998 -6.71252e-07
0.0180001 0.0389997 -1.54764e-06
0.0190001 0.0389997 -8.25166e-07
0.0200001 0.0389996 -2.32837e-06
0.0209999 0.0389998 -2.54899e-06
0.0220002 0.0389994 -4.67096e-06
0.023 0.0389996 -4.02515e-06
0.0240002 0.0389994 -4.51926e-06
0.0249999 0.0389996 -2.4393e-06
0.0260002 0.0389997 -2.54923e-06
0.0269998 0.0389995 -1.66402e-07
0.0280002 0.0389997 -1.02881e-06
0.029 0.0389999 7.48771e-07
0.0300003 0.0389999 -4.94177e-07
0.0310001 0.039 1.09572e-06
0.0320003 0.0390001 2.58597e-07
0.033 0.0390002 8.35312e-07
0.0340002 0.039 5.11209e-07
0.035 0.0390001 3.82739e-07
0.0360002 0.0389998 6.91959e-07
0.0370002 0.0389998 6.70789e-07
0.0380004 0.0379999 -3.23037e-07
0.0380002 0.0389997 9.43496e-07
0.039 -0.05 0
0.039 -0.049 0
0.0390001 -0.0479998 -1.79718e-06
0.039 -0.047 -3.3695e-06
0.0390002 -0.046 -8.69334e-06
0.039 -0.0449996 -1.56552e-05
0.0390002 -0.044 -2.86262e-05
0.039 -0.0429997 -3.76808e-05
0.0390005 -0.0419999 -4.69931e-05
0.0390004 -0.0409997 -5.53866e-05
0.0390006 -0.0400002 -6.88275e-05
0.0390006 -0.0389998 -8.63906e-05
0.0390007 -0.0380001 -0.000101541
0.0390012 -0.0369999 -0.000114196
0.039001 -0.0360002 -0.000124635
0.0390016 -0.0349999 -0.000139628
0.0390012 -0.0340001 -0.000151776
0.039002 -0.0330001 -0.000168841
0.0390017 -0.0320001 -0.000178452
0.0390019 -0.0309999 -0.000192226
0.0390021 -0.0300002 -0.000199841
0.0390022 -0.029 -0.000210605
0.039002 -0.028 -0.000215128
0.0390027 -0.027 -0.000220644
0.0390024 -0.0259999 -0.000219912
0.0390025 -0.0249996 -0.000221051
0.0390019 -0.0239998 -0.00021435
0.0390024 -0.0229994 -0.00020844
0.0390017 -0.0219995 -0.000195572
0.0390017 -0.0209996 -0.000185015
0.0390019 -0.0199997 -0.000168333
0.0390014 -0.019 -0.000146766
0.0390013 -0.0179996 -0.000119476
0.0390008 -0.0170005 -8.98738e-05
0.0390005 -0.0160004 -5.9355e-05
0.0390004 -0.0150013 -2.90271e-05
0.0390004 -0.0140015 4.9424e-06
0.0390005 -0.0130017 3.53042e-05
0.0390005 -0.012002 6.42285e-05
0.0390001 -0.011002 8.3708e-05
0.0390001 -0.0100023 0.000103762
0.039 -0.00900229 0.000115414
0.039 -0.00800202 0.000124935
0.0390003 -0.00700191 0.000126158
0.0390003 -0.00600162 0.00012539
0.0390001 -0.0050018 0.000119046
0.0390003 -0.00400143 0.000111681
0.0389999 -0.00300141 9.66383e-05
0.0390004 -0.00200153 8.50861e-05
0.0389999 -0.00100146 7.18015e-05
0.039 -1.6019e-06 6.25521e-05
0.0390001 0.000998425 5.20987e-05
0.0389998 0.0019987 3.88985e-05
0.039 0.00299872 2.8487e-05
0.0389999 0.00399854 1.85637e-05
0.039 0.00499878 1.33628e-05
0.0389996 0.00599888 8.19943e-06
0.0389998 0.00699883 4.55249e-06
0.0389998 0.0079991 1.94288e-06
0.0389996 0.00899853 -2.31404e-07
0.0389997 0.00999943 9.17571e-07
0.039 0.0109988 -2.90352e-06
0.039 0.0119994 5.74748e-07
0.0389995 0.0129994 -1.83422e-06
0.0389999 0.013999 1.0855e-06
0.0389998 0.0149991 6.85853e-07
0.0389997 0.0159995 2.35081e-06
0.0389997 0.0169992 3.35639e-06
0.0389995 0.0179994 5.71465e-06
0.0389996 0.0189994 7.30103e-06
0.0389997 0.0199993 6.1343e-06
0.0389997 0.0209992 7.53846e-06
0.0389998 0.0219995 5.56096e-06
0.0389998 0.022999 7.38863e-06
0.0389999 0.0239993 4.0415e-06
0.0389997 0.0249993 3.80926e-06
0.0389996 0.0259995 1.78704e-06
0.0389996 0.0269996 2.79095e-06
0.0389999 0.0279996 2.65321e-06
0.0389998 0.0289997 -4.24853e-07
0.039 0.0299993 -3.12042e-06
0.0389998 0.0309998 -6.88555e-06
0.0389999 0.0319996 -3.1222e-06
0.0390001 0.0329998 -2.3288e-06
0.039 0.0339998 1.55179e-06
0.0389999 0.0349996 -2.13077e-06
0.0390001 0.0360001 -4.74079e-07
0.0389999 0.0369997 -2.1117e-06
0.0390001 0.0379999 9.14303e-07
-0.049 0.04 0
-0.05 0.04 0
-0.0479999 0.0400001 -1.94575e-07
-0.047 0.0400001 6.46016e-07
-0.046 0.0400002 -4.60333e-07
-0.0449999 0.0399999 1.58613e-06
-0.044 0.0400004 -3.21271e-07
-0.0429998 0.0399999 1.26954e-06
-0.042 0.0400005 -1.29313e-06
-0.0409999 0.0400003 -8.0758e-07
-0.0400002 0.0400004 -2.98689e-06
-0.039 0.0400006 -3.27929e-06
-0.0380002 0.0400001 -4.25755e-06
-0.0369999 0.0400003 -5.09178e-06
-0.036 0.0399999 -3.98664e-06
-0.035 0.0400001 -3.46827e-06
-0.0339995 0.0399998 2.43341e-07
-0.033 0.0400001 1.4249e-07
-0.0319997 0.0399997 3.65713e-06
-0.0309999 0.0400001 1.16571e-06
-0.0299999 0.0399993 3.95824e-06
-0.0289999 0.0399995 1.10877e-06
-0.0279998 0.0399994 5.09815e-06
-0.0269995 0.0399997 3.24482e-06
-0.026 0.0399996 6.46117e-06
-0.0249996 0.0400002 2.26019e-06
-0.024 0.04 2.47175e-06
-0.0229997 0.0400002 -1.77351e-06
-0.0220002 0.0400001 -7.87657e-07
-0.0209992 0.0400002 -1.34139e-06
-0.0200003 0.0399999 7.3344e-08
-0.0189992 0.0400003 1.36334e-06
-0.0179999 0.0400001 9.38525e-07
-0.0169995 0.0400002 2.83543e-06
-0.0159995 0.0400001 1.16315e-06
-0.015 0.04 2.62178e-06
-0.0139995 0.0399997 8.10066e-07
-0.0130002 0.0400001 1.7415e-06
-0.012 0.0399996 1.22454e-06
-0.0110001 0.0400001 2.17842e-06
-0.0100001 0.0399997 2.53556e-06
-0.009 0.0400002 2.81961e-06
-0.00799979 0.0399998 3.36599e-06
-0.00699984 0.0400001 2.45614e-06
-0.00599999 0.0400001 3.38156e-06
-0.0049999 0.0399999 1.82704e-06
-0.00400011 0.0400001 2.96737e-06
-0.00299974 0.0399998 2.04629e-06
-0.00199995 0.0400001 2.55498e-06
-0.000999749 0.0399997 1.38027e-06
4.05118e-07 0.0400001 1.26038e-06
0.00100036 0.04 1.43182e-06
0.00200028 0.0399998 1.78525e-06
0.00300004 0.04 1.83132e-06
0.0040004 0.0399999 5.05839e-07
0.00500023 0.0399997 -1.17534e-06
0.00600087 0.04 -2.64054e-06
0.00700067 0.0399996 -2.9484e-06
0.00800045 0.0399998 -3.30292e-06
0.00900048 0.0399998 -2.93144e-06
0.0100002 0.0399997 -3.85244e-06
0.0110004 0.0399999 -3.57629e-06
0.0120004 0.0399999 -3.35597e-06
0.0130003 0.0399997 -1.67951e-06
0.0140003 0.0400002 -6.99986e-07
0.0150003 0.0399996 -7.4185e-07
0.0160002 0.0400002 -1.07161e-06
0.0170003 0.04 -3.01983e-06
0.0180002 0.0399999 -2.45574e-06
0.0190001 0.0399998 -4.23486e-06
0.0200002 0.04 -2.91956e-06
0.0210002 0.0399996 -4.70229e-06
0.0219998 0.0399999 -2.71856e-06
0.0230002 0.0399996 -4.65425e-06
0.0239999 0.0399998 -1.68754e-06
0.025 0.0399994 -2.90325e-06
0.0260001 0.0399995 8.39744e-07
0.0270001 0.0399997 -1.07368e-06
0.0279999 0.0399996 1.41786e-06
0.0290002 0.0399996 -1.53618e-06
0.0300004 0.0399997 1.14683e-06
0.031 0.0399999 -8.18253e-07
0.0320004 0.0399997 2.25872e-06
0.0330002 0.0399999 3.55469e-07
0.0340003 0.0399996 1.73543e-06
0.0350002 0.0399999 -1.51569e-08
0.0360002 0.0399999 1.53968e-06
0.0370002 0.04 1.00441e-06
0.0379999 0.0400001 2.16266e-06
0.0390002 0.039 5.26255e-07
0.039 0.04 7.88758e-07
0.04 -0.05 0
0.04 -0.049 0
0.0399997 -0.048 3.50506e-07
0.0400002 -0.047 -2.73257e-06
0.0399997 -0.0459998 -5.30312e-06
0.0400001 -0.0449998 -1.46597e-05
0.0400001 -0.0439999 -2.12288e-05
0.0400002 -0.0429998 -3.15153e-05
0.0400002 -0.0420001 -3.64494e-05
0.0400001 -0.0409996 -4.57699e-05
0.0400001 -0.0400001 -5.57171e-05
0.0400001 -0.0389997 -7.16063e-05
0.0400002 -0.0380002 -8.60743e-05
0.0400006 -0.0369998 -9.81239e-05
0.0400007 -0.0359999 -0.000108425
0.0400008 -0.0349998 -0.000117517
0.0400009 -0.034 -0.000132333
0.0400011 -0.0329999 -0.000143439
0.0400012 -0.0319999 -0.000157619
0.0400016 -0.0309999 -0.000165522
0.0400012 -0.0300002 -0.000175432
0.0400015 -0.029 -0.00018104
0.0400017 -0.0280003 -0.000188291
0.0400019 -0.0269997 -0.000190801
0.040002 -0.0260003 -0.000194556
0.0400019 -0.0249998 -0.000191854
0.040002 -0.0239999 -0.000188597
0.0400016 -0.0229999 -0.000178052
0.0400018 -0.0219999 -0.00016835
0.0400014 -0.0209999 -0.000156344
0.0400011 -0.0199999 -0.000143655
0.0400011 -0.0189998 -0.000124107
0.0400008 -0.0180004 -0.000100511
0.0400006 -0.0170004 -7.32573e-05
0.0400004 -0.0160008 -4.71408e-05
0.0400003 -0.0150013 -1.73978e-05
0.0399999 -0.0140014 9.5099e-06
0.0400003 -0.0130019 3.92433e-05
0.0400004 -0.0120021 6.09761e-05
0.0400004 -0.0110016 8.2528e-05
0.0400004 -0.010002 9.65472e-05
0.0400003 -0.00900165 0.000108899
0.0400005 -0.00800226 0.000112242
0.0400001 -0.00700166 0.000114716
0.0400004 -0.00600149 0.000111907
0.0400003 -0.00500126 0.000108767
0.0400002 -0.00400158 9.78058e-05
0.0400002 -0.0030013 8.69418e-05
0.0400003 -0.00200148 7.38414e-05
0.04 -0.00100172 6.3579e-05
0.0399999 -1.09575e-06 5.35189e-05
0.0399999 0.000998592 4.39268e-05
0.0399998 0.00199855 3.38242e-05
0.0400001 0.00299867 2.4008e-05
0.0399998 0.00399898 1.75312e-05
0.04 0.00499871 1.16113e-05
0.0400002 0.00599911 7.05798e-06
0.0399998 0.00699897 3.42177e-06
0.0399999 0.0079993 -2.61745e-07
0.04 0.00899872 -6.39889e-07
0.04 0.00999907 -3.90225e-06
0.0400003 0.0109992 -2.00378e-06
0.0400001 0.0119993 -4.92457e-06
0.0400001 0.0129992 -6.50516e-07
0.0400001 0.0139992 -1.28692e-06
0.04 0.0149995 4.04202e-07
0.0399999 0.0159993 1.62038e-06
0.0400001 0.0169999 3.31608e-06
0.0399999 0.0179996 5.59371e-06
0.04 0.0189991 6.92058e-06
0.0399998 0.0199992 7.5747e-06
0.0399998 0.0209993 6.40413e-06
0.0399996 0.0219994 6.85399e-06
0.0399998 0.0229993 5.59263e-06
0.0399996 0.0239994 5.12352e-06
0.0399996 0.0249993 2.03928e-06
0.0399997 0.0259993 1.41304e-06
0.0400001 0.0269994 1.52121e-06
0.0400003 0.0279997 1.46754e-06
0.0400002 0.0289995 6.92467e-07
0.0400001 0.0299995 -3.60659e-06
0.0400002 0.0309996 -4.77697e-06
0.0400004 0.0319998 -5.52349e-06
0.0400006 0.0329997 -3.55377e-07
0.0400003 0.0339997 -6.33992e-08
0.0400004 0.0349999 1.57614e-06
0.0400002 0.0359995 -1.69441e-06
0.0400001 0.0370001 3.38911e-07
0.0399999 0.038 -2.54316e-07
0.0399999 0.0389999 -3.69481e-08
-0.049 0.041 0
-0.05 0.041 0
-0.0479999 0.041 -5.77778e-08
-0.0469997 0.0410001 -1.28674e-06
-0.0459999 0.0409999 1.34624e-07
-0.045 0.0410001 -6.73078e-07
-0.044 0.0410002 1.44582e-06
-0.043 0.0410003 -4.50921e-07
-0.0419999 0.0410002 -4.73826e-07
-0.0410001 0.0410004 -3.31562e-06
-0.0400001 0.0410003 -3.46593e-06
-0.0390001 0.0410004 -4.31551e-06
-0.0380002 0.0410003 -3.54364e-06
-0.0370001 0.0410003 -2.4735e-06
-0.0359999 0.0410003 -2.18145e-06
-0.0350002 0.0409999 -3.18008e-07
-0.0339997 0.041 -8.31822e-07
-0.0329998 0.0409998 1.91413e-06
-0.0319999 0.041 5.91071e-07
-0.0309999 0.0409994 3.28735e-06
-0.0299997 0.041 8.65498e-07
-0.029 0.0409995 3.49118e-06
-0.0279998 0.0409999 1.08866e-06
-0.0269998 0.0409997 4.56363e-06
-0.0260001 0.0409997 2.01704e-06
-0.0249998 0.0409996 3.90755e-06
-0.0240001 0.0409997 -5.43587e-08
-0.0229996 0.0409996 1.18926e-06
-0.0219998 0.0409999 -8.69791e-07
-0.0209996 0.0409999 1.30691e-06
-0.0199995 0.0410002 9.87955e-07
-0.0189998 0.041 9.2888e-07
-0.0179995 0.041 1.3684e-06
-0.0169997 0.0409998 3.50332e-07
-0.0159996 0.041 1.48028e-06
-0.0149998 0.0409998 -6.6637e-08
-0.0139998 0.0410001 8.1349e-07
-0.013 0.0409998 -3.96067e-07
-0.0119998 0.041 1.13234e-06
-0.0109999 0.0409996 1.4652e-06
-0.00999985 0.0410001 2.7358e-06
-0.00899965 0.0409997 3.14305e-06
-0.00799971 0.0409999 2.92962e-06
-0.00699979 0.0409998 3.5601e-06
-0.00599977 0.0409999 2.56867e-06
-0.0049999 0.041 3.43818e-06
-0.0039998 0.0409999 2.42117e-06
-0.00299969 0.0409998 3.18826e-06
-0.00199987 0.0409997 2.37101e-06
-0.000999555 0.0409997 2.39232e-06
-1.09668e-07 0.0409995 1.78318e-06
0.00100045 0.0409997 1.99666e-06
0.002 0.0409995 2.71106e-06
0.00300044 0.0409996 2.60222e-06
0.00400008 0.0409999 2.02447e-06
0.00500035 0.0409999 -6.46021e-07
0.00600042 0.0409997 -2.01525e-06
0.00700063 0.0409998 -3.91219e-06
0.00800032 0.0409999 -3.38444e-06
0.00900006 0.0409998 -4.59996e-06
0.0100004 0.041 -3.8395e-06
0.0110002 0.0409999 -4.71892e-06
0.0120006 0.0409999 -2.80984e-06
0.0130004 0.0410002 -2.00561e-06
0.0140004 0.0409996 3.13183e-08
0.0150002 0.041 -3.11994e-07
0.0160001 0.0409994 -9.14291e-07
0.0170002 0.0409998 -2.33621e-06
0.018 0.0409995 -3.55667e-06
0.019 0.0409997 -3.91341e-06
0.0200001 0.0409995 -4.88575e-06
0.0209997 0.0409999 -4.3088e-06
0.0219999 0.0409996 -4.78403e-06
0.0229998 0.0409998 -2.66848e-06
0.0239999 0.0409997 -2.5154e-06
0.0249998 0.0409997 -1.65783e-08
0.026 0.0409996 -6.23537e-07
0.0269995 0.0409999 1.5442e-06
0.0280003 0.0409998 -8.76385e-07
0.0289999 0.0409998 3.94682e-07
0.0300001 0.0409999 -2.11637e-06
0.0310001 0.041 4.83651e-07
0.0320001 0.0410002 -4.30884e-07
0.0329999 0.041 1.41451e-06
0.0340001 0.0409998 7.76915e-08
0.0350002 0.0409997 1.05546e-06
0.0359999 0.0409998 8.11332e-07
0.0369999 0.0409998 2.25794e-06
0.0380001 0.0409999 1.41987e-06
0.0389999 0.0409997 1.26511e-06
0.0400001 0.0400001 8.27341e-07
0.0399997 0.0409999 -4.48532e-07
0.041 -0.05 0
0.041 -0.049 0
0.0409999 -0.0480003 -4.30349e-07
0.041 -0.0469998 -3.32631e-07
0.0410001 -0.0460001 -6.35647e-06
0.0409997 -0.0449999 -1.12787e-05
0.0410003 -0.0440001 -1.9652e-05
0.0410001 -0.0429998 -2.33823e-05
0.0410005 -0.0419996 -3.0185e-05
0.0410005 -0.0409999 -3.61363e-05
0.0410004 -0.0399996 -4.69494e-05
0.0410004 -0.0389998 -5.94901e-05
0.0410007 -0.0379999 -7.30958e-05
0.0410008 -0.0369997 -8.31635e-05
0.041001 -0.0359999 -9.08366e-05
0.0410009 -0.0349998 -9.93689e-05
0.0410009 -0.034 -0.000108549
0.0410011 -0.0329999 -0.000123466
0.0410013 -0.0319999 -0.000132821
0.0410015 -0.0309998 -0.000144405
0.0410018 -0.0299999 -0.000148612
0.0410017 -0.0290001 -0.000155929
0.0410021 -0.0279996 -0.000158925
0.0410018 -0.0270003 -0.000164231
0.0410019 -0.026 -0.000164818
0.0410019 -0.0250001 -0.000166051
0.0410017 -0.0239996 -0.000158769
0.0410016 -0.0229998 -0.000151842
0.0410014 -0.0219999 -0.000139784
0.0410014 -0.0209998 -0.000131619
0.0410012 -0.0200001 -0.000118324
0.041001 -0.0190002 -0.000102283
0.0410006 -0.0180001 -8.15944e-05
0.0410006 -0.0170005 -5.89326e-05
0.0410007 -0.0160004 -3.44849e-05
0.0410002 -0.0150011 -1.04793e-05
0.0410002 -0.0140012 1.55232e-05
0.0410005 -0.0130014 3.75486e-05
0.0410003 -0.0120015 5.97638e-05
0.0410002 -0.0110015 7.44972e-05
0.0410001 -0.0100015 8.92045e-05
0.0410003 -0.00900161 9.49567e-05
0.041 -0.00800143 0.000100093
0.0410002 -0.00700152 9.95615e-05
0.0410001 -0.00600148 9.93019e-05
0.0410001 -0.00500143 9.2598e-05
0.041 -0.00400134 8.55605e-05
0.0409998 -0.00300111 7.26362e-05
0.0410002 -0.00200133 6.38993e-05
0.0409997 -0.00100119 5.33537e-05
0.041 -1.15474e-06 4.54999e-05
0.0409999 0.000998633 3.65341e-05
0.0409997 0.00199901 2.75498e-05
0.0409998 0.00299899 2.13604e-05
0.041 0.00399873 1.5036e-05
0.0409999 0.00499911 1.05836e-05
0.0409998 0.005999 4.87734e-06
0.0409996 0.00699922 1.35651e-06
0.0409999 0.00799923 -1.33e-06
0.0409996 0.00899917 -3.26428e-06
0.0410002 0.00999934 -2.22829e-06
0.0409999 0.0109988 -5.37747e-06
0.0409999 0.0119992 -1.90032e-06
0.0409998 0.0129994 -3.89769e-06
0.0409997 0.0139993 -1.06841e-06
0.0409996 0.0149996 -5.85743e-07
0.0409995 0.0159997 1.47546e-06
0.0409994 0.0169993 2.6309e-06
0.0409998 0.0179995 5.10925e-06
0.0409996 0.0189994 7.23674e-06
0.0409998 0.0199994 6.96307e-06
0.0409998 0.0209996 7.37416e-06
0.041 0.0219995 4.78859e-06
0.041 0.0229993 5.53275e-06
0.0409997 0.0239996 2.6621e-06
0.0409997 0.0249993 2.48389e-06
0.0409998 0.0259996 -1.06816e-07
0.0409996 0.0269994 -8.92362e-08
0.0409999 0.0279993 3.61016e-07
0.041 0.0289996 -6.57301e-07
0.0409999 0.0299994 -1.97753e-06
0.0409998 0.0309998 -4.82402e-06
0.0409999 0.0319995 -2.87328e-06
0.0410002 0.0329997 -1.80066e-06
0.0409997 0.0339999 1.93773e-06
0.0410001 0.0349998 3.22002e-07
0.0409997 0.0360001 1.24352e-06
0.0409999 0.0369997 -7.41181e-07
0.0410002 0.0380002 8.42645e-08
0.0410004 0.039 -3.14811e-07
0.0410001 0.0400003 -2.14976e-07
-0.049 0.042 0
-0.05 0.042 0
-0.0480003 0.042 -7.54078e-07
-0.0469999 0.0419998 -1.04127e-06
-0.0460001 0.0420002 -2.56551e-06
-0.0449996 0.0420001 -7.14248e-07
-0.044 0.0420002 -1.7129e-06
-0.0429999 0.0420001 1.16149e-07
-0.0419998 0.0420004 -2.34502e-06
-0.0410002 0.042 -2.40703e-06
-0.0399998 0.0420005 -4.50199e-06
-0.039 0.0420001 -3.44808e-06
-0.0380001 0.042 -2.37865e-06
-0.037 0.042 -5.30188e-07
-0.0359997 0.0419998 7.49466e-07
-0.0350002 0.0419998 4.26508e-07
-0.0339995 0.0419997 6.23571e-07
-0.0330002 0.0420001 -8.44529e-07
-0.0319994 0.0419997 9.56893e-07
-0.0309999 0.0419998 -4.7212e-08
-0.0299997 0.0419994 2.24924e-06
-0.0289997 0.0419997 3.21216e-07
-0.0280001 0.0419995 2.62403e-06
-0.0269999 0.0419999 7.89298e-07
-0.0260003 0.0419997 3.20474e-06
-0.0249999 0.0420001 7.08519e-07
-0.0240004 0.042 2.63797e-06
-0.0229995 0.0420002 7.85919e-07
-0.022 0.0420001 3.16658e-06
-0.0209993 0.042 2.23463e-06
-0.0200003 0.0420001 3.19585e-06
-0.0189992 0.0420002 2.0015e-06
-0.0180001 0.0420001 1.10592e-06
-0.0169995 0.0420005 7.66013e-07
-0.0159998 0.042 -4.41692e-07
-0.0149999 0.0420003 -3.84234e-07
-0.0139994 0.0419999 -1.20044e-06
-0.0129998 0.0420001 -1.23702e-06
-0.0119995 0.0419996 -7.94296e-07
-0.0109998 0.0420001 -2.29932e-07
-0.00999959 0.0419997 1.27062e-06
-0.00899975 0.042 1.46268e-06
-0.0079997 0.042 2.92192e-06
-0.00699979 0.042 2.1376e-06
-0.0059999 0.042 3.7822e-06
-0.00499974 0.042 2.32354e-06
-0.00400003 0.0419998 3.33227e-06
-0.0029996 0.0419996 2.0958e-06
-0.00200001 0.0419996 2.49887e-06
-0.000999954 0.0419997 1.58924e-06
2.80014e-07 0.042 1.52539e-06
0.0010002 0.0419999 1.88739e-06
0.0020001 0.0420001 2.49039e-06
0.00300019 0.0419998 3.02465e-06
0.0040006 0.042 2.38748e-06
0.00500019 0.0419997 7.36188e-07
0.00600037 0.0419997 -1.31904e-06
0.00700009 0.0419998 -3.09202e-06
0.00800034 0.0420001 -4.49184e-06
0.00900044 0.042 -5.00695e-06
0.0100004 0.0419997 -5.17024e-06
0.0110002 0.0419996 -4.6401e-06
0.0120004 0.042 -3.05869e-06
0.0130002 0.0419995 -1.50122e-06
0.0140003 0.042 5.58477e-07
0.0150003 0.0419996 2.95391e-07
0.016 0.0419997 8.83554e-07
0.017 0.0419996 -1.57891e-06
0.0180003 0.0419998 -7.94825e-07
0.019 0.0419997 -3.47893e-06
0.0199999 0.042 -1.74265e-06
0.0209998 0.0419998 -4.06054e-06
0.0219998 0.0420001 -1.294e-06
0.023 0.0420001 -3.52027e-06
0.0239997 0.0419998 1.03966e-07
0.025 0.0419997 -1.90478e-06
0.026 0.0419997 2.11643e-06
0.0269997 0.0419999 -1.12753e-06
0.0279997 0.0419999 9.84197e-07
0.0289998 0.0419999 -4.00624e-06
0.0299997 0.0419998 -1.57483e-06
0.0309999 0.0419996 -4.747e-06
0.0319999 0.0419999 -2.85427e-07
0.033 0.0419998 -2.23077e-06
0.0339997 0.042 1.31056e-06
0.0350001 0.0420002 -2.26855e-07
0.0359995 0.0420001 3.19382e-06
0.0369999 0.0420002 2.26264e-06
0.0379997 0.0420001 4.28281e-06
0.0389998 0.0420004 1.94469e-06
0.0399999 0.0420003 2.39918e-06
0.0409999 0.0409999 4.35489e-07
0.0410001 0.0420004 1.63371e-07
0.042 -0.05 0
0.042 -0.049 0
0.0420001 -0.048 3.0446e-07
0.0419998 -0.047 -3.33678e-06
0.0419999 -0.046 -6.33452e-06
0.0419999 -0.0449997 -1.35689e-05
0.0419999 -0.0440003 -1.5441e-05
0.0420002 -0.0429995 -2.07119e-05
0.042 -0.042 -2.38893e-05
0.0419998 -0.0409997 -3.2026e-05
0.0419999 -0.0399998 -3.96132e-05
0.042 -0.0389998 -5.0396e-05
0.0420001 -0.038 -6.03111e-05
0.0420005 -0.0369998 -6.84481e-05
0.0420004 -0.0360002 -7.51009e-05
0.0420004 -0.035 -7.94047e-05
0.0420006 -0.0339997 -8.9268e-05
0.0420006 -0.0329999 -9.79813e-05
0.0420011 -0.032 -0.000110987
0.042001 -0.0309999 -0.000116994
0.042001 -0.0300003 -0.000123625
0.0420011 -0.0289997 -0.000125202
0.0420009 -0.0280002 -0.00013043
0.0420013 -0.027 -0.000132891
0.0420013 -0.026 -0.000136847
0.0420013 -0.0249998 -0.000134575
0.0420013 -0.0240003 -0.000131627
0.0420008 -0.0230001 -0.000124159
0.0420013 -0.0220002 -0.00011729
0.0420009 -0.021 -0.000108048
0.0420007 -0.0200003 -9.7071e-05
0.0420003 -0.0190003 -8.22685e-05
0.0420006 -0.0180004 -6.5543e-05
0.0420002 -0.0170007 -4.6792e-05
0.0420003 -0.0160006 -2.72361e-05
0.0420001 -0.0150008 -5.14398e-06
0.0420002 -0.014001 1.44532e-05
0.0419999 -0.0130011 3.57147e-05
0.0420004 -0.0120012 5.12145e-05
0.042 -0.0110012 6.66248e-05
0.0420003 -0.0100015 7.45264e-05
0.0420002 -0.00900132 8.20805e-05
0.0420002 -0.00800151 8.27148e-05
0.0420003 -0.007001 8.53419e-05
0.0420004 -0.00600142 8.17582e-05
0.0420001 -0.00500087 7.79924e-05
0.0420003 -0.00400143 6.761e-05
0.0420001 -0.00300094 6.02358e-05
0.0419998 -0.00200112 5.1669e-05
0.0420002 -0.00100092 4.4966e-05
0.042 -1.0436e-06 3.62336e-05
0.0419998 0.000999181 2.81131e-05
0.0419998 0.00199901 2.20694e-05
0.0420001 0.00299898 1.68389e-05
0.0419998 0.00399919 1.39759e-05
0.0419998 0.00499909 8.17285e-06
0.0419994 0.00599937 4.01496e-06
0.0419999 0.00699895 -7.18652e-07
0.0419998 0.00799965 -2.25785e-06
0.0420001 0.00899917 -2.98453e-06
0.042 0.00999945 -3.53754e-06
0.0420001 0.0109994 -2.43918e-06
0.0419999 0.0119996 -3.96921e-06
0.0420001 0.0129995 -2.06948e-06
0.042 0.0139995 -1.99561e-06
0.0419999 0.0149994 -9.97668e-07
0.0419997 0.0159993 7.37716e-07
0.042 0.0169998 1.40476e-06
0.0419999 0.0179995 3.45856e-06
0.0419998 0.0189993 4.76013e-06
0.0419999 0.0199994 6.5064e-06
0.042 0.0209995 5.10678e-06
0.0420001 0.0219996 4.73389e-06
0.0420002 0.0229997 3.24287e-06
0.0419999 0.0239994 2.9698e-06
0.0419998 0.0249997 1.37222e-06
0.0419999 0.0259992 2.54796e-07
0.042 0.0269993 -5.3763e-07
0.0420001 0.0279997 -1.13164e-06
0.0420002 0.0289998 -1.12547e-07
0.0420003 0.0299994 -1.60751e-06
0.0420001 0.0309998 -1.11632e-06
0.0420005 0.0319998 -2.81833e-06
0.0420003 0.0329996 -1.407e-07
0.0420005 0.0339999 -3.36323e-07
0.042 0.0349998 1.62915e-06
0.042 0.0359998 -6.04856e-07
0.0419999 0.0369998 3.73084e-08
0.0420003 0.038 -1.08685e-06
0.0419998 0.0389999 -8.12649e-07
0.042 0.0400003 1.25667e-06
0.0419998 0.041 1.50013e-07
-0.049 0.043 0
-0.05 0.043 0
-0.048 0.0430001 -3.98128e-07
-0.0470002 0.0430002 -2.04553e-06
-0.0460003 0.0429999 -2.02436e-06
-0.045 0.0429999 -3.34254e-06
-0.0439997 0.0429999 -1.8027e-06
-0.0430001 0.0430002 -2.59067e-06
-0.0419998 0.0430001 -1.78154e-06
-0.0409999 0.0430006 -3.17239e-06
-0.0399998 0.0430001 -2.84104e-06
-0.039 0.0430004 -2.69235e-06
-0.0379999 0.0430001 -1.04045e-06
-0.037 0.0430002 1.09526e-06
-0.0360001 0.0430002 1.67914e-06
-0.035 0.0429999 2.21805e-06
-0.0340001 0.0430002 -2.7936e-08
-0.0329998 0.0429999 2.28009e-07
-0.032 0.0429999 -1.85221e-06
-0.0309996 0.0429997 2.07216e-07
-0.0299996 0.0429997 -1.48451e-06
-0.029 0.0429995 1.34254e-06
-0.0279998 0.0429998 -8.01602e-07
-0.0270001 0.0429993 2.35968e-06
-0.0259999 0.0429998 -3.1547e-07
-0.0249999 0.0429995 2.65326e-06
-0.0239999 0.0429996 -1.19105e-07
-0.0229999 0.0429997 3.34189e-06
-0.0219998 0.0429996 1.58356e-06
-0.021 0.0429998 4.74854e-06
-0.0199997 0.0430001 3.24195e-06
-0.0189997 0.043 3.64526e-06
-0.0179993 0.043 1.49426e-06
-0.0169998 0.0429999 3.0899e-07
-0.0159994 0.0430002 -1.2615e-06
-0.015 0.0429997 -1.66439e-06
-0.0139996 0.0430001 -1.94063e-06
-0.0129995 0.0429997 -1.68089e-06
-0.0119996 0.0430001 -1.65231e-06
-0.0109997 0.0429999 -5.91039e-07
-0.00999958 0.043 -8.87951e-08
-0.00899978 0.0429996 1.73423e-06
-0.00799976 0.0429999 1.9707e-06
-0.00699991 0.0429999 3.68961e-06
-0.0059999 0.0430001 2.59815e-06
-0.00499994 0.0430001 3.19034e-06
-0.0039997 0.043 1.40987e-06
-0.00300004 0.0429999 1.71031e-06
-0.00199963 0.0429999 8.58584e-07
-0.00100019 0.0429997 1.26988e-06
-3.59649e-08 0.0429997 5.66262e-07
0.0010003 0.0429999 8.77567e-07
0.00199982 0.0429996 1.38494e-06
0.00300023 0.0430001 2.50011e-06
0.00400009 0.0429996 2.89004e-06
0.00500026 0.043 1.78817e-06
0.00600008 0.0429997 -3.72487e-07
0.00700041 0.043 -2.81411e-06
0.00800015 0.0429998 -4.56572e-06
0.00900005 0.0429999 -5.49554e-06
0.0100004 0.0429997 -4.94932e-06
0.0109999 0.0430001 -3.96935e-06
0.0120005 0.0429999 -2.33135e-06
0.0130003 0.0430003 -9.50155e-07
0.0140004 0.0429999 -1.39654e-07
0.0150002 0.0430003 5.73269e-07
0.0160002 0.0429999 -9.21568e-08
0.0170003 0.0430002 2.25556e-07
0.0180003 0.0429997 -1.24043e-06
0.0189998 0.043 -2.59023e-07
0.0200003 0.0429996 -1.78047e-06
0.0209998 0.043 -3.51989e-08
0.0220001 0.0429998 -2.07787e-06
0.0229998 0.043 3.72075e-07
0.0240002 0.0429998 -1.68276e-06
0.0249995 0.0429997 1.42777e-06
0.0260001 0.0429998 -9.53794e-07
0.0269999 0.0429998 2.02252e-06
0.028 0.0429997 -2.13909e-06
0.0289997 0.0429999 -1.5183e-07
0.0300002 0.0429998 -4.55309e-06
0.0309995 0.0430003 -1.40018e-06
0.0320001 0.0430002 -3.46656e-06
0.0329997 0.0430001 5.44684e-07
0.0339998 0.043 -7.24406e-07
0.0349998 0.0429999 2.58384e-06
0.0359997 0.043 1.43702e-06
0.0369997 0.0429999 4.29482e-06
0.0379997 0.043 2.79913e-06
0.0389996 0.043 4.38363e-06
0.0399998 0.0429999 1.9193e-06
0.0409999 0.0430003 2.36831e-06
0.0419998 0.0420004 1.48393e-06
0.0419999 0.0429999 -4.46956e-07
0.043 -0.05 0
0.043 -0.049 0
0.0429999 -0.048 -1.43103e-06
0.0429998 -0.0469997 -2.75729e-06
0.0429998 -0.0460004 -8.03777e-06
0.0430001 -0.0449997 -1.06191e-05
0.043 -0.0440002 -1.38986e-05
0.043 -0.043 -1.4353e-05
0.0430004 -0.0419999 -1.89658e-05
0.0430001 -0.0409996 -2.46241e-05
0.0430003 -0.0399998 -3.31415e-05
0.0430005 -0.0389999 -4.04768e-05
0.0430005 -0.0380003 -4.75905e-05
0.0430005 -0.0369995 -5.24114e-05
0.0430005 -0.0360002 -5.70335e-05
0.0430008 -0.0349998 -6.1985e-05
0.0430005 -0.0339999 -6.72251e-05
0.0430009 -0.0329998 -7.70437e-05
0.0430008 -0.0320003 -8.38907e-05
0.0430011 -0.0309999 -9.32095e-05
0.0430012 -0.0299999 -9.45449e-05
0.0430008 -0.0290002 -9.81218e-05
0.0430011 -0.0279996 -9.89602e-05
0.0430011 -0.027 -0.000103808
0.0430011 -0.0259999 -0.000104528
0.0430013 -0.025 -0.000105464
0.0430009 -0.0239999 -0.000100399
0.0430014 -0.0230003 -9.81013e-05
0.0430009 -0.0220004 -9.12378e-05
0.0430013 -0.0210003 -8.57523e-05
0.0430008 -0.0200004 -7.41815e-05
0.0430006 -0.0190001 -6.28267e-05
0.0430005 -0.0180004 -4.97863e-05
0.0430007 -0.0170004 -3.61471e-05
0.0430002 -0.0160007 -1.95657e-05
0.0430003 -0.0150008 -3.06456e-06
0.0430001 -0.014001 1.46118e-05
0.0430001 -0.0130007 2.89838e-05
0.0430002 -0.0120009 4.37722e-05
0.0430004 -0.0110008 5.22738e-05
0.0430002 -0.0100011 6.05669e-05
0.0430001 -0.00900096 6.31831e-05
0.043 -0.00800114 6.7401e-05
0.0429999 -0.00700098 6.79069e-05
0.0429998 -0.00600089 6.70783e-05
0.0429997 -0.00500078 5.94221e-05
0.0429999 -0.00400117 5.23808e-05
0.0429996 -0.00300043 4.43314e-05
0.0429998 -0.002001 4.03182e-05
0.0429999 -0.00100085 3.42906e-05
0.0430001 -9.06998e-07 2.81736e-05
0.0429998 0.000999196 2.11983e-05
0.0430001 0.00199935 1.56224e-05
0.0429997 0.00299915 1.34044e-05
0.043 0.00399971 9.88278e-06
0.0429999 0.0049991 7.2974e-06
0.0429996 0.00599929 2.04974e-06
0.0429997 0.00699955 -4.35947e-07
0.0429997 0.00799912 -3.15362e-06
0.043 0.00899944 -3.11624e-06
0.0430003 0.00999949 -1.78804e-06
0.0429999 0.0109996 -2.82203e-06
0.0430001 0.0119996 -1.00562e-06
0.0429997 0.0129994 -2.73372e-06
0.0429999 0.0139994 -1.82359e-06
0.0429996 0.0149996 -4.70861e-07
0.0429999 0.0159996 1.9523e-07
0.0429996 0.0169993 6.8167e-07
0.0429998 0.0179996 9.77217e-07
0.0429997 0.0189996 2.98662e-06
0.0429998 0.0199994 3.44697e-06
0.043 0.0209998 4.68002e-06
0.0430001 0.0219997 2.14662e-06
0.0430002 0.0229995 2.63533e-06
0.0429999 0.0239996 7.62926e-07
0.043 0.0249996 2.34933e-06
0.0429999 0.0259997 6.45286e-07
0.043 0.0269998 -2.93408e-07
0.0429999 0.0279996 -1.21848e-06
0.0429999 0.0289998 -1.08685e-06
0.0429997 0.0299997 9.01499e-08
0.043 0.0309996 -2.76373e-07
0.0429997 0.0319998 -1.33418e-07
0.0430001 0.0329997 -1.15922e-06
0.0429999 0.0339998 5.33911e-08
0.0430003 0.0349997 -4.31466e-07
0.0429997 0.0359998 6.11679e-07
0.043 0.0369996 -1.00438e-06
0.043 0.038 -9.63792e-07
0.0430003 0.039 -1.14103e-07
0.0430001 0.0400002 1.16481e-06
0.0430001 0.0410001 2.16983e-06
0.0430001 0.0420002 1.33584e-07
-0.049 0.044 0
-0.05 0.044 0
-0.0480001 0.0440002 -5.38499e-07
-0.0469998 0.0440001 -1.09655e-06
-0.0460002 0.0440001 -2.83667e-06
-0.045 0.044 -2.75993e-06
-0.0440003 0.0440002 -3.8376e-06
-0.0429998 0.0440001 -2.56355e-06
-0.0419997 0.0440003 -2.58309e-06
-0.0410001 0.044 -1.56532e-06
-0.0399996 0.0440003 -1.76247e-06
-0.0389999 0.0439998 -1.34167e-06
-0.0379995 0.044 -2.84499e-07
-0.0369998 0.0439999 6.38609e-07
-0.0359996 0.0439997 2.10443e-06
-0.0349999 0.0439998 1.341e-06
-0.0339996 0.0439998 1.41398e-06
-0.0330002 0.0439998 -1.05017e-06
-0.0319996 0.0439997 -5.74513e-07
-0.0310001 0.0439997 -2.82147e-06
-0.0299996 0.0439999 -1.24626e-06
-0.0289999 0.0440001 -2.47047e-06
-0.0279997 0.0439996 5.82674e-07
-0.027 0.044 -5.79527e-08
-0.0260001 0.0439999 2.57647e-06
-0.0249999 0.044 6.95932e-07
-0.0240002 0.0439999 2.72914e-06
-0.0229998 0.0440001 1.08007e-06
-0.0220002 0.0439999 3.68296e-06
-0.0209997 0.0440002 2.80725e-06
-0.0200001 0.044 5.03993e-06
-0.0189993 0.0440002 3.87769e-06
-0.018 0.044 3.55413e-06
-0.0169994 0.0440001 1.17723e-06
-0.0159997 0.0440001 -5.36207e-07
-0.0149998 0.0440002 -1.62385e-06
-0.0139994 0.0439997 -1.29107e-06
-0.0129997 0.0440001 -1.01423e-06
-0.0119994 0.0439998 -2.67147e-07
-0.0109995 0.0440001 -3.16059e-07
-0.00999976 0.0439998 6.21848e-07
-0.00899968 0.0439999 1.06596e-06
-0.0079999 0.0439998 2.82142e-06
-0.0069999 0.0439999 2.85733e-06
-0.00600004 0.0439999 3.77704e-06
-0.00499988 0.044 1.90053e-06
-0.00400029 0.0439999 1.51816e-06
-0.00299984 0.0440001 2.46059e-07
-0.00200006 0.0439996 9.14167e-07
-0.000999903 0.0439999 9.19137e-07
-9.71767e-08 0.0439999 1.11678e-06
0.00099987 0.0439997 1.11002e-06
0.00200018 0.0439999 1.35861e-06
0.00300016 0.0439998 2.19874e-06
0.00400012 0.044 2.74257e-06
0.00500002 0.0439999 2.55415e-06
0.00600027 0.0440001 9.83813e-07
0.00700028 0.0440002 -4.9969e-07
0.00800032 0.0440001 -2.56354e-06
0.00899999 0.0439999 -2.29447e-06
0.0100001 0.0440001 -2.38406e-06
0.011 0.0439998 -7.74075e-07
0.0120003 0.0440001 -9.08505e-07
0.0130004 0.0439998 -1.65908e-07
0.0140002 0.0440001 -9.62651e-07
0.0150003 0.0439995 -2.24893e-07
0.0160004 0.044 -4.00138e-07
0.017 0.0439996 -1.52757e-07
0.0180003 0.0440002 -5.60882e-07
0.019 0.0439999 -8.00631e-07
0.0199999 0.0440002 -8.70002e-08
0.021 0.0439998 1.93054e-07
0.0219999 0.0440001 1.01899e-06
0.0229999 0.0439996 5.61244e-08
0.0239998 0.044 6.93348e-07
0.0250001 0.0439996 -3.2511e-07
0.0259999 0.044 1.00226e-06
0.027 0.0439998 -2.13021e-07
0.0280002 0.0440002 8.15048e-07
0.0290002 0.0439996 -9.6632e-07
0.0299998 0.0440001 -3.16846e-08
0.0310001 0.0439997 -1.72865e-06
0.032 0.0440002 2.54632e-08
0.0329998 0.0440002 -2.25492e-07
0.0339998 0.0440003 1.60917e-06
0.0349999 0.0440002 1.43133e-06
0.0359999 0.0440004 2.00962e-06
0.0369999 0.044 1.78456e-06
0.0380001 0.0440003 2.51e-06
0.0389996 0.0439999 2.83165e-06
0.0399999 0.0440004 2.96661e-06
0.0409999 0.0440003 1.77688e-06
0.0419998 0.0440006 1.09143e-06
0.0430004 0.0430001 1.30478e-07
0.0430001 0.0440003 -3.6458e-07
0.044 -0.05 0
0.044 -0.049 0
0.0440001 -0.048 -3.6778e-07
0.0440001 -0.0470003 -4.31536e-06
0.0440002 -0.0459999 -5.342e-06
0.0439998 -0.0449998 -8.6517e-06
0.0439999 -0.0440002 -6.78077e-06
0.0440001 -0.0429995 -8.36976e-06
0.0439999 -0.042 -1.01274e-05
0.0440001 -0.0409995 -1.71925e-05
0.0440001 -0.04 -2.27542e-05
0.0440002 -0.0389995 -2.84516e-05
0.0440002 -0.0380003 -3.16736e-05
0.0440001 -0.0369996 -3.52067e-05
0.0440002 -0.0360001 -3.94851e-05
0.0440003 -0.0349997 -4.32563e-05
0.0439999 -0.0339998 -4.90347e-05
0.0440003 -0.0330001 -5.39232e-05
0.0440006 -0.0319998 -6.21415e-05
0.0440006 -0.0309996 -6.53862e-05
0.0440004 -0.0299997 -6.91601e-05
0.0440002 -0.0289997 -6.83801e-05
0.0440002 -0.0280003 -7.19136e-05
0.0440003 -0.0270001 -7.37853e-05
0.0440005 -0.0260001 -7.59871e-05
0.0440006 -0.0249998 -7.36521e-05
0.0440006 -0.0240001 -7.11663e-05
0.0440005 -0.0230001 -6.83623e-05
0.0440006 -0.0220004 -6.51342e-05
0.0440005 -0.0210002 -6.00696e-05
0.0440002 -0.0200002 -5.21722e-05
0.0440002 -0.0190006 -4.40916e-05
0.0440004 -0.0180005 -3.42682e-05
0.0440001 -0.0170003 -2.41268e-05
0.0439999 -0.0160004 -1.16617e-05
0.0440002 -0.0150008 1.0176e-06
0.0440002 -0.0140007 1.19576e-05
0.044 -0.0130005 2.34451e-05
0.0440004 -0.012001 3.17652e-05
0.0440003 -0.0110002 3.99688e-05
0.0440001 -0.010001 4.2651e-05
0.0440002 -0.00900037 4.75715e-05
0.0440001 -0.00800084 4.825e-05
0.0439999 -0.00700045 5.1937e-05
0.0440001 -0.00600088 4.80699e-05
0.0439999 -0.0050006 4.3484e-05
0.0439998 -0.00400066 3.49626e-05
0.0439997 -0.00300025 3.11062e-05
0.0439998 -0.00200087 2.75903e-05
0.0439998 -0.00100066 2.50422e-05
0.0439997 -9.00382e-07 1.94597e-05
0.0439996 0.000999531 1.4211e-05
0.0439997 0.00199943 1.06863e-05
0.0439999 0.00299939 8.21498e-06
0.0439997 0.00399939 7.55512e-06
0.044 0.00499916 4.56628e-06
0.0439996 0.00599977 2.75108e-06
0.0439998 0.0069993 -1.0635e-06
0.044 0.00799989 -2.32286e-06
0.0440002 0.00899931 -3.23699e-06
0.044 0.00999954 -2.78106e-06
0.0440001 0.0109996 -1.24344e-06
0.0439999 0.0119997 -2.19436e-06
0.044 0.0129995 -1.32354e-06
0.0439997 0.0139996 -1.61695e-06
0.0439998 0.0149999 -4.16511e-07
0.044 0.0159997 5.05771e-07
0.0439998 0.0169996 7.15332e-08
0.0439999 0.0179995 -3.84709e-07
0.044 0.0189995 2.20905e-07
0.0440001 0.0199997 2.16884e-06
0.0440002 0.0209998 2.48782e-06
0.0440001 0.0219996 1.76461e-06
0.0440001 0.023 6.25951e-07
0.044 0.0239995 7.72375e-07
0.0439998 0.0249999 2.07379e-06
0.044 0.0259999 2.14569e-06
0.0440001 0.0269998 1.11859e-06
0.0440003 0.0279998 -1.34392e-06
0.0439998 0.0289998 -4.85218e-07
0.0440002 0.0299996 -2.55804e-07
0.0440001 0.0309998 1.4651e-06
0.0440003 0.0319997 -7.96904e-07
0.044 0.0329996 -7.98211e-07
0.0440003 0.0339998 -1.88732e-06
0.044 0.0349999 -1.32891e-08
0.0439999 0.0359997 -6.59343e-07
0.044 0.0369996 -4.58779e-07
0.0440001 0.0380001 -1.24179e-06
0.044 0.0389998 -6.21423e-07
0.0440001 0.0400001 2.27328e-06
0.0440001 0.0409999 1.54094e-06
0.0439999 0.0420003 1.70621e-06
0.0439999 0.0429999 -1.4548e-06
-0.049 0.045 0
-0.05 0.045 0
-0.0479999 0.0450002 -9.3448e-08
-0.0470002 0.0450001 -8.06752e-07
-0.046 0.0450001 -1.10374e-06
-0.0450001 0.0449998 -2.6053e-06
-0.0440001 0.0449997 -2.36989e-06
-0.0429999 0.0449999 -3.16981e-06
-0.0419997 0.045 -1.65505e-06
-0.0409999 0.0450004 -1.49375e-06
-0.0399997 0.0450001 -3.28718e-07
-0.0389998 0.0450004 -6.62112e-07
-0.0379997 0.045 -1.03068e-07
-0.037 0.0450001 3.31354e-07
-0.0359998 0.0450002 1.12811e-06
-0.0350001 0.0450001 1.63586e-06
-0.0339999 0.0450001 1.49844e-06
-0.033 0.0450001 1.28771e-06
-0.0319998 0.0449999 -1.58146e-07
-0.0309999 0.045 -9.28174e-07
-0.0299999 0.0449999 -2.70962e-06
-0.0289998 0.0449997 -1.45788e-06
-0.028 0.0449998 -1.22626e-06
-0.0270001 0.0449997 1.85031e-06
-0.0259999 0.0449999 1.20619e-06
-0.0250001 0.0449998 2.59922e-06
-0.0239998 0.0449999 2.07665e-07
-0.023 0.0449997 1.39807e-06
-0.0219997 0.0449998 1.75157e-09
-0.0210001 0.0449999 2.33868e-06
-0.0199998 0.045 2.40268e-06
-0.0189999 0.0449998 3.8753e-06
-0.0179995 0.0450002 2.68226e-06
-0.0169999 0.0449999 1.60235e-06
-0.0159993 0.0450003 -7.77927e-07
-0.0149999 0.0449998 -1.22856e-06
-0.0139996 0.0450002 -1.35533e-06
-0.0129998 0.0449997 4.15492e-09
-0.0119995 0.0450001 3.24304e-07
-0.0109998 0.0449998 9.19462e-07
-0.00999951 0.045 5.28877e-07
-0.00899991 0.045 1.31733e-06
-0.00799976 0.0450001 1.67449e-06
-0.00699987 0.045 2.9019e-06
-0.00600003 0.0450001 2.07858e-06
-0.00500001 0.0449999 1.55056e-06
-0.00400014 0.0450002 -2.38798e-07
-0.00300015 0.0449999 -3.99017e-07
-0.00199981 0.045 -7.14854e-08
-0.00100014 0.0449997 1.21439e-06
-3.60394e-08 0.045 1.63777e-06
0.00100017 0.0449998 1.62464e-06
0.00199994 0.0449997 1.3176e-06
0.003 0.0449997 1.59917e-06
0.00400026 0.0449996 2.18565e-06
0.00500021 0.0449996 2.44724e-06
0.00600004 0.0449997 1.95715e-06
0.00700012 0.0449998 1.20732e-06
0.00800025 0.0449999 5.11738e-07
0.00899998 0.0450001 4.63744e-07
0.0100004 0.045 1.28739e-06
0.0109996 0.0450001 1.46436e-06
0.0120004 0.0449998 1.45868e-06
0.0130001 0.0450002 -1.25022e-07
0.0140002 0.0449998 -7.25553e-07
0.0150003 0.0450003 -1.25287e-06
0.0159999 0.0449997 -5.91797e-07
0.0170002 0.0450002 -7.95527e-07
0.018 0.0449998 -1.17369e-06
0.0189998 0.0450002 -1.43543e-06
0.0200001 0.0449998 -1.12219e-06
0.0209997 0.045 1.22109e-07
0.0220001 0.0449999 6.03376e-08
0.0229996 0.045 7.1712e-07
0.0240004 0.0450001 -5.50437e-07
0.0249995 0.045 1.0859e-09
0.0260004 0.045 -1.26201e-06
0.027 0.0450001 9.52431e-08
0.0280001 0.045 -6.1733e-07
0.0290001 0.0450002 1.27104e-06
0.0300001 0.0449999 3.53762e-08
0.0309997 0.0450004 5.35729e-07
0.0320001 0.0450001 -7.52364e-07
0.033 0.0450001 4.11696e-07
0.0339998 0.0450001 6.64793e-07
0.0350003 0.0449999 1.37539e-06
0.0359998 0.045 4.00238e-07
0.037 0.045 2.031e-07
0.0379999 0.0450001 -4.91963e-08
0.0390001 0.0450002 8.9954e-07
0.0399999 0.0450001 1.15783e-06
0.0410002 0.0450001 1.39593e-06
0.0419999 0.045 8.80173e-07
0.0430002 0.0450001 1.0309e-06
0.0439999 0.0440004 -5.78835e-08
0.0439999 0.045 7.4611e-07
0.045 -0.05 0
0.045 -0.049 0
0.0449999 -0.048 -1.3662e-06
0.0450001 -0.0469998 -2.20441e-06
0.045 -0.0460001 -4.76925e-06
0.0449999 -0.0449996 -3.92576e-06
0.045 -0.0440004 -3.6023e-06
0.045 -0.0429998 -1.82754e-06
0.045 -0.0420002 -5.02118e-06
0.0450002 -0.0409997 -8.82664e-06
0.0450006 -0.04 -1.45074e-05
0.0450004 -0.0389994 -1.60035e-05
0.0450004 -0.0379999 -1.85033e-05
0.0450002 -0.0369997 -1.93002e-05
0.0450003 -0.0359999 -2.33323e-05
0.0450002 -0.0349997 -2.60729e-05
0.0450003 -0.0339998 -3.03087e-05
0.045 -0.0329998 -3.45325e-05
0.0450006 -0.0320002 -3.84256e-05
0.0450004 -0.0309998 -4.18658e-05
0.0450005 -0.03 -4.16859e-05
0.0450003 -0.0290002 -4.27154e-05
0.0450004 -0.0279998 -4.48378e-05
0.0450004 -0.0270002 -4.75138e-05
0.0450006 -0.0260001 -4.77344e-05
0.0450006 -0.0250005 -4.52172e-05
0.0450004 -0.0240002 -4.2682e-05
0.0450005 -0.0230003 -4.05821e-05
0.0450005 -0.0220003 -3.97971e-05
0.0450006 -0.0210004 -3.62237e-05
0.0450004 -0.0200005 -3.28388e-05
0.0450006 -0.0190005 -2.57281e-05
0.0450001 -0.0180008 -2.10955e-05
0.0450006 -0.0170006 -1.17719e-05
0.0450001 -0.0160006 -4.87592e-06
0.0450005 -0.0150005 3.73058e-06
0.0450002 -0.0140008 9.19731e-06
0.0450003 -0.0130006 1.57991e-05
0.0450002 -0.0120008 2.18802e-05
0.0449999 -0.0110005 2.56908e-05
0.0449998 -0.0100009 2.85915e-05
0.0449997 -0.00900032 2.93931e-05
0.0449999 -0.00800076 3.18921e-05
0.0449999 -0.00700024 3.27334e-05
0.045 -0.00600038 3.13878e-05
0.0449999 -0.00499992 2.58774e-05
0.0449999 -0.00400052 2.08238e-05
0.045 -0.00300036 1.76208e-05
0.0450001 -0.00200057 1.66407e-05
0.0449998 -0.00100047 1.52028e-05
0.0449998 -5.03575e-07 1.24572e-05
0.0449997 0.000999451 9.41806e-06
0.045 0.00199958 6.06839e-06
0.0450001 0.00299969 5.15941e-06
0.0450001 0.00399979 3.57129e-06
0.0449998 0.00499964 3.60287e-06
0.0450002 0.00599962 1.43007e-06
0.0449998 0.00699964 2.75728e-07
0.0449996 0.00799948 -2.74371e-06
0.0449999 0.00899955 -3.18664e-06
0.0449999 0.0099998 -2.55961e-06
0.045 0.0109998 -2.51879e-06
0.045 0.0119997 -9.03191e-07
0.0449999 0.0129998 -1.8727e-06
0.0449998 0.0139997 -1.35578e-06
0.0449999 0.0149998 -1.71569e-08
0.045 0.0159997 6.48968e-07
0.0449997 0.017 8.4977e-08
0.0449999 0.0179998 -8.44804e-07
0.0449998 0.0189996 -7.08989e-07
0.0449997 0.0199997 5.43894e-07
0.0450002 0.0209996 1.76875e-06
0.0450001 0.0219996 5.01466e-07
0.0450002 0.0229999 -2.07415e-07
0.0450003 0.0239999 -2.89989e-07
0.0450002 0.0249998 2.40297e-06
0.045 0.0259999 3.33744e-06
0.045 0.0269999 1.77711e-06
0.045 0.0279998 -2.29663e-09
0.0449998 0.0289998 -1.14952e-06
0.0449997 0.0299998 4.38282e-07
0.0450002 0.0309997 1.76752e-07
0.045 0.0319998 -2.4037e-07
0.0450002 0.0329999 -1.91769e-06
0.0449999 0.0339999 -1.26021e-06
0.0450002 0.0349999 -8.94568e-07
0.0449999 0.0359998 5.90904e-07
0.0450002 0.0369997 -5.2567e-07
0.0449999 0.038 -9.45082e-07
0.0449998 0.0389998 -2.69151e-07
0.045 0.0400001 1.07961e-06
0.0450001 0.0409998 2.3579e-06
0.045 0.0420001 7.35077e-07
0.045 0.043 1.61958e-07
0.045 0.0440002 -3.81958e-07
-0.049 0.046 0
-0.05 0.046 0
-0.0479999 0.046 -1.36547e-07
-0.0469999 0.0460002 -1.90053e-07
-0.0460002 0.0460001 -6.87551e-07
-0.0449998 0.0459999 -1.16615e-06
-0.044 0.0460002 -1.79392e-06
-0.0429997 0.0459999 -1.97437e-06
-0.042 0.0460002 -1.23382e-06
-0.0409999 0.046 -8.02083e-07
-0.0399997 0.0460002 1.30242e-07
-0.0390001 0.0459999 -4.34895e-07
-0.0379995 0.0460002 1.10822e-07
-0.037 0.0459999 -6.65017e-07
-0.0359996 0.046 6.55091e-07
-0.0349999 0.0459999 2.70817e-07
-0.0339995 0.046 1.97778e-06
-0.0330001 0.046 8.89146e-07
-0.0319998 0.0459999 1.69096e-06
-0.0309999 0.0459999 -1.02915e-06
-0.0299999 0.0459998 -7.88244e-07
-0.029 0.046 -2.29814e-06
-0.0280001 0.0459999 4.10279e-07
-0.027 0.046 5.63371e-07
-0.0260003 0.0459998 2.68962e-06
-0.025 0.0459998 8.81665e-07
-0.0240001 0.0459996 1.21438e-06
-0.0230001 0.0459999 -8.79436e-07
-0.0220002 0.0459999 1.3235e-07
-0.0209998 0.0460002 -3.91576e-07
-0.0199998 0.0460003 1.475e-06
-0.0189997 0.0460002 1.6083e-06
-0.0179999 0.0460001 1.91994e-06
-0.0169996 0.0460002 8.34365e-07
-0.0159999 0.0459998 -5.64834e-07
-0.0149999 0.0460001 -1.04402e-06
-0.0139997 0.0459998 -9.70209e-07
-0.0130001 0.046 2.67225e-07
-0.0119998 0.0460001 6.66533e-07
-0.0109998 0.0460002 1.1277e-06
-0.00999974 0.0459999 4.31503e-07
-0.00899977 0.046 7.15706e-07
-0.00799982 0.0459998 8.17258e-07
-0.0069999 0.0459999 1.42784e-06
-0.00600006 0.0459999 1.29846e-06
-0.00500001 0.0460002 4.78567e-07
-0.00399999 0.046 -4.48828e-07
-0.00299999 0.0460001 -5.96979e-07
-0.0020001 0.046 2.05376e-07
-0.00100003 0.0459998 1.73214e-06
-9.6338e-08 0.0459998 2.49011e-06
0.000999874 0.0459999 2.92109e-06
0.00200014 0.0459999 2.1977e-06
0.00300001 0.046 2.3071e-06
0.00400031 0.0459997 2.09652e-06
0.00499985 0.0460001 2.97322e-06
0.00600033 0.0460002 2.56717e-06
0.00700028 0.0459999 3.32045e-06
0.00800008 0.0460002 2.21613e-06
0.00900007 0.046 3.48481e-06
0.0100001 0.046 2.69484e-06
0.0110001 0.0459998 4.0521e-06
0.0120002 0.0460001 2.03237e-06
0.013 0.0459997 2.11784e-06
0.0140002 0.0460001 -4.57696e-07
0.015 0.0460001 6.78695e-07
0.0160003 0.0460003 -4.77651e-07
0.0170001 0.0459999 7.18338e-07
0.0180001 0.0460002 -1.26569e-06
0.0190001 0.046 -7.83531e-07
0.02 0.0460001 -1.4878e-06
0.0210001 0.046 1.33734e-07
0.0219998 0.046 -1.25207e-07
0.023 0.0459998 1.95756e-07
0.024 0.0459996 -9.64051e-07
0.0250002 0.0459999 -1.35839e-06
0.0260001 0.0459998 -2.0943e-06
0.027 0.046 -1.79262e-06
0.0280001 0.0459999 -1.1704e-06
0.0289999 0.046 -2.09901e-07
0.03 0.0459999 -8.83601e-09
0.0310002 0.0459999 -6.61992e-07
0.032 0.046 -1.14539e-06
0.033 0.0460001 -6.4725e-07
0.034 0.0460002 4.07782e-08
0.0350001 0.0460003 7.46292e-07
0.0359998 0.0459999 -2.18187e-07
0.037 0.0460001 -6.00116e-07
0.0380002 0.0459998 -1.37451e-06
0.0389999 0.0459999 -4.55392e-07
0.0400001 0.0460002 -2.39807e-07
0.0410002 0.0460002 5.07466e-07
0.0420002 0.0460003 8.70808e-07
0.0430004 0.0460002 1.45035e-06
0.0440003 0.0460002 1.86722e-06
0.0450002 0.0450002 1.08495e-06
0.0450004 0.046 1.63706e-06
0.046 -0.05 0
0.046 -0.049 0
0.0460001 -0.0479999 -2.06945e-08
0.0459999 -0.047 -2.11066e-06
0.0460002 -0.0459998 -1.68424e-06
0.0459999 -0.0449999 -2.27102e-06
0.0459999 -0.0440001 4.60691e-07
0.0459998 -0.0429999 4.2267e-07
0.0459999 -0.042 -1.30836e-07
0.0460002 -0.0409997 -3.9837e-06
0.046 -0.04 -5.54258e-06
0.0460001 -0.0389997 -6.66481e-06
0.0460001 -0.038 -6.25101e-06
0.0459999 -0.0369995 -7.65499e-06
0.0459998 -0.0359999 -9.12556e-06
0.046 -0.0349998 -1.12515e-05
0.0459998 -0.0339996 -1.32551e-05
0.0459999 -0.0330003 -1.58311e-05
0.0459998 -0.0319999 -1.83844e-05
0.046 -0.0309999 -1.80601e-05
0.0459999 -0.03 -1.81914e-05
0.0460001 -0.0289998 -1.81085e-05
0.0459996 -0.028 -2.10061e-05
0.046 -0.0270001 -2.30843e-05
0.0459997 -0.0260005 -2.25861e-05
0.0460001 -0.0250002 -2.06165e-05
0.0460002 -0.0240003 -1.81526e-05
0.0459999 -0.0230003 -1.87043e-05
0.0459999 -0.0220003 -1.76611e-05
0.0460001 -0.0210004 -1.7386e-05
0.0460001 -0.0200002 -1.38225e-05
0.046 -0.0190006 -1.2052e-05
0.0459999 -0.0180001 -7.11033e-06
0.046 -0.0170005 -3.92176e-06
0.046 -0.0160003 1.39138e-06
0.0459999 -0.0150005 3.5594e-06
0.0460001 -0.0140006 6.39262e-06
0.0459999 -0.0130002 8.77603e-06
0.0460004 -0.0120004 1.20278e-05
0.0460003 -0.0109999 1.41485e-05
0.0460002 -0.0100004 1.42169e-05
0.0460003 -0.00900005 1.52409e-05
0.0460002 -0.00800093 1.49589e-05
0.046 -0.00700021 1.66336e-05
0.0459999 -0.00600044 1.43343e-05
0.0459998 -0.00500051 1.18354e-05
0.0459997 -0.00400013 8.63092e-06
0.0459998 -0.00300013 7.56498e-06
0.0459999 -0.0020002 7.27229e-06
0.0459997 -0.0010003 7.36216e-06
0.0459999 -4.15503e-07 6.15504e-06
0.0459999 0.000999822 4.50686e-06
0.0459995 0.00199972 3.19635e-06
0.046 0.00299981 1.75353e-06
0.0459999 0.00399964 1.92651e-06
0.046 0.00499979 1.3214e-06
0.0459998 0.00599988 1.6948e-06
0.0459999 0.00699986 -2.94206e-07
0.0459998 0.00799981 -1.27543e-06
0.0460001 0.00899967 -2.57551e-06
0.0460003 0.0099997 -2.46608e-06
0.046 0.0109998 -1.38064e-06
0.0460004 0.012 -1.51198e-06
0.046 0.0129999 -8.09629e-07
0.046 0.0139997 -9.34051e-07
0.0460001 0.0150001 -1.39989e-08
0.046 0.0159999 7.28967e-07
0.0460002 0.017 4.76304e-07
0.0460001 0.0179995 -5.9065e-07
0.0459999 0.0189997 -8.34113e-07
0.046 0.0199998 1.72535e-07
0.046 0.0209995 7.21482e-07
0.0460002 0.0219997 2.62604e-08
0.046 0.0229999 -9.81555e-07
0.0459999 0.0239998 -4.74015e-07
0.0459999 0.0249999 1.55258e-06
0.046 0.026 2.78897e-06
0.046 0.0269998 2.08077e-06
0.046 0.0279998 2.92074e-08
0.0459998 0.0289998 -3.84854e-07
0.0460001 0.0299999 -2.2097e-07
0.0459999 0.0309999 3.86781e-07
0.0460001 0.0319999 -8.56805e-07
0.0459998 0.0329999 -1.33728e-06
0.046 0.034 -1.23333e-06
0.0460001 0.0349999 2.49348e-08
0.046 0.036 4.05327e-07
0.046 0.0369997 5.30553e-09
0.0460001 0.0380001 -5.12028e-07
0.0459999 0.0389999 -7.57708e-07
0.046 0.04 1.10183e-06
0.0460001 0.0410001 8.49988e-07
0.046 0.0420004 1.47132e-06
0.0459999 0.043 -5.15767e-07
0.0460001 0.0440001 2.13628e-07
0.0460002 0.0450001 4.41225e-07
-0.049 0.047 0
-0.05 0.047 0
-0.0480001 0.0470001 -5.81718e-08
-0.047 0.0470002 -2.46952e-08
-0.0459998 0.0469999 1.00298e-08
-0.045 0.047 -3.77652e-07
-0.0439999 0.0469999 -3.47998e-07
-0.043 0.0469999 -7.30168e-07
-0.042 0.047 -2.89169e-07
-0.0409999 0.047 -2.45644e-07
-0.0399999 0.0470001 2.10177e-07
-0.0389999 0.0470001 -3.01143e-08
-0.0379997 0.0470001 -4.58543e-09
-0.0370001 0.0470002 -1.8766e-07
-0.0359997 0.047 2.69665e-08
-0.035 0.0470001 1.98191e-07
-0.0339999 0.047 5.9981e-07
-0.0329999 0.0470002 7.80643e-07
-0.032 0.047 5.8696e-07
-0.0310002 0.0470001 9.62062e-08
-0.0300001 0.0470001 -6.41655e-07
-0.029 0.047 -5.41546e-07
-0.0280001 0.047 -3.32315e-07
-0.027 0.047 6.94585e-07
-0.0259999 0.047 6.79883e-07
-0.0250001 0.0469998 8.78747e-07
-0.0239999 0.0470001 -5.28754e-08
-0.0230001 0.0469999 -2.43866e-08
-0.0219999 0.047 -5.5798e-07
-0.0209999 0.0469999 -3.93264e-08
-0.0199999 0.0469998 1.36181e-07
-0.0189999 0.0470001 5.71688e-07
-0.0179996 0.047 6.23267e-07
-0.0169999 0.0469999 2.94329e-07
-0.0159998 0.0470001 -1.01009e-07
-0.015 0.0469999 -4.48433e-07
-0.0139998 0.047 -1.41e-07
-0.0130001 0.047 5.7265e-08
-0.0119999 0.047 5.81944e-07
-0.011 0.0469999 3.05942e-07
-0.01 0.047 3.73679e-07
-0.00899988 0.047 -8.31949e-08
-0.00799984 0.0470002 2.47626e-07
-0.00699989 0.047 1.61146e-07
-0.00600008 0.0470002 3.09004e-07
-0.00499992 0.047 -1.77869e-07
-0.00400012 0.047 -2.69889e-07
-0.00300004 0.047 -5.22596e-07
-0.00199992 0.0470001 2.41291e-07
-0.00100004 0.047 7.21764e-07
5.34017e-08 0.047 1.55464e-06
0.000999921 0.047 1.42685e-06
0.00199993 0.0469998 1.47162e-06
0.00299992 0.0469999 1.05529e-06
0.00400027 0.0469998 1.2795e-06
0.00500003 0.0469997 1.35435e-06
0.00600027 0.0469999 1.60186e-06
0.00700021 0.047 1.64852e-06
0.00800013 0.047 1.65112e-06
0.00900001 0.0470002 1.61592e-06
0.0100001 0.0469999 1.78726e-06
0.0109997 0.0470001 1.62545e-06
0.0120002 0.0470001 1.48443e-06
0.0129999 0.0469999 7.08355e-07
0.0140002 0.0470001 4.16793e-07
0.015 0.047 1.60114e-07
0.0160001 0.0469999 3.88682e-07
0.0169999 0.047 2.24499e-07
0.0180001 0.0469997 -1.51785e-07
0.0189998 0.0470001 -4.82848e-07
0.02 0.0469997 -6.18356e-07
0.0209998 0.0470002 -1.5179e-07
0.022 0.0469998 -3.04047e-07
0.0229997 0.0470002 -1.29552e-07
0.0240002 0.0469999 -1.01991e-06
0.0249997 0.0469999 -1.03104e-06
0.0260001 0.0470002 -1.90001e-06
0.027 0.047 -1.30456e-06
0.0279999 0.0470001 -1.49259e-06
0.0289999 0.0470002 -3.83306e-07
0.03 0.0470001 -8.39627e-07
0.031 0.0469999 -5.54834e-07
0.0320001 0.0470001 -1.22843e-06
0.033 0.0469999 -5.87308e-07
0.0340001 0.0470001 -4.1733e-07
0.0349998 0.0469999 1.49553e-07
0.036 0.0470001 -4.31279e-07
0.0369998 0.0469997 -5.87973e-07
0.038 0.047 -1.05366e-06
0.039 0.047 -5.7256e-07
0.04 0.0469999 -4.46805e-07
0.0410001 0.0470001 1.4742e-07
0.0420001 0.0470001 3.97879e-07
0.0430001 0.0469997 1.02324e-06
0.0440002 0.0470001 9.75925e-07
0.0450001 0.047 1.11885e-06
0.0460002 0.0460001 9.87964e-07
0.0460004 0.047 5.51641e-07
0.047 -0.05 0
0.047 -0.049 0
0.047 -0.048 -4.3291e-07
0.0470001 -0.0470002 -2.5804e-07
0.0470003 -0.0459999 -8.13909e-07
0.047 -0.0449999 -2.11734e-07
0.0469999 -0.0440001 3.00058e-07
0.0469999 -0.0429998 1.05045e-06
0.0469999 -0.0420003 2.02588e-07
0.0470001 -0.0409999 -4.60097e-07
0.0470001 -0.04 -1.45604e-06
0.0469997 -0.0389998 -8.29017e-07
0.0469999 -0.0379998 -1.141e-06
0.047 -0.0369999 -1.06286e-06
0.0469999 -0.0359997 -1.90686e-06
0.0470001 -0.0350001 -2.22042e-06
0.0470002 -0.0340001 -3.05332e-06
0.0470001 -0.0329998 -3.84154e-06
0.0469999 -0.0319999 -4.21388e-06
0.0469999 -0.0309998 -4.47104e-06
0.047 -0.03 -3.30038e-06
0.047 -0.0290002 -3.91278e-06
0.0470003 -0.0280002 -5.05956e-06
0.0470001 -0.0270003 -5.94806e-06
0.0470001 -0.026 -6.15604e-06
0.0469998 -0.0250003 -4.54465e-06
0.0470001 -0.024 -4.89459e-06
0.047 -0.0230002 -3.93519e-06
0.0470002 -0.022 -5.04189e-06
0.0470001 -0.0210002 -3.49534e-06
0.0470003 -0.0199999 -3.89759e-06
0.0470002 -0.019 -1.64221e-06
0.0470001 -0.0179999 -1.8535e-06
0.0470001 -0.0170001 9.81748e-07
0.0470001 -0.0160002 7.95342e-07
0.0470003 -0.0150001 2.49406e-06
0.0470001 -0.0140002 1.64975e-06
0.0470002 -0.0130002 3.17988e-06
0.0469998 -0.0120003 3.57234e-06
0.047 -0.011 4.41854e-06
0.0469998 -0.0100003 4.40425e-06
0.0469999 -0.0089999 3.94015e-06
0.0469998 -0.0080002 4.51875e-06
0.0469998 -0.0070002 4.12424e-06
0.047 -0.00600032 4.03701e-06
0.0470001 -0.00500011 2.88923e-06
0.0470001 -0.00400018 2.10049e-06
0.0470001 -0.00300016 1.84481e-06
0.0470003 -0.00200009 1.95752e-06
0.047 -0.00100017 2.06029e-06
0.0470001 -1.22478e-07 1.73999e-06
0.0470001 0.000999774 1.57796e-06
0.0470001 0.00199979 6.70111e-07
0.0470001 0.00299997 6.53929e-07
0.0470002 0.0039998 2.05768e-07
0.0469999 0.00499998 6.19735e-07
0.047 0.00599992 2.15805e-07
0.0469999 0.00699981 3.81325e-07
0.0469998 0.00799979 -8.35892e-07
0.047 0.00899994 -8.54972e-07
0.0469999 0.00999989 -9.47679e-07
0.0469999 0.0109999 -8.68156e-07
0.047 0.0119999 -3.62771e-07
0.0469999 0.0130002 -4.66037e-07
0.0469998 0.0139998 -5.02045e-07
0.0469999 0.0150001 8.97973e-08
0.0469999 0.0159999 2.42368e-07
0.047 0.0169999 1.70047e-07
0.0469997 0.018 -2.25906e-07
0.0469999 0.0189997 -3.03966e-07
0.047 0.0199999 -1.03207e-07
0.0469999 0.0209997 3.3297e-07
0.0470002 0.0219997 -5.15529e-08
0.0470002 0.023 -3.87203e-07
0.0470001 0.0239998 -3.43478e-07
0.047 0.0249999 7.04452e-07
0.0470001 0.0259999 1.34126e-06
0.0470001 0.0269997 8.46231e-07
0.0469999 0.0280001 2.98734e-07
0.0469999 0.029 -3.37859e-07
0.0469997 0.03 2.02945e-07
0.047 0.0310001 -2.67312e-07
0.0470001 0.032 -2.26838e-07
0.047 0.0330001 -7.43074e-07
0.047 0.0339999 -2.44299e-07
0.0470002 0.035 -2.91659e-07
0.047 0.0360001 4.29347e-07
0.0470001 0.0369999 -1.23112e-07
0.0469999 0.038 -2.31986e-07
0.047 0.0389998 -3.80721e-07
0.047 0.04 1.32695e-07
0.0469999 0.041 5.08409e-07
0.047 0.0420002 2.93864e-07
0.047 0.0430001 1.2322e-07
0.047 0.0440003 -9.34587e-08
0.0469999 0.045 1.8677e-07
0.0470001 0.0459999 2.82351e-07
-0.049 0.048 0
-0.05 0.048 0
-0.048 0.048 0
-0.047 0.048 0
-0.046 0.048 0
-0.045 0.048 0
-0.044 0.048 0
-0.043 0.048 0
-0.042 0.048 0
-0.041 0.048 0
-0.04 0.048 0
-0.039 0.048 0
-0.038 0.048 0
-0.037 0.048 0
-0.036 0.048 0
-0.035 0.048 0
-0.034 0.048 0
-0.033 0.048 0
-0.032 0.048 0
-0.031 0.048 0
-0.03 0.048 0
-0.029 0.048 0
-0.028 0.048 0
-0.027 0.048 0
-0.026 0.048 0
-0.025 0.048 0
-0.024 0.048 0
-0.023 0.048 0
-0.022 0.048 0
-0.021 0.048 0
-0.02 0.048 0
-0.019 0.048 0
-0.018 0.048 0
-0.017 0.048 0
-0.016 0.048 0
-0.015 0.048 0
-0.014 0.048 0
-0.013 0.048 0
-0.012 0.048 0
-0.011 0.048 0
-0.01 0.048 0
-0.009 0.048 0
-0.008 0.048 0
-0.007 0.048 0
-0.006 0.048 0
-0.005 0.048 0
-0.004 0.048 0
-0.003 0.048 0
-0.002 0.048 0
-0.001 0.048 0
3.46945e-17 0.048 0
0.001 0.048 0
0.002 0.048 0
0.003 0.048 0
0.004 0.048 0
0.005 0.048 0
0.006 0.048 0
0.007 0.048 0
0.008 0.048 0
0.009 0.048 0
0.01 0.048 0
0.011 0.048 0
0.012 0.048 0
0.013 0.048 0
0.014 0.048 0
0.015 0.048 0
0.016 0.048 0
0.017 0.048 0
0.018 0.048 0
0.019 0.048 0
0.02 0.048 0
0.021 0.048 0
0.022 0.048 0
0.023 0.048 0
0.024 0.048 0
0.025 0.048 0
0.026 0.048 0
0.027 0.048 0
0.028 0.048 0
0.029 0.048 0
0.03 0.048 0
0.031 0.048 0
0.032 0.048 0
0.033 0.048 0
0.034 0.048 0
0.035 0.048 0
0.036 0.048 0
0.037 0.048 0
0.038 0.048 0
0.039 0.048 0
0.04 0.048 0
0.041 0.048 0
0.042 0.048 0
0.043 0.048 0
0.044 0.048 0
0.045 0.048 0
0.046 0.048 0
0.0470001 0.0470001 2.14688e-07
0.047 0.048 0
0.048 -0.05 0
0.048 -0.049 0
0.048 -0.048 0
0.048 -0.047 0
0.048 -0.046 0
0.048 -0.045 0
0.048 -0.044 0
0.048 -0.043 0
0.048 -0.042 0
0.048 -0.041 0
0.048 -0.04 0
0.048 -0.039 0
0.048 -0.038 0
0.048 -0.037 0
0.048 -0.036 0
0.048 -0.035 0
0.048 -0.034 0
0.048 -0.033 0
0.048 -0.032 0
0.048 -0.031 0
0.048 -0.03 0
0.048 -0.029 0
0.048 -0.028 0
0.048 -0.027 0
0.048 -0.026 0
0.048 -0.025 0
0.048 -0.024 0
0.048 -0.023 0
0.048 -0.022 0
0.048 -0.021 0
0.048 -0.02 0
0.048 -0.019 0
0.048 -0.018 0
0.048 -0.017 0
0.048 -0.016 0
0.048 -0.015 0
0.048 -0.014 0
0.048 -0.013 0
0.048 -0.012 0
0.048 -0.011 0
0.048 -0.01 0
0.048 -0.009 0
0.048 -0.008 0
0.048 -0.007 0
0.048 -0.006 0
0.048 -0.005 0
0.048 -0.004 0
0.048 -0.003 0
0.048 -0.002 0
0.048 -0.001 0
0.048 3.46945e-17 0
0.048 0.001 0
0.048 0.002 0
0.048 0.003 0
0.048 0.004 0
0.048 0.005 0
0.048 0.006 0
0.048 0.007 0
0.048 0.008 0
0.048 0.009 0
0.048 0.01 0
0.048 0.011 0
0.048 0.012 0
0.048 0.013 0
0.048 0.014 0
0.048 0.015 0
0.048 0.016 0
0.048 0.017 0
0.048 0.018 0
0.048 0.019 0
0.048 0.02 0
0.048 0.021 0
0.048 0.022 0
0.048 0.023 0
0.048 0.024 0
0.048 0.025 0
0.048 0.026 0
0.048 0.027 0
0.048 0.028 0
0.048 0.029 0
0.048 0.03 0
0.048 0.031 0
0.048 0.032 0
0.048 0.033 0
0.048 0.034 0
0.048 0.035 0
0.048 0.036 0
0.048 0.037 0
0.048 0.038 0
0.048 0.039 0
0.048 0.04 0
0.048 0.041 0
0.048 0.042 0
0.048 0.043 0
0.048 0.044 0
0.048 0.045 0
0.048 0.046 0
0.048 0.047 0
-0.049 0.049 0
-0.05 0.049 0
-0.048 0.049 0
-0.047 0.049 0
-0.046 0.049 0
-0.045 0.049 0
-0.044 0.049 0
-0.043 0.049 0
-0.042 0.049 0
-0.041 0.049 0
-0.04 0.049 0
-0.039 0.049 0
-0.038 0.049 0
-0.037 0.049 0
-0.036 0.049 0
-0.035 0.049 0
-0.034 0.049 0
-0.033 0.049 0
-0.032 0.049 0
-0.031 0.049 0
-0.03 0.049 0
-0.029 0.049 0
-0.028 0.049 0
-0.027 0.049 0
-0.026 0.049 0
-0.025 0.049 0
-0.024 0.049 0
-0.023 0.049 0
-0.022 0.049 0
-0.021 0.049 0
-0.02 0.049 0
-0.019 0.049 0
-0.018 0.049 0
-0.017 0.049 0
-0.016 0.049 0
-0.015 0.049 0
-0.014 0.049 0
-0.013 0.049 0
-0.012 0.049 0
-0.011 0.049 0
-0.01 0.049 0
-0.009 0.049 0
-0.008 0.049 0
-0.007 0.049 0
-0.006 0.049 0
-0.005 0.049 0
-0.004 0.049 0
-0.003 0.049 0
-0.002 0.049 0
-0.001 0.049 0
3.46945e-17 0.049 0
0.001 0.049 0
0.002 0.049 0
0.003 0.049 0
0.004 0.049 0
0.005 0.049 0
0.006 0.049 0
0.007 0.049 0
0.008 0.049 0
0.009 0.049 0
0.01 0.049 0
0.011 0.049 0
0.012 0.049 0
0.013 0.049 0
0.014 0.049 0
0.015 0.049 0
0.016 0.049 0
0.017 0.049 0
0.018 0.049 0
0.019 0.049 0
0.02 0.049 0
0.021 0.049 0
0.022 0.049 0
0.023 0.049 0
0.024 0.049 0
0.025 0.049 0
0.026 0.049 0
0.027 0.049 0
0.028 0.049 0
0.029 0.049 0
0.03 0.049 0
0.031 0.049 0
0.032 0.049 0
0.033 0.049 0
0.034 0.049 0
0.035 0.049 0
0.036 0.049 0
0.037 0.049 0
0.038 0.049 0
0.039 0.049 0
0.04 0.049 0
0.041 0.049 0
0.042 0.049 0
0.043 0.049 0
0.044 0.049 0
0.045 0.049 0
0.046 0.049 0
0.047 0.049 0
0.048 0.048 0
0.048 0.049 0
0.049 -0.05 0
0.049 -0.049 0
0.049 -0.048 0
0.049 -0.047 0
0.049 -0.046 0
0.049 -0.045 0
0.049 -0.044 0
0.049 -0.043 0
0.049 -0.042 0
0.049 -0.041 0
0.049 -0.04 0
0.049 -0.039 0
0.049 -0.038 0
0.049 -0.037 0
0.049 -0.036 0
0.049 -0.035 0
0.049 -0.034 0
0.049 -0.033 0
0.049 -0.032 0
0.049 -0.031 0
0.049 -0.03 0
0.049 -0.029 0
0.049 -0.028 0
0.049 -0.027 0
0.049 -0.026 0
0.049 -0.025 0
0.049 -0.024 0
0.049 -0.023 0
0.049 -0.022 0
0.049 -0.021 0
0.049 -0.02 0
0.049 -0.019 0
0.049 -0.018 0
0.049 -0.017 0
0.049 -0.016 0
0.049 -0.015 0
0.049 -0.014 0
0.049 -0.013 0
0.049 -0.012 0
0.049 -0.011 0
0.049 -0.01 0
0.049 -0.009 0
0.049 -0.008 0
0.049 -0.007 0
0.049 -0.006 0
0.049 -0.005 0
0.049 -0.004 0
0.049 -0.003 0
0.049 -0.002 0
0.049 -0.001 0
0.049 3.46945e-17 0
0.049 0.001 0
0.049 0.002 0
0.049 0.003 0
0.049 0.004 0
0.049 0.005 0
0.049 0.006 0
0.049 0.007 0
0.049 0.008 0
0.049 0.009 0
0.049 0.01 0
0.049 0.011 0
0.049 0.012 0
0.049 0.013 0
0.049 0.014 0
0.049 0.015 0
0.049 0.016 0
0.049 0.017 0
0.049 0.018 0
0.049 0.019 0
0.049 0.02 0
0.049 0.021 0
0.049 0.022 0
0.049 0.023 0
0.049 0.024 0
0.049 0.025 0
0.049 0.026 0
0.049 0.027 0
0.049 0.028 0
0.049 0.029 0
0.049 0.03 0
0.049 0.031 0
0.049 0.032 0
0.049 0.033 0
0.049 0.034 0
0.049 0.035 0
0.049 0.036 0
0.049 0.037 0
0.049 0.038 0
0.049 0.039 0
0.049 0.04 0
0.049 0.041 0
0.049 0.042 0
0.049 0.043 0
0.049 0.044 0
0.049 0.045 0
0.049 0.046 0
0.049 0.047 0
0.049 0.048 0
-0.049 0.05 0
-0.05 0.05 0
-0.048 0.05 0
-0.047 0.05 0
-0.046 0.05 0
-0.045 0.05 0
-0.044 0.05 0
-0.043 0.05 0
-0.042 0.05 0
-0.041 0.05 0
-0.04 0.05 0
-0.039 0.05 0
-0.038 0.05 0
-0.037 0.05 0
-0.036 0.05 0
-0.035 0.05 0
-0.034 0.05 0
-0.033 0.05 0
-0.032 0.05 0
-0.031 0.05 0
-0.03 0.05 0
-0.029 0.05 0
-0.028 0.05 0
-0.027 0.05 0
-0.026 0.05 0
-0.025 0.05 0
-0.024 0.05 0
-0.023 0.05 0
-0.022 0.05 0
-0.021 0.05 0
-0.02 0.05 0
-0.019 0.05 0
-0.018 0.05 0
-0.017 0.05 0
-0.016 0.05 0
-0.015 0.05 0
-0.014 0.05 0
-0.013 0.05 0
-0.012 0.05 0
-0.011 0.05 0
-0.01 0.05 0
-0.009 0.05 0
-0.008 0.05 0
-0.007 0.05 0
-0.006 0.05 0
-0.005 0.05 0
-0.004 0.05 0
-0.003 0.05 0
-0.002 0.05 0
-0.001 0.05 0
3.46945e-17 0.05 0
0.001 0.05 0
0.002 0.05 0
0.003 0.05 0
0.004 0.05 0
0.005 0.05 0
0.006 0.05 0
0.007 0.05 0
0.008 0.05 0
0.009 0.05 0
0.01 0.05 0
0.011 0.05 0
0.012 0.05 0
0.013 0.05 0
0.014 0.05 0
0.015 0.05 0
0.016 0.05 0
0.017 0.05 0
0.018 0.05 0
0.019 0.05 0
0.02 0.05 0
0.021 0.05 0
0.022 0.05 0
0.023 0.05 0
0.024 0.05 0
0.025 0.05 0
0.026 0.05 0
0.027 0.05 0
0.028 0.05 0
0.029 0.05 0
0.03 0.05 0
0.031 0.05 0
0.032 0.05 0
0.033 0.05 0
0.034 0.05 0
0.035 0.05 0
0.036 0.05 0
0.037 0.05 0
0.038 0.05 0
0.039 0.05 0
0.04 0.05 0
0.041 0.05 0
0.042 0.05 0
0.043 0.05 0
0.044 0.05 0
0.045 0.05 0
0.046 0.05 0
0.047 0.05 0
0.048 0.05 0
0.049 0.049 0
0.049 0.05 0
0.05 -0.05 0
0.05 -0.049 0
0.05 -0.048 0
0.05 -0.047 0
0.05 -0.046 0
0.05 -0.045 0
0.05 -0.044 0
0.05 -0.043 0
0.05 -0.042 0
0.05 -0.041 0
0.05 -0.04 0
0.05 -0.039 0
0.05 -0.038 0
0.05 -0.037 0
0.05 -0.036 0
0.05 -0.035 0
0.05 -0.034 0
0.05 -0.033 0
0.05 -0.032 0
0.05 -0.031 0
0.05 -0.03 0
0.05 -0.029 0
0.05 -0.028 0
0.05 -0.027 0
0.05 -0.026 0
0.05 -0.025 0
0.05 -0.024 0
0.05 -0.023 0
0.05 -0.022 0
0.05 -0.021 0
0.05 -0.02 0
0.05 -0.019 0
0.05 -0.018 0
0.05 -0.017 0
0.05 -0.016 0
0.05 -0.015 0
0.05 -0.014 0
0.05 -0.013 0
0.05 -0.012 0
0.05 -0.011 0
0.05 -0.01 0
0.05 -0.009 0
0.05 -0.008 0
0.05 -0.007 0
0.05 -0.006 0
0.05 -0.005 0
0.05 -0.004 0
0.05 -0.003 0
0.05 -0.002 0
0.05 -0.001 0
0.05 3.46945e-17 0
0.05 0.001 0
0.05 0.002 0
0.05 0.003 0
0.05 0.004 0
0.05 0.005 0
0.05 0.006 0
0.05 0.007 0
0.05 0.008 0
0.05 0.009 0
0.05 0.01 0
0.05 0.011 0
0.05 0.012 0
0.05 0.013 0
0.05 0.014 0
0.05 0.015 0
0.05 0.016 0
0.05 0.017 0
0.05 0.018 0
0.05 0.019 0
0.05 0.02 0
0.05 0.021 0
0.05 0.022 0
0.05 0.023 0
0.05 0.024 0
0.05 0.025 0
0.05 0.026 0
0.05 0.027 0
0.05 0.028 0
0.05 0.029 0
0.05 0.03 0
0.05 0.031 0
0.05 0.032 0
0.05 0.033 0
0.05 0.034 0
0.05 0.035 0
0.05 0.036 0
0.05 0.037 0
0.05 0.038 0
0.05 0.039 0
0.05 0.04 0
0.05 0.041 0
0.05 0.042 0
0.05 0.043 0
0.05 0.044 0
0.05 0.045 0
0.05 0.046 0
0.05 0.047 0
0.05 0.048 0
0.05 0.049 0
0.05 0.05 0
0.033847 -0.0193583 0.000891664
0.0345103 -0.0194873 0.000483578
0.0344517 -0.0188239 0.00030721
0.0337494 -0.018781 0.000794034
0.0340619 -0.0199357 0.0011066
0.0346393 -0.0201506 0.000891664
0.0352166 -0.0202482 0.000794034
0.0351736 -0.0195458 0.00030721
0.0344517 -0.0181606 0.00030721
0.0337494 -0.0182036 0.000794034
0.0351541 -0.0188435 9.98058e-05
0.0351541 -0.0181411 9.98058e-05
0.035794 -0.0202482 0.000794034
0.035837 -0.0195458 0.00030721
0.0358565 -0.0188435 9.98058e-05
0.0345103 -0.0174973 0.000483578
0.033847 -0.0176263 0.000891664
0.0351736 -0.0174387 0.00030721
0.0358565 -0.0181411 9.98058e-05
0.035837 -0.0174387 0.00030721
0.0363713 -0.0201506 0.000891664
0.0365003 -0.0194873 0.000483578
0.0365589 -0.0188239 0.00030721
0.0365589 -0.0181606 0.00030721
0.0346393 -0.016834 0.000891664
0.0340619 -0.0170489 0.0011066
0.0352166 -0.0167363 0.000794034
0.035794 -0.0167363 0.000794034
0.0365003 -0.0174973 0.000483578
0.0363713 -0.016834 0.000891664
0.0369487 -0.0199357 0.0011066
0.0371636 -0.0193583 0.000891664
0.0372612 -0.018781 0.000794034
0.0372612 -0.0182036 0.000794034
0.0371636 -0.0176263 0.000891664
0.0369487 -0.0170489 0.0011066
0.0355053 -0.0184923 0.000507425

CELLS 10061 50233
2 10237 10205
2 10237 10206
2 10237 10207
2 10237 10213
2 10237 10221
2 10237 10231
2 10237 10201
2 10237 10202
2 10237 10208
2 10237 10214
2 10237 10222
2 10237 10232
2 10237 10204
2 10237 10203
2 10237 10211
2 10237 10215
2 10237 10223
2 10237 10233
2 10237 10210
2 10237 10209
2 10237 10212
2 10237 10219
2 10237 10224
2 10237 10234
2 10237 10217
2 10237 10216
2 10237 10218
2 10237 10220
2 10237 10229
2 10237 10235
2 10237 10226
2 10237 10225
2 10237 10227
2 10237 10228
2 10237 10230
2 10237 10236
4 0 1 2 3
4 4 5 1 0
4 5 6 7 1
4 3 2 8 9
4 1 7 10 2
4 2 10 11 8
4 6 12 13 7
4 7 13 14 10
4 9 8 15 16
4 8 11 17 15
4 10 14 18 11
4 11 18 19 17
4 12 20 21 13
4 13 21 22 14
4 14 22 23 18
4 16 15 24 25
4 15 17 26 24
4 17 19 27 26
4 18 23 28 19
4 19 28 29 27
4 20 30 31 21
4 21 31 32 22
4 22 32 33 23
4 23 33 34 28
4 25 24 35 36
4 24 26 37 35
4 26 27 38 37
4 27 29 39 38
4 28 34 40 29
4 29 40 41 39
4 30 42 43 31
4 31 43 44 32
4 32 44 45 33
4 33 45 46 34
4 34 46 47 40
4 36 35 48 49
4 35 37 50 48
4 37 38 51 50
4 38 39 52 51
4 39 41 53 52
4 40 47 54 41
4 41 54 55 53
4 42 56 57 43
4 43 57 58 44
4 44 58 59 45
4 45 59 60 46
4 46 60 61 47
4 47 61 62 54
4 49 48 63 64
4 48 50 65 63
4 50 51 66 65
4 51 52 67 66
4 52 53 68 67
4 53 55 69 68
4 54 62 70 55
4 55 70 71 69
4 56 72 73 57
4 57 73 74 58
4 58 74 75 59
4 59 75 76 60
4 60 76 77 61
4 61 77 78 62
4 62 78 79 70
4 64 63 80 81
4 63 65 82 80
4 65 66 83 82
4 66 67 84 83
4 67 68 85 84
4 68 69 86 85
4 69 71 87 86
4 70 79 88 71
4 71 88 89 87
4 72 90 91 73
4 73 91 92 74
4 74 92 93 75
4 75 93 94 76
4 76 94 95 77
4 77 95 96 78
4 78 96 97 79
4 79 97 98 88
4 81 80 99 100
4 80 82 101 99
4 82 83 102 101
4 83 84 103 102
4 84 85 104 103
4 85 86 105 104
4 86 87 106 105
4 87 89 107 106
4 88 98 108 89
4 89 108 109 107
4 90 110 111 91
4 91 111 112 92
4 92 112 113 93
4 93 113 114 94
4 94 114 115 95
4 95 115 116 96
4 96 116 117 97
4 97 117 118 98
4 98 118 119 108
4 100 99 120 121
4 99 101 122 120
4 101 102 123 122
4 102 103 124 123
4 103 104 125 124
4 104 105 126 125
4 105 106 127 126
4 106 107 128 127
4 107 109 129 128
4 108 119 130 109
4 109 130 131 129
4 110 132 133 111
4 111 133 134 112
4 112 134 135 113
4 113 135 136 114
4 114 136 137 115
4 115 137 138 116
4 116 138 139 117
4 117 139 140 118
4 118 140 141 119
4 119 141 142 130
4 121 120 143 144
4 120 122 145 143
4 122 123 146 145
4 123 124 147 146
4 124 125 148 147
4 125 126 149 148
4 126 127 150 149
4 127 128 151 150
4 128 129 152 151
4 129 131 153 152
4 130 142 154 131
4 131 154 155 153
4 132 156 157 133
4 133 157 158 134
4 134 158 159 135
4 135 159 160 136
4 136 160 161 137
4 137 161 162 138
4 138 162 163 139
4 139 163 164 140
4 140 164 165 141
4 141 165 166 142
4 142 166 167 154
4 144 143 168 169
4 143 145 170 168
4 145 146 171 170
4 146 147 172 171
4 147 148 173 172
4 148 149 174 173
4 149 150 175 174
4 150 151 176 175
4 151 152 177 176
4 152 153 178 177
4 153 155 179 178
4 154 167 180 155
4 155 180 181 179
4 156 182 183 157
4 157 183 184 158
4 158 184 185 159
4 159 185 186 160
4 160 186 187 161
4 161 187 188 162
4 162 188 189 163
4 163 189 190 164
4 164 190 191 165
4 165 191 192 166
4 166 192 193 167
4 167 193 194 180
4 169 168 195 196
4 168 170 197 195
4 170 171 198 197
4 171 172 199 198
4 172 173 200 199
4 173 174 201 200
4 174 175 202 201
4 175 176 203 202
4 176 177 204 203
4 177 178 205 204
4 178 179 206 205
4 179 181 207 206
4 180 194 208 181
4 181 208 209 207
4 182 210 211 183
4 183 211 212 184
4 184 212 213 185
4 185 213 214 186
4 186 214 215 187
4 187 215 216 188
4 188 216 217 189
4 189 217 218 190
4 190 218 219 191
4 191 219 220 192
4 192 220 221 193
4 193 221 222 194
4 194 222 223 208
4 196 195 224 225
4 195 197 226 224
4 197 198 227 226
4 198 199 228 227
4 199 200 229 228
4 200 201 230 229
4 201 202 231 230
4 202 203 232 231
4 203 204 233 232
4 204 205 234 233
4 205 206 235 234
4 206 207 236 235
4 207 209 237 236
4 208 223 238 209
4 209 238 239 237
4 210 240 241 211
4 211 241 242 212
4 212 242 243 213
4 213 243 244 214
4 214 244 245 215
4 215 245 246 216
4 216 246 247 217
4 217 247 248 218
4 218 248 249 219
4 219 249 250 220
4 220 250 251 221
4 221 251 252 222
4 222 252 253 223
4 223 253 254 238
4 225 224 255 256
4 224 226 257 255
4 226 227 258 257
4 227 228 259 258
4 228 229 260 259
4 229 230 261 260
4 230 231 262 261
4 231 232 263 262
4 232 233 264 263
4 233 234 265 264
4 234 235 266 265
4 235 236 267 266
4 236 237 268 267
4 237 239 269 268
4 238 254 270 239
4 239 270 271 269
4 240 272 273 241
4 241 273 274 242
4 242 274 275 243
4 243 275 276 244
4 244 276 277 245
4 245 277 278 246
4 246 278 279 247
4 247 279 280 248
4 248 280 281 249
4 249 281 282 250
4 250 282 283 251
4 251 283 284 252
4 252 284 285 253
4 253 285 286 254
4 254 286 287 270
4 256 255 288 289
4 255 257 290 288
4 257 258 291 290
4 258 259 292 291
4 259 260 293 292
4 260 261 294 293
4 261 262 295 294
4 262 263 296 295
4 263 264 297 296
4 264 265 298 297
4 265 266 299 298
4 266 267 300 299
4 267 268 301 300
4 268 269 302 301
4 269 271 303 302
4 270 287 304 271
4 271 304 305 303
4 272 306 307 273
4 273 307 308 274
4 274 308 309 275
4 275 309 310 276
4 276 310 311 277
4 277 311 312 278
4 278 312 313 279
4 279 313 314 280
4 280 314 315 281
4 281 315 316 282
4 282 316 317 283
4 283 317 318 284
4 284 318 319 285
4 285 319 320 286
4 286 320 321 287
4 287 321 322 304
4 289 288 323 324
4 288 290 325 323
4 290 291 326 325
4 291 292 327 326
4 292 293 328 327
4 293 294 329 328
4 294 295 330 329
4 295 296 331 330
4 296 297 332 331
4 297 298 333 332
4 298 299 334 333
4 299 300 335 334
4 300 301 336 335
4 301 302 337 336
4 302 303 338 337
4 303 305 339 338
4 304 322 340 305
4 305 340 341 339
4 306 342 343 307
4 307 343 344 308
4 308 344 345 309
4 309 345 346 310
4 310 346 347 311
4 311 347 348 312
4 312 348 349 313
4 313 349 350 314
4 314 350 351 315
4 315 351 352 316
4 316 352 353 317
4 317 353 354 318
4 318 354 355 319
4 319 355 356 320
4 320 356 357 321
4 321 357 358 322
4 322 358 359 340
4 324 323 360 361
4 323 325 362 360
4 325 326 363 362
4 326 327 364 363
4 327 328 365 364
4 328 329 366 365
4 329 330 367 366
4 330 331 368 367
4 331 332 369 368
4 332 333 370 369
4 333 334 371 370
4 334 335 372 371
4 335 336 373 372
4 336 337 374 373
4 337 338 375 374
4 338 339 376 375
4 339 341 377 376
4 340 359 378 341
4 341 378 379 377
4 342 380 381 343
4 343 381 382 344
4 344 382 383 345
4 345 383 384 346
4 346 384 385 347
4 347 385 386 348
4 348 386 387 349
4 349 387 388 350
4 350 388 389 351
4 351 389 390 352
4 352 390 391 353
4 353 391 392 354
4 354 392 393 355
4 355 393 394 356
4 356 394 395 357
4 357 395 396 358
4 358 396 397 359
4 359 397 398 378
4 361 360 399 400
4 360 362 401 399
4 362 363 402 401
4 363 364 403 402
4 364 365 404 403
4 365 366 405 404
4 366 367 406 405
4 367 368 407 406
4 368 369 408 407
4 369 370 409 408
4 370 371 410 409
4 371 372 411 410
4 372 373 412 411
4 373 374 413 412
4 374 375 414 413
4 375 376 415 414
4 376 377 416 415
4 377 379 417 416
4 378 398 418 379
4 379 418 419 417
4 380 420 421 381
4 381 421 422 382
4 382 422 423 383
4 383 423 424 384
4 384 424 425 385
4 385 425 426 386
4 386 426 427 387
4 387 427 428 388
4 388 428 429 389
4 389 429 430 390
4 390 430 431 391
4 391 431 432 392
4 392 432 433 393
4 393 433 434 394
4 394 434 435 395
4 395 435 436 396
4 396 436 437 397
4 397 437 438 398
4 398 438 439 418
4 400 399 440 441
4 399 401 442 440
4 401 402 443 442
4 402 403 444 443
4 403 404 445 444
4 404 405 446 445
4 405 406 447 446
4 406 407 448 447
4 407 408 449 448
4 408 409 450 449
4 409 410 451 450
4 410 411 452 451
4 411 412 453 452
4 412 413 454 453
4 413 414 455 454
4 414 415 456 455
4 415 416 457 456
4 416 417 458 457
4 417 419 459 458
4 418 439 460 419
4 419 460 461 459
4 420 462 463 421
4 421 463 464 422
4 422 464 465 423
4 423 465 466 424
4 424 466 467 425
4 425 467 468 426
4 426 468 469 427
4 427 469 470 428
4 428 470 471 429
4 429 471 472 430
4 430 472 473 431
4 431 473 474 432
4 432 474 475 433
4 433 475 476 434
4 434 476 477 435
4 435 477 478 436
4 436 478 479 437
4 437 479 480 438
4 438 480 481 439
4 439 481 482 460
4 441 440 483 484
4 440 442 485 483
4 442 443 486 485
4 443 444 487 486
4 444 445 488 487
4 445 446 489 488
4 446 447 490 489
4 447 448 491 490
4 448 449 492 491
4 449 450 493 492
4 450 451 494 493
4 451 452 495 494
4 452 453 496 495
4 453 454 497 496
4 454 455 498 497
4 455 456 499 498
4 456 457 500 499
4 457 458 501 500
4 458 459 502 501
4 459 461 503 502
4 460 482 504 461
4 461 504 505 503
4 462 506 507 463
4 463 507 508 464
4 464 508 509 465
4 465 509 510 466
4 466 510 511 467
4 467 511 512 468
4 468 512 513 469
4 469 513 514 470
4 470 514 515 471
4 471 515 516 472
4 472 516 517 473
4 473 517 518 474
4 474 518 519 475
4 475 519 520 476
4 476 520 521 477
4 477 521 522 478
4 478 522 523 479
4 479 523 524 480
4 480 524 525 481
4 481 525 526 482
4 482 526 527 504
4 484 483 528 529
4 483 485 530 528
4 485 486 531 530
4 486 487 532 531
4 487 488 533 532
4 488 489 534 533
4 489 490 535 534
4 490 491 536 535
4 491 492 537 536
4 492 493 538 537
4 493 494 539 538
4 494 495 540 539
4 495 496 541 540
4 496 497 542 541
4 497 498 543 542
4 498 499 544 543
4 499 500 545 544
4 500 501 546 545
4 501 502 547 546
4 502 503 548 547
4 503 505 549 548
4 504 527 550 505
4 505 550 551 549
4 506 552 553 507
4 507 553 554 508
4 508 554 555 509
4 509 555 556 510
4 510 556 557 511
4 511 557 558 512
4 512 558 559 513
4 513 559 560 514
4 514 560 561 515
4 515 561 562 516
4 516 562 563 517
4 517 563 564 518
4 518 564 565 519
4 519 565 566 520
4 520 566 567 521
4 521 567 568 522
4 522 568 569 523
4 523 569 570 524
4 524 570 571 525
4 525 571 572 526
4 526 572 573 527
4 527 573 574 550
4 529 528 575 576
4 528 530 577 575
4 530 531 578 577
4 531 532 579 578
4 532 533 580 579
4 533 534 581 580
4 534 535 582 581
4 535 536 583 582
4 536 537 584 583
4 537 538 585 584
4 538 539 586 585
4 539 540 587 586
4 540 541 588 587
4 541 542 589 588
4 542 543 590 589
4 543 544 591 590
4 544 545 592 591
4 545 546 593 592
4 546 547 594 593
4 547 548 595 594
4 548 549 596 595
4 549 551 597 596
4 550 574 598 551
4 551 598 599 597
4 552 600 601 553
4 553 601 602 554
4 554 602 603 555
4 555 603 604 556
4 556 604 605 557
4 557 605 606 558
4 558 606 607 559
4 559 607 608 560
4 560 608 609 561
4 561 609 610 562
4 562 610 611 563
4 563 611 612 564
4 564 612 613 565
4 565 613 614 566
4 566 614 615 567
4 567 615 616 568
4 568 616 617 569
4 569 617 618 570
4 570 618 619 571
4 571 619 620 572
4 572 620 621 573
4 573 621 622 574
4 574 622 623 598
4 576 575 624 625
4 575 577 626 624
4 577 578 627 626
4 578 579 628 627
4 579 580 629 628
4 580 581 630 629
4 581 582 631 630
4 582 583 632 631
4 583 584 633 632
4 584 585 634 633
4 585 586 635 634
4 586 587 636 635
4 587 588 637 636
4 588 589 638 637
4 589 590 639 638
4 590 591 640 639
4 591 592 641 640
4 592 593 642 641
4 593 594 643 642
4 594 595 644 643
4 595 596 645 644
4 596 597 646 645
4 597 599 647 646
4 598 623 648 599
4 599 648 649 647
4 600 650 651 601
4 601 651 652 602
4 602 652 653 603
4 603 653 654 604
4 604 654 655 605
4 605 655 656 606
4 606 656 657 607
4 607 657 658 608
4 608 658 659 609
4 609 659 660 610
4 610 660 661 611
4 611 661 662 612
4 612 662 663 613
4 613 663 664 614
4 614 664 665 615
4 615 665 666 616
4 616 666 667 617
4 617 667 668 618
4 618 668 669 619
4 619 669 670 620
4 620 670 671 621
4 621 671 672 622
4 622 672 673 623
4 623 673 674 648
4 625 624 675 676
4 624 626 677 675
4 626 627 678 677
4 627 628 679 678
4 628 629 680 679
4 629 630 681 680
4 630 631 682 681
4 631 632 683 682
4 632 633 684 683
4 633 634 685 684
4 634 635 686 685
4 635 636 687 686
4 636 637 688 687
4 637 638 689 688
4 638 639 690 689
4 639 640 691 690
4 640 641 692 691
4 641 642 693 692
4 642 643 694 693
4 643 644 695 694
4 644 645 696 695
4 645 646 697 696
4 646 647 698 697
4 647 649 699 698
4 648 674 700 649
4 649 700 701 699
4 650 702 703 651
4 651 703 704 652
4 652 704 705 653
4 653 705 706 654
4 654 706 707 655
4 655 707 708 656
4 656 708 709 657
4 657 709 710 658
4 658 710 711 659
4 659 711 712 660
4 660 712 713 661
4 661 713 714 662
4 662 714 715 663
4 663 715 716 664
4 664 716 717 665
4 665 717 718 666
4 666 718 719 667
4 667 719 720 668
4 668 720 721 669
4 669 721 722 670
4 670 722 723 671
4 671 723 724 672
4 672 724 725 673
4 673 725 726 674
4 674 726 727 700
4 676 675 728 729
4 675 677 730 728
4 677 678 731 730
4 678 679 732 731
4 679 680 733 732
4 680 681 734 733
4 681 682 735 734
4 682 683 736 735
4 683 684 737 736
4 684 685 738 737
4 685 686 739 738
4 686 687 740 739
4 687 688 741 740
4 688 689 742 741
4 689 690 743 742
4 690 691 744 743
4 691 692 745 744
4 692 693 746 745
4 693 694 747 746
4 694 695 748 747
4 695 696 749 748
4 696 697 750 749
4 697 698 751 750
4 698 699 752 751
4 699 701 753 752
4 700 727 754 701
4 701 754 755 753
4 702 756 757 703
4 703 757 758 704
4 704 758 759 705
4 705 759 760 706
4 706 760 761 707
4 707 761 762 708
4 708 762 763 709
4 709 763 764 710
4 710 764 765 711
4 711 765 766 712
4 712 766 767 713
4 713 767 768 714
4 714 768 769 715
4 715 769 770 716
4 716 770 771 717
4 717 771 772 718
4 718 772 773 719
4 719 773 774 720
4 720 774 775 721
4 721 775 776 722
4 722 776 777 723
4 723 777 778 724
4 724 778 779 725
4 725 779 780 726
4 726 780 781 727
4 727 781 782 754
4 729 728 783 784
4 728 730 785 783
4 730 731 786 785
4 731 732 787 786
4 732 733 788 787
4 733 734 789 788
4 734 735 790 789
4 735 736 791 790
4 736 737 792 791
4 737 738 793 792
4 738 739 794 793
4 739 740 795 794
4 740 741 796 795
4 741 742 797 796
4 742 743 798 797
4 743 744 799 798
4 744 745 800 799
4 745 746 801 800
4 746 747 802 801
4 747 748 803 802
4 748 749 804 803
4 749 750 805 804
4 750 751 806 805
4 751 752 807 806
4 752 753 808 807
4 753 755 809 808
4 754 782 810 755
4 755 810 811 809
4 756 812 813 757
4 757 813 814 758
4 758 814 815 759
4 759 815 816 760
4 760 816 817 761
4 761 817 818 762
4 762 818 819 763
4 763 819 820 764
4 764 820 821 765
4 765 821 822 766
4 766 822 823 767
4 767 823 824 768
4 768 824 825 769
4 769 825 826 770
4 770 826 827 771
4 771 827 828 772
4 772 828 829 773
4 773 829 830 774
4 774 830 831 775
4 775 831 832 776
4 776 832 833 777
4 777 833 834 778
4 778 834 835 779
4 779 835 836 780
4 780 836 837 781
4 781 837 838 782
4 782 838 839 810
4 784 783 840 841
4 783 785 842 840
4 785 786 843 842
4 786 787 844 843
4 787 788 845 844
4 788 789 846 845
4 789 790 847 846
4 790 791 848 847
4 791 792 849 848
4 792 793 850 849
4 793 794 851 850
4 794 795 852 851
4 795 796 853 852
4 796 797 854 853
4 797 798 855 854
4 798 799 856 855
4 799 800 857 856
4 800 801 858 857
4 801 802 859 858
4 802 803 860 859
4 803 804 861 860
4 804 805 862 861
4 805 806 863 862
4 806 807 864 863
4 807 808 865 864
4 808 809 866 865
4 809 811 867 866
4 810 839 868 811
4 811 868 869 867
4 812 870 871 813
4 813 871 872 814
4 814 872 873 815
4 815 873 874 816
4 816 874 875 817
4 817 875 876 818
4 818 876 877 819
4 819 877 878 820
4 820 878 879 821
4 821 879 880 822
4 822 880 881 823
4 823 881 882 824
4 824 882 883 825
4 825 883 884 826
4 826 884 885 827
4 827 885 886 828
4 828 886 887 829
4 829 887 888 830
4 830 888 889 831
4 831 889 890 832
4 832 890 891 833
4 833 891 892 834
4 834 892 893 835
4 835 893 894 836
4 836 894 895 837
4 837 895 896 838
4 838 896 897 839
4 839 897 898 868
4 841 840 899 900
4 840 842 901 899
4 842 843 902 901
4 843 844 903 902
4 844 845 904 903
4 845 846 905 904
4 846 847 906 905
4 847 848 907 906
4 848 849 908 907
4 849 850 909 908
4 850 851 910 909
4 851 852 911 910
4 852 853 912 911
4 853 854 913 912
4 854 855 914 913
4 855 856 915 914
4 856 857 916 915
4 857 858 917 916
4 858 859 918 917
4 859 860 919 918
4 860 861 920 919
4 861 862 921 920
4 862 863 922 921
4 863 864 923 922
4 864 865 924 923
4 865 866 925 924
4 866 867 926 925
4 867 869 927 926
4 868 898 928 869
4 869 928 929 927
4 870 930 931 871
4 871 931 932 872
4 872 932 933 873
4 873 933 934 874
4 874 934 935 875
4 875 935 936 876
4 876 936 937 877
4 877 937 938 878
4 878 938 939 879
4 879 939 940 880
4 880 940 941 881
4 881 941 942 882
4 882 942 943 883
4 883 943 944 884
4 884 944 945 885
4 885 945 946 886
4 886 946 947 887
4 887 947 948 888
4 888 948 949 889
4 889 949 950 890
4 890 950 951 891
4 891 951 952 892
4 892 952 953 893
4 893 953 954 894
4 894 954 955 895
4 895 955 956 896
4 896 956 957 897
4 897 957 958 898
4 898 958 959 928
4 900 899 960 961
4 899 901 962 960
4 901 902 963 962
4 902 903 964 963
4 903 904 965 964
4 904 905 966 965
4 905 906 967 966
4 906 907 968 967
4 907 908 969 968
4 908 909 970 969
4 909 910 971 970
4 910 911 972 971
4 911 912 973 972
4 912 913 974 973
4 913 914 975 974
4 914 915 976 975
4 915 916 977 976
4 916 917 978 977
4 917 918 979 978
4 918 919 980 979
4 919 920 981 980
4 920 921 982 981
4 921 922 983 982
4 922 923 984 983
4 923 924 985 984
4 924 925 986 985
4 925 926 987 986
4 926 927 988 987
4 927 929 989 988
4 928 959 990 929
4 929 990 991 989
4 930 992 993 931
4 931 993 994 932
4 932 994 995 933
4 933 995 996 934
4 934 996 997 935
4 935 997 998 936
4 936 998 999 937
4 937 999 1000 938
4 938 1000 1001 939
4 939 1001 1002 940
4 940 1002 1003 941
4 941 1003 1004 942
4 942 1004 1005 943
4 943 1005 1006 944
4 944 1006 1007 945
4 945 1007 1008 946
4 946 1008 1009 947
4 947 1009 1010 948
4 948 1010 1011 949
4 949 1011 1012 950
4 950 1012 1013 951
4 951 1013 1014 952
4 952 1014 1015 953
4 953 1015 1016 954
4 954 1016 1017 955
4 955 1017 1018 956
4 956 1018 1019 957
4 957 1019 1020 958
4 958 1020 1021 959
4 959 1021 1022 990
4 961 960 1023 1024
4 960 962 1025 1023
4 962 963 1026 1025
4 963 964 1027 1026
4 964 965 1028 1027
4 965 966 1029 1028
4 966 967 1030 1029
4 967 968 1031 1030
4 968 969 1032 1031
4 969 970 1033 1032
4 970 971 1034 1033
4 971 972 1035 1034
4 972 973 1036 1035
4 973 974 1037 1036
4 974 975 1038 1037
4 975 976 1039 1038
4 976 977 1040 1039
4 977 978 1041 1040
4 978 979 1042 1041
4 979 980 1043 1042
4 980 981 1044 1043
4 981 982 1045 1044
4 982 983 1046 1045
4 983 984 1047 1046
4 984 985 1048 1047
4 985 986 1049 1048
4 986 987 1050 1049
4 987 988 1051 1050
4 988 989 1052 1051
4 989 991 1053 1052
4 990 1022 1054 991
4 991 1054 1055 1053
4 992 1056 1057 993
4 993 1057 1058 994
4 994 1058 1059 995
4 995 1059 1060 996
4 996 1060 1061 997
4 997 1061 1062 998
4 998 1062 1063 999
4 999 1063 1064 1000
4 1000 1064 1065 1001
4 1001 1065 1066 1002
4 1002 1066 1067 1003
4 1003 1067 1068 1004
4 1004 1068 1069 1005
4 1005 1069 1070 1006
4 1006 1070 1071 1007
4 1007 1071 1072 1008
4 1008 1072 1073 1009
4 1009 1073 1074 1010
4 1010 1074 1075 1011
4 1011 1075 1076 1012
4 1012 1076 1077 1013
4 1013 1077 1078 1014
4 1014 1078 1079 1015
4 1015 1079 1080 1016
4 1016 1080 1081 1017
4 1017 1081 1082 1018
4 1018 1082 1083 1019
4 1019 1083 1084 1020
4 1020 1084 1085 1021
4 1021 1085 1086 1022
4 1022 1086 1087 1054
4 1024 1023 1088 1089
4 1023 1025 1090 1088
4 1025 1026 1091 1090
4 1026 1027 1092 1091
4 1027 1028 1093 1092
4 1028 1029 1094 1093
4 1029 1030 1095 1094
4 1030 1031 1096 1095
4 1031 1032 1097 1096
4 1032 1033 1098 1097
4 1033 1034 1099 1098
4 1034 1035 1100 1099
4 1035 1036 1101 1100
4 1036 1037 1102 1101
4 1037 1038 1103 1102
4 1038 1039 1104 1103
4 1039 1040 1105 1104
4 1040 1041 1106 1105
4 1041 1042 1107 1106
4 1042 1043 1108 1107
4 1043 1044 1109 1108
4 1044 1045 1110 1109
4 1045 1046 1111 1110
4 1046 1047 1112 1111
4 1047 1048 1113 1112
4 1048 1049 1114 1113
4 1049 1050 1115 1114
4 1050 1051 1116 1115
4 1051 1052 1117 1116
4 1052 1053 1118 1117
4 1053 1055 1119 1118
4 1054 1087 1120 1055
4 1055 1120 1121 1119
4 1056 1122 1123 1057
4 1057 1123 1124 1058
4 1058 1124 1125 1059
4 1059 1125 1126 1060
4 1060 1126 1127 1061
4 1061 1127 1128 1062
4 1062 1128 1129 1063
4 1063 1129 1130 1064
4 1064 1130 1131 1065
4 1065 1131 1132 1066
4 1066 1132 1133 1067
4 1067 1133 1134 1068
4 1068 1134 1135 1069
4 1069 1135 1136 1070
4 1070 1136 1137 1071
4 1071 1137 1138 1072
4 1072 1138 1139 1073
4 1073 1139 1140 1074
4 1074 1140 1141 1075
4 1075 1141 1142 1076
4 1076 1142 1143 1077
4 1077 1143 1144 1078
4 1078 1144 1145 1079
4 1079 1145 1146 1080
4 1080 1146 1147 1081
4 1081 1147 1148 1082
4 1082 1148 1149 1083
4 1083 1149 1150 1084
4 1084 1150 1151 1085
4 1085 1151 1152 1086
4 1086 1152 1153 1087
4 1087 1153 1154 1120
4 1089 1088 1155 1156
4 1088 1090 1157 1155
4 1090 1091 1158 1157
4 1091 1092 1159 1158
4 1092 1093 1160 1159
4 1093 1094 1161 1160
4 1094 1095 1162 1161
4 1095 1096 1163 1162
4 1096 1097 1164 1163
4 1097 1098 1165 1164
4 1098 1099 1166 1165
4 1099 1100 1167 1166
4 1100 1101 1168 1167
4 1101 1102 1169 1168
4 1102 1103 1170 1169
4 1103 1104 1171 1170
4 1104 1105 1172 1171
4 1105 1106 1173 1172
4 1106 1107 1174 1173
4 1107 1108 1175 1174
4 1108 1109 1176 1175
4 1109 1110 1177 1176
4 1110 1111 1178 1177
4 1111 1112 1179 1178
4 1112 1113 1180 1179
4 1113 1114 1181 1180
4 1114 1115 1182 1181
4 1115 1116 1183 1182
4 1116 1117 1184 1183
4 1117 1118 1185 1184
4 1118 1119 1186 1185
4 1119 1121 1187 1186
4 1120 1154 1188 1121
4 1121 1188 1189 1187
4 1122 1190 1191 1123
4 1123 1191 1192 1124
4 1124 1192 1193 1125
4 1125 1193 1194 1126
4 1126 1194 1195 1127
4 1127 1195 1196 1128
4 1128 1196 1197 1129
4 1129 1197 1198 1130
4 1130 1198 1199 1131
4 1131 1199 1200 1132
4 1132 1200 1201 1133
4 1133 1201 1202 1134
4 1134 1202 1203 1135
4 1135 1203 1204 1136
4 1136 1204 1205 1137
4 1137 1205 1206 1138
4 1138 1206 1207 1139
4 1139 1207 1208 1140
4 1140 1208 1209 1141
4 1141 1209 1210 1142
4 1142 1210 1211 1143
4 1143 1211 1212 1144
4 1144 1212 1213 1145
4 1145 1213 1214 1146
4 1146 1214 1215 1147
4 1147 1215 1216 1148
4 1148 1216 1217 1149
4 1149 1217 1218 1150
4 1150 1218 1219 1151
4 1151 1219 1220 1152
4 1152 1220 1221 1153
4 1153 1221 1222 1154
4 1154 1222 1223 1188
4 1156 1155 1224 1225
4 1155 1157 1226 1224
4 1157 1158 1227 1226
4 1158 1159 1228 1227
4 1159 1160 1229 1228
4 1160 1161 1230 1229
4 1161 1162 1231 1230
4 1162 1163 1232 1231
4 1163 1164 1233 1232
4 1164 1165 1234 1233
4 1165 1166 1235 1234
4 1166 1167 1236 1235
4 1167 1168 1237 1236
4 1168 1169 1238 1237
4 1169 1170 1239 1238
4 1170 1171 1240 1239
4 1171 1172 1241 1240
4 1172 1173 1242 1241
4 1173 1174 1243 1242
4 1174 1175 1244 1243
4 1175 1176 1245 1244
4 1176 1177 1246 1245
4 1177 1178 1247 1246
4 1178 1179 1248 1247
4 1179 1180 1249 1248
4 1180 1181 1250 1249
4 1181 1182 1251 1250
4 1182 1183 1252 1251
4 1183 1184 1253 1252
4 1184 1185 1254 1253
4 1185 1186 1255 1254
4 1186 1187 1256 1255
4 1187 1189 1257 1256
4 1188 1223 1258 1189
4 1189 1258 1259 1257
4 1190 1260 1261 1191
4 1191 1261 1262 1192
4 1192 1262 1263 1193
4 1193 1263 1264 1194
4 1194 1264 1265 1195
4 1195 1265 1266 1196
4 1196 1266 1267 1197
4 1197 1267 1268 1198
4 1198 1268 1269 1199
4 1199 1269 1270 1200
4 1200 1270 1271 1201
4 1201 1271 1272 1202
4 1202 1272 1273 1203
4 1203 1273 1274 1204
4 1204 1274 1275 1205
4 1205 1275 1276 1206
4 1206 1276 1277 1207
4 1207 1277 1278 1208
4 1208 1278 1279 1209
4 1209 1279 1280 1210
4 1210 1280 1281 1211
4 1211 1281 1282 1212
4 1212 1282 1283 1213
4 1213 1283 1284 1214
4 1214 1284 1285 1215
4 1215 1285 1286 1216
4 1216 1286 1287 1217
4 1217 1287 1288 1218
4 1218 1288 1289 1219
4 1219 1289 1290 1220
4 1220 1290 1291 1221
4 1221 1291 1292 1222
4 1222 1292 1293 1223
4 1223 1293 1294 1258
4 1225 1224 1295 1296
4 1224 1226 1297 1295
4 1226 1227 1298 1297
4 1227 1228 1299 1298
4 1228 1229 1300 1299
4 1229 1230 1301 1300
4 1230 1231 1302 1301
4 1231 1232 1303 1302
4 1232 1233 1304 1303
4 1233 1234 1305 1304
4 1234 1235 1306 1305
4 1235 1236 1307 1306
4 1236 1237 1308 1307
4 1237 1238 1309 1308
4 1238 1239 1310 1309
4 1239 1240 1311 1310
4 1240 1241 1312 1311
4 1241 1242 1313 1312
4 1242 1243 1314 1313
4 1243 1244 1315 1314
4 1244 1245 1316 1315
4 1245 1246 1317 1316
4 1246 1247 1318 1317
4 1247 1248 1319 1318
4 1248 1249 1320 1319
4 1249 1250 1321 1320
4 1250 1251 1322 1321
4 1251 1252 1323 1322
4 1252 1253 1324 1323
4 1253 1254 1325 1324
4 1254 1255 1326 1325
4 1255 1256 1327 1326
4 1256 1257 1328 1327
4 1257 1259 1329 1328
4 1258 1294 1330 1259
4 1259 1330 1331 1329
4 1260 1332 1333 1261
4 1261 1333 1334 1262
4 1262 1334 1335 1263
4 1263 1335 1336 1264
4 1264 1336 1337 1265
4 1265 1337 1338 1266
4 1266 1338 1339 1267
4 1267 1339 1340 1268
4 1268 1340 1341 1269
4 1269 1341 1342 1270
4 1270 1342 1343 1271
4 1271 1343 1344 1272
4 1272 1344 1345 1273
4 1273 1345 1346 1274
4 1274 1346 1347 1275
4 1275 1347 1348 1276
4 1276 1348 1349 1277
4 1277 1349 1350 1278
4 1278 1350 1351 1279
4 1279 1351 1352 1280
4 1280 1352 1353 1281
4 1281 1353 1354 1282
4 1282 1354 1355 1283
4 1283 1355 1356 1284
4 1284 1356 1357 1285
4 1285 1357 1358 1286
4 1286 1358 1359 1287
4 1287 1359 1360 1288
4 1288 1360 1361 1289
4 1289 1361 1362 1290
4 1290 1362 1363 1291
4 1291 1363 1364 1292
4 1292 1364 1365 1293
4 1293 1365 1366 1294
4 1294 1366 1367 1330
4 1296 1295 1368 1369
4 1295 1297 1370 1368
4 1297 1298 1371 1370
4 1298 1299 1372 1371
4 1299 1300 1373 1372
4 1300 1301 1374 1373
4 1301 1302 1375 1374
4 1302 1303 1376 1375
4 1303 1304 1377 1376
4 1304 1305 1378 1377
4 1305 1306 1379 1378
4 1306 1307 1380 1379
4 1307 1308 1381 1380
4 1308 1309 1382 1381
4 1309 1310 1383 1382
4 1310 1311 1384 1383
4 1311 1312 1385 1384
4 1312 1313 1386 1385
4 1313 1314 1387 1386
4 1314 1315 1388 1387
4 1315 1316 1389 1388
4 1316 1317 1390 1389
4 1317 1318 1391 1390
4 1318 1319 1392 1391
4 1319 1320 1393 1392
4 1320 1321 1394 1393
4 1321 1322 1395 1394
4 1322 1323 1396 1395
4 1323 1324 1397 1396
4 1324 1325 1398 1397
4 1325 1326 1399 1398
4 1326 1327 1400 1399
4 1327 1328 1401 1400
4 1328 1329 1402 1401
4 1329 1331 1403 1402
4 1330 1367 1404 1331
4 1331 1404 1405 1403
4 1332 1406 1407 1333
4 1333 1407 1408 1334
4 1334 1408 1409 1335
4 1335 1409 1410 1336
4 1336 1410 1411 1337
4 1337 1411 1412 1338
4 1338 1412 1413 1339
4 1339 1413 1414 1340
4 1340 1414 1415 1341
4 1341 1415 1416 1342
4 1342 1416 1417 1343
4 1343 1417 1418 1344
4 1344 1418 1419 1345
4 1345 1419 1420 1346
4 1346 1420 1421 1347
4 1347 1421 1422 1348
4 1348 1422 1423 1349
4 1349 1423 1424 1350
4 1350 1424 1425 1351
4 1351 1425 1426 1352
4 1352 1426 1427 1353
4 1353 1427 1428 1354
4 1354 1428 1429 1355
4 1355 1429 1430 1356
4 1356 1430 1431 1357
4 1357 1431 1432 1358
4 1358 1432 1433 1359
4 1359 1433 1434 1360
4 1360 1434 1435 1361
4 1361 1435 1436 1362
4 1362 1436 1437 1363
4 1363 1437 1438 1364
4 1364 1438 1439 1365
4 1365 1439 1440 1366
4 1366 1440 1441 1367
4 1367 1441 1442 1404
4 1369 1368 1443 1444
4 1368 1370 1445 1443
4 1370 1371 1446 1445
4 1371 1372 1447 1446
4 1372 1373 1448 1447
4 1373 1374 1449 1448
4 1374 1375 1450 1449
4 1375 1376 1451 1450
4 1376 1377 1452 1451
4 1377 1378 1453 1452
4 1378 1379 1454 1453
4 1379 1380 1455 1454
4 1380 1381 1456 1455
4 1381 1382 1457 1456
4 1382 1383 1458 1457
4 1383 1384 1459 1458
4 1384 1385 1460 1459
4 1385 1386 1461 1460
4 1386 1387 1462 1461
4 1387 1388 1463 1462
4 1388 1389 1464 1463
4 1389 1390 1465 1464
4 1390 1391 1466 1465
4 1391 1392 1467 1466
4 1392 1393 1468 1467
4 1393 1394 1469 1468
4 1394 1395 1470 1469
4 1395 1396 1471 1470
4 1396 1397 1472 1471
4 1397 1398 1473 1472
4 1398 1399 1474 1473
4 1399 1400 1475 1474
4 1400 1401 1476 1475
4 1401 1402 1477 1476
4 1402 1403 1478 1477
4 1403 1405 1479 1478
4 1404 1442 1480 1405
4 1405 1480 1481 1479
4 1406 1482 1483 1407
4 1407 1483 1484 1408
4 1408 1484 1485 1409
4 1409 1485 1486 1410
4 1410 1486 1487 1411
4 1411 1487 1488 1412
4 1412 1488 1489 1413
4 1413 1489 1490 1414
4 1414 1490 1491 1415
4 1415 1491 1492 1416
4 1416 1492 1493 1417
4 1417 1493 1494 1418
4 1418 1494 1495 1419
4 1419 1495 1496 1420
4 1420 1496 1497 1421
4 1421 1497 1498 1422
4 1422 1498 1499 1423
4 1423 1499 1500 1424
4 1424 1500 1501 1425
4 1425 1501 1502 1426
4 1426 1502 1503 1427
4 1427 1503 1504 1428
4 1428 1504 1505 1429
4 1429 1505 1506 1430
4 1430 1506 1507 1431
4 1431 1507 1508 1432
4 1432 1508 1509 1433
4 1433 1509 1510 1434
4 1434 1510 1511 1435
4 1435 1511 1512 1436
4 1436 1512 1513 1437
4 1437 1513 1514 1438
4 1438 1514 1515 1439
4 1439 1515 1516 1440
4 1440 1516 1517 1441
4 1441 1517 1518 1442
4 1442 1518 1519 1480
4 1444 1443 1520 1521
4 1443 1445 1522 1520
4 1445 1446 1523 1522
4 1446 1447 1524 1523
4 1447 1448 1525 1524
4 1448 1449 1526 1525
4 1449 1450 1527 1526
4 1450 1451 1528 1527
4 1451 1452 1529 1528
4 1452 1453 1530 1529
4 1453 1454 1531 1530
4 1454 1455 1532 1531
4 1455 1456 1533 1532
4 1456 1457 1534 1533
4 1457 1458 1535 1534
4 1458 1459 1536 1535
4 1459 1460 1537 1536
4 1460 1461 1538 1537
4 1461 1462 1539 1538
4 1462 1463 1540 1539
4 1463 1464 1541 1540
4 1464 1465 1542 1541
4 1465 1466 1543 1542
4 1466 1467 1544 1543
4 1467 1468 1545 1544
4 1468 1469 1546 1545
4 1469 1470 1547 1546
4 1470 1471 1548 1547
4 1471 1472 1549 1548
4 1472 1473 1550 1549
4 1473 1474 1551 1550
4 1474 1475 1552 1551
4 1475 1476 1553 1552
4 1476 1477 1554 1553
4 1477 1478 1555 1554
4 1478 1479 1556 1555
4 1479 1481 1557 1556
4 1480 1519 1558 1481
4 1481 1558 1559 1557
4 1482 1560 1561 1483
4 1483 1561 1562 1484
4 1484 1562 1563 1485
4 1485 1563 1564 1486
4 1486 1564 1565 1487
4 1487 1565 1566 1488
4 1488 1566 1567 1489
4 1489 1567 1568 1490
4 1490 1568 1569 1491
4 1491 1569 1570 1492
4 1492 1570 1571 1493
4 1493 1571 1572 1494
4 1494 1572 1573 1495
4 1495 1573 1574 1496
4 1496 1574 1575 1497
4 1497 1575 1576 1498
4 1498 1576 1577 1499
4 1499 1577 1578 1500
4 1500 1578 1579 1501
4 1501 1579 1580 1502
4 1502 1580 1581 1503
4 1503 1581 1582 1504
4 1504 1582 1583 1505
4 1505 1583 1584 1506
4 1506 1584 1585 1507
4 1507 1585 1586 1508
4 1508 1586 1587 1509
4 1509 1587 1588 1510
4 1510 1588 1589 1511
4 1511 1589 1590 1512
4 1512 1590 1591 1513
4 1513 1591 1592 1514
4 1514 1592 1593 1515
4 1515 1593 1594 1516
4 1516 1594 1595 1517
4 1517 1595 1596 1518
4 1518 1596 1597 1519
4 1519 1597 1598 1558
4 1521 1520 1599 1600
4 1520 1522 1601 1599
4 1522 1523 1602 1601
4 1523 1524 1603 1602
4 1524 1525 1604 1603
4 1525 1526 1605 1604
4 1526 1527 1606 1605
4 1527 1528 1607 1606
4 1528 1529 1608 1607
4 1529 1530 1609 1608
4 1530 1531 1610 1609
4 1531 1532 1611 1610
4 1532 1533 1612 1611
4 1533 1534 1613 1612
4 1534 1535 1614 1613
4 1535 1536 1615 1614
4 1536 1537 1616 1615
4 1537 1538 1617 1616
4 1538 1539 1618 1617
4 1539 1540 1619 1618
4 1540 1541 1620 1619
4 1541 1542 1621 1620
4 1542 1543 1622 1621
4 1543 1544 1623 1622
4 1544 1545 1624 1623
4 1545 1546 1625 1624
4 1546 1547 1626 1625
4 1547 1548 1627 1626
4 1548 1549 1628 1627
4 1549 1550 1629 1628
4 1550 1551 1630 1629
4 1551 1552 1631 1630
4 1552 1553 1632 1631
4 1553 1554 1633 1632
4 1554 1555 1634 1633
4 1555 1556 1635 1634
4 1556 1557 1636 1635
4 1557 1559 1637 1636
4 1558 1598 1638 1559
4 1559 1638 1639 1637
4 1560 1640 1641 1561
4 1561 1641 1642 1562
4 1562 1642 1643 1563
4 1563 1643 1644 1564
4 1564 1644 1645 1565
4 1565 1645 1646 1566
4 1566 1646 1647 1567
4 1567 1647 1648 1568
4 1568 1648 1649 1569
4 1569 1649 1650 1570
4 1570 1650 1651 1571
4 1571 1651 1652 1572
4 1572 1652 1653 1573
4 1573 1653 1654 1574
4 1574 1654 1655 1575
4 1575 1655 1656 1576
4 1576 1656 1657 1577
4 1577 1657 1658 1578
4 1578 1658 1659 1579
4 1579 1659 1660 1580
4 1580 1660 1661 1581
4 1581 1661 1662 1582
4 1582 1662 1663 1583
4 1583 1663 1664 1584
4 1584 1664 1665 1585
4 1585 1665 1666 1586
4 1586 1666 1667 1587
4 1587 1667 1668 1588
4 1588 1668 1669 1589
4 1589 1669 1670 1590
4 1590 1670 1671 1591
4 1591 1671 1672 1592
4 1592 1672 1673 1593
4 1593 1673 1674 1594
4 1594 1674 1675 1595
4 1595 1675 1676 1596
4 1596 1676 1677 1597
4 1597 1677 1678 1598
4 1598 1678 1679 1638
4 1600 1599 1680 1681
4 1599 1601 1682 1680
4 1601 1602 1683 1682
4 1602 1603 1684 1683
4 1603 1604 1685 1684
4 1604 1605 1686 1685
4 1605 1606 1687 1686
4 1606 1607 1688 1687
4 1607 1608 1689 1688
4 1608 1609 1690 1689
4 1609 1610 1691 1690
4 1610 1611 1692 1691
4 1611 1612 1693 1692
4 1612 1613 1694 1693
4 1613 1614 1695 1694
4 1614 1615 1696 1695
4 1615 1616 1697 1696
4 1616 1617 1698 1697
4 1617 1618 1699 1698
4 1618 1619 1700 1699
4 1619 1620 1701 1700
4 1620 1621 1702 1701
4 1621 1622 1703 1702
4 1622 1623 1704 1703
4 1623 1624 1705 1704
4 1624 1625 1706 1705
4 1625 1626 1707 1706
4 1626 1627 1708 1707
4 1627 1628 1709 1708
4 1628 1629 1710 1709
4 1629 1630 1711 1710
4 1630 1631 1712 1711
4 1631 1632 1713 1712
4 1632 1633 1714 1713
4 1633 1634 1715 1714
4 1634 1635 1716 1715
4 1635 1636 1717 1716
4 1636 1637 1718 1717
4 1637 1639 1719 1718
4 1638 1679 1720 1639
4 1639 1720 1721 1719
4 1640 1722 1723 1641
4 1641 1723 1724 1642
4 1642 1724 1725 1643
4 1643 1725 1726 1644
4 1644 1726 1727 1645
4 1645 1727 1728 1646
4 1646 1728 1729 1647
4 1647 1729 1730 1648
4 1648 1730 1731 1649
4 1649 1731 1732 1650
4 1650 1732 1733 1651
4 1651 1733 1734 1652
4 1652 1734 1735 1653
4 1653 1735 1736 1654
4 1654 1736 1737 1655
4 1655 1737 1738 1656
4 1656 1738 1739 1657
4 1657 1739 1740 1658
4 1658 1740 1741 1659
4 1659 1741 1742 1660
4 1660 1742 1743 1661
4 1661 1743 1744 1662
4 1662 1744 1745 1663
4 1663 1745 1746 1664
4 1664 1746 1747 1665
4 1665 1747 1748 1666
4 1666 1748 1749 1667
4 1667 1749 1750 1668
4 1668 1750 1751 1669
4 1669 1751 1752 1670
4 1670 1752 1753 1671
4 1671 1753 1754 1672
4 1672 1754 1755 1673
4 1673 1755 1756 1674
4 1674 1756 1757 1675
4 1675 1757 1758 1676
4 1676 1758 1759 1677
4 1677 1759 1760 1678
4 1678 1760 1761 1679
4 1679 1761 1762 1720
4 1681 1680 1763 1764
4 1680 1682 1765 1763
4 1682 1683 1766 1765
4 1683 1684 1767 1766
4 1684 1685 1768 1767
4 1685 1686 1769 1768
4 1686 1687 1770 1769
4 1687 1688 1771 1770
4 1688 1689 1772 1771
4 1689 1690 1773 1772
4 1690 1691 1774 1773
4 1691 1692 1775 1774
4 1692 1693 1776 1775
4 1693 1694 1777 1776
4 1694 1695 1778 1777
4 1695 1696 1779 1778
4 1696 1697 1780 1779
4 1697 1698 1781 1780
4 1698 1699 1782 1781
4 1699 1700 1783 1782
4 1700 1701 1784 1783
4 1701 1702 1785 1784
4 1702 1703 1786 1785
4 1703 1704 1787 1786
4 1704 1705 1788 1787
4 1705 1706 1789 1788
4 1706 1707 1790 1789
4 1707 1708 1791 1790
4 1708 1709 1792 1791
4 1709 1710 1793 1792
4 1710 1711 1794 1793
4 1711 1712 1795 1794
4 1712 1713 1796 1795
4 1713 1714 1797 1796
4 1714 1715 1798 1797
4 1715 1716 1799 1798
4 1716 1717 1800 1799
4 1717 1718 1801 1800
4 1718 1719 1802 1801
4 1719 1721 1803 1802
4 1720 1762 1804 1721
4 1721 1804 1805 1803
4 1722 1806 1807 1723
4 1723 1807 1808 1724
4 1724 1808 1809 1725
4 1725 1809 1810 1726
4 1726 1810 1811 1727
4 1727 1811 1812 1728
4 1728 1812 1813 1729
4 1729 1813 1814 1730
4 1730 1814 1815 1731
4 1731 1815 1816 1732
4 1732 1816 1817 1733
4 1733 1817 1818 1734
4 1734 1818 1819 1735
4 1735 1819 1820 1736
4 1736 1820 1821 1737
4 1737 1821 1822 1738
4 1738 1822 1823 1739
4 1739 1823 1824 1740
4 1740 1824 1825 1741
4 1741 1825 1826 1742
4 1742 1826 1827 1743
4 1743 1827 1828 1744
4 1744 1828 1829 1745
4 1745 1829 1830 1746
4 1746 1830 1831 1747
4 1747 1831 1832 1748
4 1748 1832 1833 1749
4 1749 1833 1834 1750
4 1750 1834 1835 1751
4 1751 1835 1836 1752
4 1752 1836 1837 1753
4 1753 1837 1838 1754
4 1754 1838 1839 1755
4 1755 1839 1840 1756
4 1756 1840 1841 1757
4 1757 1841 1842 1758
4 1758 1842 1843 1759
4 1759 1843 1844 1760
4 1760 1844 1845 1761
4 1761 1845 1846 1762
4 1762 1846 1847 1804
4 1764 1763 1848 1849
4 1763 1765 1850 1848
4 1765 1766 1851 1850
4 1766 1767 1852 1851
4 1767 1768 1853 1852
4 1768 1769 1854 1853
4 1769 1770 1855 1854
4 1770 1771 1856 1855
4 1771 1772 1857 1856
4 1772 1773 1858 1857
4 1773 1774 1859 1858
4 1774 1775 1860 1859
4 1775 1776 1861 1860
4 1776 1777 1862 1861
4 1777 1778 1863 1862
4 1778 1779 1864 1863
4 1779 1780 1865 1864
4 1780 1781 1866 1865
4 1781 1782 1867 1866
4 1782 1783 1868 1867
4 1783 1784 1869 1868
4 1784 1785 1870 1869
4 1785 1786 1871 1870
4 1786 1787 1872 1871
4 1787 1788 1873 1872
4 1788 1789 1874 1873
4 1789 1790 1875 1874
4 1790 1791 1876 1875
4 1791 1792 1877 1876
4 1792 1793 1878 1877
4 1793 1794 1879 1878
4 1794 1795 1880 1879
4 1795 1796 1881 1880
4 1796 1797 1882 1881
4 1797 1798 1883 1882
4 1798 1799 1884 1883
4 1799 1800 1885 1884
4 1800 1801 1886 1885
4 1801 1802 1887 1886
4 1802 1803 1888 1887
4 1803 1805 1889 1888
4 1804 1847 1890 1805
4 1805 1890 1891 1889
4 1806 1892 1893 1807
4 1807 1893 1894 1808
4 1808 1894 1895 1809
4 1809 1895 1896 1810
4 1810 1896 1897 1811
4 1811 1897 1898 1812
4 1812 1898 1899 1813
4 1813 1899 1900 1814
4 1814 1900 1901 1815
4 1815 1901 1902 1816
4 1816 1902 1903 1817
4 1817 1903 1904 1818
4 1818 1904 1905 1819
4 1819 1905 1906 1820
4 1820 1906 1907 1821
4 1821 1907 1908 1822
4 1822 1908 1909 1823
4 1823 1909 1910 1824
4 1824 1910 1911 1825
4 1825 1911 1912 1826
4 1826 1912 1913 1827
4 1827 1913 1914 1828
4 1828 1914 1915 1829
4 1829 1915 1916 1830
4 1830 1916 1917 1831
4 1831 1917 1918 1832
4 1832 1918 1919 1833
4 1833 1919 1920 1834
4 1834 1920 1921 1835
4 1835 1921 1922 1836
4 1836 1922 1923 1837
4 1837 1923 1924 1838
4 1838 1924 1925 1839
4 1839 1925 1926 1840
4 1840 1926 1927 1841
4 1841 1927 1928 1842
4 1842 1928 1929 1843
4 1843 1929 1930 1844
4 1844 1930 1931 1845
4 1845 1931 1932 1846
4 1846 1932 1933 1847
4 1847 1933 1934 1890
4 1849 1848 1935 1936
4 1848 1850 1937 1935
4 1850 1851 1938 1937
4 1851 1852 1939 1938
4 1852 1853 1940 1939
4 1853 1854 1941 1940
4 1854 1855 1942 1941
4 1855 1856 1943 1942
4 1856 1857 1944 1943
4 1857 1858 1945 1944
4 1858 1859 1946 1945
4 1859 1860 1947 1946
4 1860 1861 1948 1947
4 1861 1862 1949 1948
4 1862 1863 1950 1949
4 1863 1864 1951 1950
4 1864 1865 1952 1951
4 1865 1866 1953 1952
4 1866 1867 1954 1953
4 1867 1868 1955 1954
4 1868 1869 1956 1955
4 1869 1870 1957 1956
4 1870 1871 1958 1957
4 1871 1872 1959 1958
4 1872 1873 1960 1959
4 1873 1874 1961 1960
4 1874 1875 1962 1961
4 1875 1876 1963 1962
4 1876 1877 1964 1963
4 1877 1878 1965 1964
4 1878 1879 1966 1965
4 1879 1880 1967 1966
4 1880 1881 1968 1967
4 1881 1882 1969 1968
4 1882 1883 1970 1969
4 1883 1884 1971 1970
4 1884 1885 1972 1971
4 1885 1886 1973 1972
4 1886 1887 1974 1973
4 1887 1888 1975 1974
4 1888 1889 1976 1975
4 1889 1891 1977 1976
4 1890 1934 1978 1891
4 1891 1978 1979 1977
4 1892 1980 1981 1893
4 1893 1981 1982 1894
4 1894 1982 1983 1895
4 1895 1983 1984 1896
4 1896 1984 1985 1897
4 1897 1985 1986 1898
4 1898 1986 1987 1899
4 1899 1987 1988 1900
4 1900 1988 1989 1901
4 1901 1989 1990 1902
4 1902 1990 1991 1903
4 1903 1991 1992 1904
4 1904 1992 1993 1905
4 1905 1993 1994 1906
4 1906 1994 1995 1907
4 1907 1995 1996 1908
4 1908 1996 1997 1909
4 1909 1997 1998 1910
4 1910 1998 1999 1911
4 1911 1999 2000 1912
4 1912 2000 2001 1913
4 1913 2001 2002 1914
4 1914 2002 2003 1915
4 1915 2003 2004 1916
4 1916 2004 2005 1917
4 1917 2005 2006 1918
4 1918 2006 2007 1919
4 1919 2007 2008 1920
4 1920 2008 2009 1921
4 1921 2009 2010 1922
4 1922 2010 2011 1923
4 1923 2011 2012 1924
4 1924 2012 2013 1925
4 1925 2013 2014 1926
4 1926 2014 2015 1927
4 1927 2015 2016 1928
4 1928 2016 2017 1929
4 1929 2017 2018 1930
4 1930 2018 2019 1931
4 1931 2019 2020 1932
4 1932 2020 2021 1933
4 1933 2021 2022 1934
4 1934 2022 2023 1978
4 1936 1935 2024 2025
4 1935 1937 2026 2024
4 1937 1938 2027 2026
4 1938 1939 2028 2027
4 1939 1940 2029 2028
4 1940 1941 2030 2029
4 1941 1942 2031 2030
4 1942 1943 2032 2031
4 1943 1944 2033 2032
4 1944 1945 2034 2033
4 1945 1946 2035 2034
4 1946 1947 2036 2035
4 1947 1948 2037 2036
4 1948 1949 2038 2037
4 1949 1950 2039 2038
4 1950 1951 2040 2039
4 1951 1952 2041 2040
4 1952 1953 2042 2041
4 1953 1954 2043 2042
4 1954 1955 2044 2043
4 1955 1956 2045 2044
4 1956 1957 2046 2045
4 1957 1958 2047 2046
4 1958 1959 2048 2047
4 1959 1960 2049 2048
4 1960 1961 2050 2049
4 1961 1962 2051 2050
4 1962 1963 2052 2051
4 1963 1964 2053 2052
4 1964 1965 2054 2053
4 1965 1966 2055 2054
4 1966 1967 2056 2055
4 1967 1968 2057 2056
4 1968 1969 2058 2057
4 1969 1970 2059 2058
4 1970 1971 2060 2059
4 1971 1972 2061 2060
4 1972 1973 2062 2061
4 1973 1974 2063 2062
4 1974 1975 2064 2063
4 1975 1976 2065 2064
4 1976 1977 2066 2065
4 1977 1979 2067 2066
4 1978 2023 2068 1979
4 1979 2068 2069 2067
4 1980 2070 2071 1981
4 1981 2071 2072 1982
4 1982 2072 2073 1983
4 1983 2073 2074 1984
4 1984 2074 2075 1985
4 1985 2075 2076 1986
4 1986 2076 2077 1987
4 1987 2077 2078 1988
4 1988 2078 2079 1989
4 1989 2079 2080 1990
4 1990 2080 2081 1991
4 1991 2081 2082 1992
4 1992 2082 2083 1993
4 1993 2083 2084 1994
4 1994 2084 2085 1995
4 1995 2085 2086 1996
4 1996 2086 2087 1997
4 1997 2087 2088 1998
4 1998 2088 2089 1999
4 1999 2089 2090 2000
4 2000 2090 2091 2001
4 2001 2091 2092 2002
4 2002 2092 2093 2003
4 2003 2093 2094 2004
4 2004 2094 2095 2005
4 2005 2095 2096 2006
4 2006 2096 2097 2007
4 2007 2097 2098 2008
4 2008 2098 2099 2009
4 2009 2099 2100 2010
4 2010 2100 2101 2011
4 2011 2101 2102 2012
4 2012 2102 2103 2013
4 2013 2103 2104 2014
4 2014 2104 2105 2015
4 2015 2105 2106 2016
4 2016 2106 2107 2017
4 2017 2107 2108 2018
4 2018 2108 2109 2019
4 2019 2109 2110 2020
4 2020 2110 2111 2021
4 2021 2111 2112 2022
4 2022 2112 2113 2023
4 2023 2113 2114 2068
4 2025 2024 2115 2116
4 2024 2026 2117 2115
4 2026 2027 2118 2117
4 2027 2028 2119 2118
4 2028 2029 2120 2119
4 2029 2030 2121 2120
4 2030 2031 2122 2121
4 2031 2032 2123 2122
4 2032 2033 2124 2123
4 2033 2034 2125 2124
4 2034 2035 2126 2125
4 2035 2036 2127 2126
4 2036 2037 2128 2127
4 2037 2038 2129 2128
4 2038 2039 2130 2129
4 2039 2040 2131 2130
4 2040 2041 2132 2131
4 2041 2042 2133 2132
4 2042 2043 2134 2133
4 2043 2044 2135 2134
4 2044 2045 2136 2135
4 2045 2046 2137 2136
4 2046 2047 2138 2137
4 2047 2048 2139 2138
4 2048 2049 2140 2139
4 2049 2050 2141 2140
4 2050 2051 2142 2141
4 2051 2052 2143 2142
4 2052 2053 2144 2143
4 2053 2054 2145 2144
4 2054 2055 2146 2145
4 2055 2056 2147 2146
4 2056 2057 2148 2147
4 2057 2058 2149 2148
4 2058 2059 2150 2149
4 2059 2060 2151 2150
4 2060 2061 2152 2151
4 2061 2062 2153 2152
4 2062 2063 2154 2153
4 2063 2064 2155 2154
4 2064 2065 2156 2155
4 2065 2066 2157 2156
4 2066 2067 2158 2157
4 2067 2069 2159 2158
4 2068 2114 2160 2069
4 2069 2160 2161 2159
4 2070 2162 2163 2071
4 2071 2163 2164 2072
4 2072 2164 2165 2073
4 2073 2165 2166 2074
4 2074 2166 2167 2075
4 2075 2167 2168 2076
4 2076 2168 2169 2077
4 2077 2169 2170 2078
4 2078 2170 2171 2079
4 2079 2171 2172 2080
4 2080 2172 2173 2081
4 2081 2173 2174 2082
4 2082 2174 2175 2083
4 2083 2175 2176 2084
4 2084 2176 2177 2085
4 2085 2177 2178 2086
4 2086 2178 2179 2087
4 2087 2179 2180 2088
4 2088 2180 2181 2089
4 2089 2181 2182 2090
4 2090 2182 2183 2091
4 2091 2183 2184 2092
4 2092 2184 2185 2093
4 2093 2185 2186 2094
4 2094 2186 2187 2095
4 2095 2187 2188 2096
4 2096 2188 2189 2097
4 2097 2189 2190 2098
4 2098 2190 2191 2099
4 2099 2191 2192 2100
4 2100 2192 2193 2101
4 2101 2193 2194 2102
4 2102 2194 2195 2103
4 2103 2195 2196 2104
4 2104 2196 2197 2105
4 2105 2197 2198 2106
4 2106 2198 2199 2107
4 2107 2199 2200 2108
4 2108 2200 2201 2109
4 2109 2201 2202 2110
4 2110 2202 2203 2111
4 2111 2203 2204 2112
4 2112 2204 2205 2113
4 2113 2205 2206 2114
4 2114 2206 2207 2160
4 2116 2115 2208 2209
4 2115 2117 2210 2208
4 2117 2118 2211 2210
4 2118 2119 2212 2211
4 2119 2120 2213 2212
4 2120 2121 2214 2213
4 2121 2122 2215 2214
4 2122 2123 2216 2215
4 2123 2124 2217 2216
4 2124 2125 2218 2217
4 2125 2126 2219 2218
4 2126 2127 2220 2219
4 2127 2128 2221 2220
4 2128 2129 2222 2221
4 2129 2130 2223 2222
4 2130 2131 2224 2223
4 2131 2132 2225 2224
4 2132 2133 2226 2225
4 2133 2134 2227 2226
4 2134 2135 2228 2227
4 2135 2136 2229 2228
4 2136 2137 2230 2229
4 2137 2138 2231 2230
4 2138 2139 2232 2231
4 2139 2140 2233 2232
4 2140 2141 2234 2233
4 2141 2142 2235 2234
4 2142 2143 2236 2235
4 2143 2144 2237 2236
4 2144 2145 2238 2237
4 2145 2146 2239 2238
4 2146 2147 2240 2239
4 2147 2148 2241 2240
4 2148 2149 2242 2241
4 2149 2150 2243 2242
4 2150 2151 2244 2243
4 2151 2152 2245 2244
4 2152 2153 2246 2245
4 2153 2154 2247 2246
4 2154 2155 2248 2247
4 2155 2156 2249 2248
4 2156 2157 2250 2249
4 2157 2158 2251 2250
4 2158 2159 2252 2251
4 2159 2161 2253 2252
4 2160 2207 2254 2161
4 2161 2254 2255 2253
4 2162 2256 2257 2163
4 2163 2257 2258 2164
4 2164 2258 2259 2165
4 2165 2259 2260 2166
4 2166 2260 2261 2167
4 2167 2261 2262 2168
4 2168 2262 2263 2169
4 2169 2263 2264 2170
4 2170 2264 2265 2171
4 2171 2265 2266 2172
4 2172 2266 2267 2173
4 2173 2267 2268 2174
4 2174 2268 2269 2175
4 2175 2269 2270 2176
4 2176 2270 2271 2177
4 2177 2271 2272 2178
4 2178 2272 2273 2179
4 2179 2273 2274 2180
4 2180 2274 2275 2181
4 2181 2275 2276 2182
4 2182 2276 2277 2183
4 2183 2277 2278 2184
4 2184 2278 2279 2185
4 2185 2279 2280 2186
4 2186 2280 2281 2187
4 2187 2281 2282 2188
4 2188 2282 2283 2189
4 2189 2283 2284 2190
4 2190 2284 2285 2191
4 2191 2285 2286 2192
4 2192 2286 2287 2193
4 2193 2287 2288 2194
4 2194 2288 2289 2195
4 2195 2289 2290 2196
4 2196 2290 2291 2197
4 2197 2291 2292 2198
4 2198 2292 2293 2199
4 2199 2293 2294 2200
4 2200 2294 2295 2201
4 2201 2295 2296 2202
4 2202 2296 2297 2203
4 2203 2297 2298 2204
4 2204 2298 2299 2205
4 2205 2299 2300 2206
4 2206 2300 2301 2207
4 2207 2301 2302 2254
4 2209 2208 2303 2304
4 2208 2210 2305 2303
4 2210 2211 2306 2305
4 2211 2212 2307 2306
4 2212 2213 2308 2307
4 2213 2214 2309 2308
4 2214 2215 2310 2309
4 2215 2216 2311 2310
4 2216 2217 2312 2311
4 2217 2218 2313 2312
4 2218 2219 2314 2313
4 2219 2220 2315 2314
4 2220 2221 2316 2315
4 2221 2222 2317 2316
4 2222 2223 2318 2317
4 2223 2224 2319 2318
4 2224 2225 2320 2319
4 2225 2226 2321 2320
4 2226 2227 2322 2321
4 2227 2228 2323 2322
4 2228 2229 2324 2323
4 2229 2230 2325 2324
4 2230 2231 2326 2325
4 2231 2232 2327 2326
4 2232 2233 2328 2327
4 2233 2234 2329 2328
4 2234 2235 2330 2329
4 2235 2236 2331 2330
4 2236 2237 2332 2331
4 2237 2238 2333 2332
4 2238 2239 2334 2333
4 2239 2240 2335 2334
4 2240 2241 2336 2335
4 2241 2242 2337 2336
4 2242 2243 2338 2337
4 2243 2244 2339 2338
4 2244 2245 2340 2339
4 2245 2246 2341 2340
4 2246 2247 2342 2341
4 2247 2248 2343 2342
4 2248 2249 2344 2343
4 2249 2250 2345 2344
4 2250 2251 2346 2345
4 2251 2252 2347 2346
4 2252 2253 2348 2347
4 2253 2255 2349 2348
4 2254 2302 2350 2255
4 2255 2350 2351 2349
4 2256 2352 2353 2257
4 2257 2353 2354 2258
4 2258 2354 2355 2259
4 2259 2355 2356 2260
4 2260 2356 2357 2261
4 2261 2357 2358 2262
4 2262 2358 2359 2263
4 2263 2359 2360 2264
4 2264 2360 2361 2265
4 2265 2361 2362 2266
4 2266 2362 2363 2267
4 2267 2363 2364 2268
4 2268 2364 2365 2269
4 2269 2365 2366 2270
4 2270 2366 2367 2271
4 2271 2367 2368 2272
4 2272 2368 2369 2273
4 2273 2369 2370 2274
4 2274 2370 2371 2275
4 2275 2371 2372 2276
4 2276 2372 2373 2277
4 2277 2373 2374 2278
4 2278 2374 2375 2279
4 2279 2375 2376 2280
4 2280 2376 2377 2281
4 2281 2377 2378 2282
4 2282 2378 2379 2283
4 2283 2379 2380 2284
4 2284 2380 2381 2285
4 2285 2381 2382 2286
4 2286 2382 2383 2287
4 2287 2383 2384 2288
4 2288 2384 2385 2289
4 2289 2385 2386 2290
4 2290 2386 2387 2291
4 2291 2387 2388 2292
4 2292 2388 2389 2293
4 2293 2389 2390 2294
4 2294 2390 2391 2295
4 2295 2391 2392 2296
4 2296 2392 2393 2297
4 2297 2393 2394 2298
4 2298 2394 2395 2299
4 2299 2395 2396 2300
4 2300 2396 2397 2301
4 2301 2397 2398 2302
4 2302 2398 2399 2350
4 2304 2303 2400 2401
4 2303 2305 2402 2400
4 2305 2306 2403 2402
4 2306 2307 2404 2403
4 2307 2308 2405 2404
4 2308 2309 2406 2405
4 2309 2310 2407 2406
4 2310 2311 2408 2407
4 2311 2312 2409 2408
4 2312 2313 2410 2409
4 2313 2314 2411 2410
4 2314 2315 2412 2411
4 2315 2316 2413 2412
4 2316 2317 2414 2413
4 2317 2318 2415 2414
4 2318 2319 2416 2415
4 2319 2320 2417 2416
4 2320 2321 2418 2417
4 2321 2322 2419 2418
4 2322 2323 2420 2419
4 2323 2324 2421 2420
4 2324 2325 2422 2421
4 2325 2326 2423 2422
4 2326 2327 2424 2423
4 2327 2328 2425 2424
4 2328 2329 2426 2425
4 2329 2330 2427 2426
4 2330 2331 2428 2427
4 2331 2332 2429 2428
4 2332 2333 2430 2429
4 2333 2334 2431 2430
4 2334 2335 2432 2431
4 2335 2336 2433 2432
4 2336 2337 2434 2433
4 2337 2338 2435 2434
4 2338 2339 2436 2435
4 2339 2340 2437 2436
4 2340 2341 2438 2437
4 2341 2342 2439 2438
4 2342 2343 2440 2439
4 2343 2344 2441 2440
4 2344 2345 2442 2441
4 2345 2346 2443 2442
4 2346 2347 2444 2443
4 2347 2348 2445 2444
4 2348 2349 2446 2445
4 2349 2351 2447 2446
4 2350 2399 2448 2351
4 2351 2448 2449 2447
4 2352 2450 2451 2353
4 2353 2451 2452 2354
4 2354 2452 2453 2355
4 2355 2453 2454 2356
4 2356 2454 2455 2357
4 2357 2455 2456 2358
4 2358 2456 2457 2359
4 2359 2457 2458 2360
4 2360 2458 2459 2361
4 2361 2459 2460 2362
4 2362 2460 2461 2363
4 2363 2461 2462 2364
4 2364 2462 2463 2365
4 2365 2463 2464 2366
4 2366 2464 2465 2367
4 2367 2465 2466 2368
4 2368 2466 2467 2369
4 2369 2467 2468 2370
4 2370 2468 2469 2371
4 2371 2469 2470 2372
4 2372 2470 2471 2373
4 2373 2471 2472 2374
4 2374 2472 2473 2375
4 2375 2473 2474 2376
4 2376 2474 2475 2377
4 2377 2475 2476 2378
4 2378 2476 2477 2379
4 2379 2477 2478 2380
4 2380 2478 2479 2381
4 2381 2479 2480 2382
4 2382 2480 2481 2383
4 2383 2481 2482 2384
4 2384 2482 2483 2385
4 2385 2483 2484 2386
4 2386 2484 2485 2387
4 2387 2485 2486 2388
4 2388 2486 2487 2389
4 2389 2487 2488 2390
4 2390 2488 2489 2391
4 2391 2489 2490 2392
4 2392 2490 2491 2393
4 2393 2491 2492 2394
4 2394 2492 2493 2395
4 2395 2493 2494 2396
4 2396 2494 2495 2397
4 2397 2495 2496 2398
4 2398 2496 2497 2399
4 2399 2497 2498 2448
4 2401 2400 2499 2500
4 2400 2402 2501 2499
4 2402 2403 2502 2501
4 2403 2404 2503 2502
4 2404 2405 2504 2503
4 2405 2406 2505 2504
4 2406 2407 2506 2505
4 2407 2408 2507 2506
4 2408 2409 2508 2507
4 2409 2410 2509 2508
4 2410 2411 2510 2509
4 2411 2412 2511 2510
4 2412 2413 2512 2511
4 2413 2414 2513 2512
4 2414 2415 2514 2513
4 2415 2416 2515 2514
4 2416 2417 2516 2515
4 2417 2418 2517 2516
4 2418 2419 2518 2517
4 2419 2420 2519 2518
4 2420 2421 2520 2519
4 2421 2422 2521 2520
4 2422 2423 2522 2521
4 2423 2424 2523 2522
4 2424 2425 2524 2523
4 2425 2426 2525 2524
4 2426 2427 2526 2525
4 2427 2428 2527 2526
4 2428 2429 2528 2527
4 2429 2430 2529 2528
4 2430 2431 2530 2529
4 2431 2432 2531 2530
4 2432 2433 2532 2531
4 2433 2434 2533 2532
4 2434 2435 2534 2533
4 2435 2436 2535 2534
4 2436 2437 2536 2535
4 2437 2438 2537 2536
4 2438 2439 2538 2537
4 2439 2440 2539 2538
4 2440 2441 2540 2539
4 2441 2442 2541 2540
4 2442 2443 2542 2541
4 2443 2444 2543 2542
4 2444 2445 2544 2543
4 2445 2446 2545 2544
4 2446 2447 2546 2545
4 2447 2449 2547 2546
4 2448 2498 2548 2449
4 2449 2548 2549 2547
4 2450 2550 2551 2451
4 2451 2551 2552 2452
4 2452 2552 2553 2453
4 2453 2553 2554 2454
4 2454 2554 2555 2455
4 2455 2555 2556 2456
4 2456 2556 2557 2457
4 2457 2557 2558 2458
4 2458 2558 2559 2459
4 2459 2559 2560 2460
4 2460 2560 2561 2461
4 2461 2561 2562 2462
4 2462 2562 2563 2463
4 2463 2563 2564 2464
4 2464 2564 2565 2465
4 2465 2565 2566 2466
4 2466 2566 2567 2467
4 2467 2567 2568 2468
4 2468 2568 2569 2469
4 2469 2569 2570 2470
4 2470 2570 2571 2471
4 2471 2571 2572 2472
4 2472 2572 2573 2473
4 2473 2573 2574 2474
4 2474 2574 2575 2475
4 2475 2575 2576 2476
4 2476 2576 2577 2477
4 2477 2577 2578 2478
4 2478 2578 2579 2479
4 2479 2579 2580 2480
4 2480 2580 2581 2481
4 2481 2581 2582 2482
4 2482 2582 2583 2483
4 2483 2583 2584 2484
4 2484 2584 2585 2485
4 2485 2585 2586 2486
4 2486 2586 2587 2487
4 2487 2587 2588 2488
4 2488 2588 2589 2489
4 2489 2589 2590 2490
4 2490 2590 2591 2491
4 2491 2591 2592 2492
4 2492 2592 2593 2493
4 2493 2593 2594 2494
4 2494 2594 2595 2495
4 2495 2595 2596 2496
4 2496 2596 2597 2497
4 2497 2597 2598 2498
4 2498 2598 2599 2548
4 2500 2499 2600 2601
4 2499 2501 2602 2600
4 2501 2502 2603 2602
4 2502 2503 2604 2603
4 2503 2504 2605 2604
4 2504 2505 2606 2605
4 2505 2506 2607 2606
4 2506 2507 2608 2607
4 2507 2508 2609 2608
4 2508 2509 2610 2609
4 2509 2510 2611 2610
4 2510 2511 2612 2611
4 2511 2512 2613 2612
4 2512 2513 2614 2613
4 2513 2514 2615 2614
4 2514 2515 2616 2615
4 2515 2516 2617 2616
4 2516 2517 2618 2617
4 2517 2518 2619 2618
4 2518 2519 2620 2619
4 2519 2520 2621 2620
4 2520 2521 2622 2621
4 2521 2522 2623 2622
4 2522 2523 2624 2623
4 2523 2524 2625 2624
4 2524 2525 2626 2625
4 2525 2526 2627 2626
4 2526 2527 2628 2627
4 2527 2528 2629 2628
4 2528 2529 2630 2629
4 2529 2530 2631 2630
4 2530 2531 2632 2631
4 2531 2532 2633 2632
4 2532 2533 2634 2633
4 2533 2534 2635 2634
4 2534 2535 2636 2635
4 2535 2536 2637 2636
4 2536 2537 2638 2637
4 2537 2538 2639 2638
4 2538 2539 2640 2639
4 2539 2540 2641 2640
4 2540 2541 2642 2641
4 2541 2542 2643 2642
4 2542 2543 2644 2643
4 2543 2544 2645 2644
4 2544 2545 2646 2645
4 2545 2546 2647 2646
4 2546 2547 2648 2647
4 2547 2549 2649 2648
4 2548 2599 2650 2549
4 2549 2650 2651 2649
4 2550 2652 2653 2551
4 2551 2653 2654 2552
4 2552 2654 2655 2553
4 2553 2655 2656 2554
4 2554 2656 2657 2555
4 2555 2657 2658 2556
4 2556 2658 2659 2557
4 2557 2659 2660 2558
4 2558 2660 2661 2559
4 2559 2661 2662 2560
4 2560 2662 2663 2561
4 2561 2663 2664 2562
4 2562 2664 2665 2563
4 2563 2665 2666 2564
4 2564 2666 2667 2565
4 2565 2667 2668 2566
4 2566 2668 2669 2567
4 2567 2669 2670 2568
4 2568 2670 2671 2569
4 2569 2671 2672 2570
4 2570 2672 2673 2571
4 2571 2673 2674 2572
4 2572 2674 2675 2573
4 2573 2675 2676 2574
4 2574 2676 2677 2575
4 2575 2677 2678 2576
4 2576 2678 2679 2577
4 2577 2679 2680 2578
4 2578 2680 2681 2579
4 2579 2681 2682 2580
4 2580 2682 2683 2581
4 2581 2683 2684 2582
4 2582 2684 2685 2583
4 2583 2685 2686 2584
4 2584 2686 2687 2585
4 2585 2687 2688 2586
4 2586 2688 2689 2587
4 2587 2689 2690 2588
4 2588 2690 2691 2589
4 2589 2691 2692 2590
4 2590 2692 2693 2591
4 2591 2693 2694 2592
4 2592 2694 2695 2593
4 2593 2695 2696 2594
4 2594 2696 2697 2595
4 2595 2697 2698 2596
4 2596 2698 2699 2597
4 2597 2699 2700 2598
4 2598 2700 2701 2599
4 2599 2701 2702 2650
4 2601 2600 2703 2704
4 2600 2602 2705 2703
4 2602 2603 2706 2705
4 2603 2604 2707 2706
4 2604 2605 2708 2707
4 2605 2606 2709 2708
4 2606 2607 2710 2709
4 2607 2608 2711 2710
4 2608 2609 2712 2711
4 2609 2610 2713 2712
4 2610 2611 2714 2713
4 2611 2612 2715 2714
4 2612 2613 2716 2715
4 2613 2614 2717 2716
4 2614 2615 2718 2717
4 2615 2616 2719 2718
4 2616 2617 2720 2719
4 2617 2618 2721 2720
4 2618 2619 2722 2721
4 2619 2620 2723 2722
4 2620 2621 2724 2723
4 2621 2622 2725 2724
4 2622 2623 2726 2725
4 2623 2624 2727 2726
4 2624 2625 2728 2727
4 2625 2626 2729 2728
4 2626 2627 2730 2729
4 2627 2628 2731 2730
4 2628 2629 2732 2731
4 2629 2630 2733 2732
4 2630 2631 2734 2733
4 2631 2632 2735 2734
4 2632 2633 2736 2735
4 2633 2634 2737 2736
4 2634 2635 2738 2737
4 2635 2636 2739 2738
4 2636 2637 2740 2739
4 2637 2638 2741 2740
4 2638 2639 2742 2741
4 2639 2640 2743 2742
4 2640 2641 2744 2743
4 2641 2642 2745 2744
4 2642 2643 2746 2745
4 2643 2644 2747 2746
4 2644 2645 2748 2747
4 2645 2646 2749 2748
4 2646 2647 2750 2749
4 2647 2648 2751 2750
4 2648 2649 2752 2751
4 2649 2651 2753 2752
4 2650 2702 2754 2651
4 2651 2754 2755 2753
4 2652 2756 2757 2653
4 2653 2757 2758 2654
4 2654 2758 2759 2655
4 2655 2759 2760 2656
4 2656 2760 2761 2657
4 2657 2761 2762 2658
4 2658 2762 2763 2659
4 2659 2763 2764 2660
4 2660 2764 2765 2661
4 2661 2765 2766 2662
4 2662 2766 2767 2663
4 2663 2767 2768 2664
4 2664 2768 2769 2665
4 2665 2769 2770 2666
4 2666 2770 2771 2667
4 2667 2771 2772 2668
4 2668 2772 2773 2669
4 2669 2773 2774 2670
4 2670 2774 2775 2671
4 2671 2775 2776 2672
4 2672 2776 2777 2673
4 2673 2777 2778 2674
4 2674 2778 2779 2675
4 2675 2779 2780 2676
4 2676 2780 2781 2677
4 2677 2781 2782 2678
4 2678 2782 2783 2679
4 2679 2783 2784 2680
4 2680 2784 2785 2681
4 2681 2785 2786 2682
4 2682 2786 2787 2683
4 2683 2787 2788 2684
4 2684 2788 2789 2685
4 2685 2789 2790 2686
4 2686 2790 2791 2687
4 2687 2791 2792 2688
4 2688 2792 2793 2689
4 2689 2793 2794 2690
4 2690 2794 2795 2691
4 2691 2795 2796 2692
4 2692 2796 2797 2693
4 2693 2797 2798 2694
4 2694 2798 2799 2695
4 2695 2799 2800 2696
4 2696 2800 2801 2697
4 2697 2801 2802 2698
4 2698 2802 2803 2699
4 2699 2803 2804 2700
4 2700 2804 2805 2701
4 2701 2805 2806 2702
4 2702 2806 2807 2754
4 2704 2703 2808 2809
4 2703 2705 2810 2808
4 2705 2706 2811 2810
4 2706 2707 2812 2811
4 2707 2708 2813 2812
4 2708 2709 2814 2813
4 2709 2710 2815 2814
4 2710 2711 2816 2815
4 2711 2712 2817 2816
4 2712 2713 2818 2817
4 2713 2714 2819 2818
4 2714 2715 2820 2819
4 2715 2716 2821 2820
4 2716 2717 2822 2821
4 2717 2718 2823 2822
4 2718 2719 2824 2823
4 2719 2720 2825 2824
4 2720 2721 2826 2825
4 2721 2722 2827 2826
4 2722 2723 2828 2827
4 2723 2724 2829 2828
4 2724 2725 2830 2829
4 2725 2726 2831 2830
4 2726 2727 2832 2831
4 2727 2728 2833 2832
4 2728 2729 2834 2833
4 2729 2730 2835 2834
4 2730 2731 2836 2835
4 2731 2732 2837 2836
4 2732 2733 2838 2837
4 2733 2734 2839 2838
4 2734 2735 2840 2839
4 2735 2736 2841 2840
4 2736 2737 2842 2841
4 2737 2738 2843 2842
4 2738 2739 2844 2843
4 2739 2740 2845 2844
4 2740 2741 2846 2845
4 2741 2742 2847 2846
4 2742 2743 2848 2847
4 2743 2744 2849 2848
4 2744 2745 2850 2849
4 2745 2746 2851 2850
4 2746 2747 2852 2851
4 2747 2748 2853 2852
4 2748 2749 2854 2853
4 2749 2750 2855 2854
4 2750 2751 2856 2855
4 2751 2752 2857 2856
4 2752 2753 2858 2857
4 2753 2755 2859 2858
4 2754 2807 2860 2755
4 2755 2860 2861 2859
4 2756 2862 2863 2757
4 2757 2863 2864 2758
4 2758 2864 2865 2759
4 2759 2865 2866 2760
4 2760 2866 2867 2761
4 2761 2867 2868 2762
4 2762 2868 2869 2763
4 2763 2869 2870 2764
4 2764 2870 2871 2765
4 2765 2871 2872 2766
4 2766 2872 2873 2767
4 2767 2873 2874 2768
4 2768 2874 2875 2769
4 2769 2875 2876 2770
4 2770 2876 2877 2771
4 2771 2877 2878 2772
4 2772 2878 2879 2773
4 2773 2879 2880 2774
4 2774 2880 2881 2775
4 2775 2881 2882 2776
4 2776 2882 2883 2777
4 2777 2883 2884 2778
4 2778 2884 2885 2779
4 2779 2885 2886 2780
4 2780 2886 2887 2781
4 2781 2887 2888 2782
4 2782 2888 2889 2783
4 2783 2889 2890 2784
4 2784 2890 2891 2785
4 2785 2891 2892 2786
4 2786 2892 2893 2787
4 2787 2893 2894 2788
4 2788 2894 2895 2789
4 2789 2895 2896 2790
4 2790 2896 2897 2791
4 2791 2897 2898 2792
4 2792 2898 2899 2793
4 2793 2899 2900 2794
4 2794 2900 2901 2795
4 2795 2901 2902 2796
4 2796 2902 2903 2797
4 2797 2903 2904 2798
4 2798 2904 2905 2799
4 2799 2905 2906 2800
4 2800 2906 2907 2801
4 2801 2907 2908 2802
4 2802 2908 2909 2803
4 2803 2909 2910 2804
4 2804 2910 2911 2805
4 2805 2911 2912 2806
4 2806 2912 2913 2807
4 2807 2913 2914 2860
4 2809 2808 2915 2916
4 2808 2810 2917 2915
4 2810 2811 2918 2917
4 2811 2812 2919 2918
4 2812 2813 2920 2919
4 2813 2814 2921 2920
4 2814 2815 2922 2921
4 2815 2816 2923 2922
4 2816 2817 2924 2923
4 2817 2818 2925 2924
4 2818 2819 2926 2925
4 2819 2820 2927 2926
4 2820 2821 2928 2927
4 2821 2822 2929 2928
4 2822 2823 2930 2929
4 2823 2824 2931 2930
4 2824 2825 2932 2931
4 2825 2826 2933 2932
4 2826 2827 2934 2933
4 2827 2828 2935 2934
4 2828 2829 2936 2935
4 2829 2830 2937 2936
4 2830 2831 2938 2937
4 2831 2832 2939 2938
4 2832 2833 2940 2939
4 2833 2834 2941 2940
4 2834 2835 2942 2941
4 2835 2836 2943 2942
4 2836 2837 2944 2943
4 2837 2838 2945 2944
4 2838 2839 2946 2945
4 2839 2840 2947 2946
4 2840 2841 2948 2947
4 2841 2842 2949 2948
4 2842 2843 2950 2949
4 2843 2844 2951 2950
4 2844 2845 2952 2951
4 2845 2846 2953 2952
4 2846 2847 2954 2953
4 2847 2848 2955 2954
4 2848 2849 2956 2955
4 2849 2850 2957 2956
4 2850 2851 2958 2957
4 2851 2852 2959 2958
4 2852 2853 2960 2959
4 2853 2854 2961 2960
4 2854 2855 2962 2961
4 2855 2856 2963 2962
4 2856 2857 2964 2963
4 2857 2858 2965 2964
4 2858 2859 2966 2965
4 2859 2861 2967 2966
4 2860 2914 2968 2861
4 2861 2968 2969 2967
4 2862 2970 2971 2863
4 2863 2971 2972 2864
4 2864 2972 2973 2865
4 2865 2973 2974 2866
4 2866 2974 2975 2867
4 2867 2975 2976 2868
4 2868 2976 2977 2869
4 2869 2977 2978 2870
4 2870 2978 2979 2871
4 2871 2979 2980 2872
4 2872 2980 2981 2873
4 2873 2981 2982 2874
4 2874 2982 2983 2875
4 2875 2983 2984 2876
4 2876 2984 2985 2877
4 2877 2985 2986 2878
4 2878 2986 2987 2879
4 2879 2987 2988 2880
4 2880 2988 2989 2881
4 2881 2989 2990 2882
4 2882 2990 2991 2883
4 2883 2991 2992 2884
4 2884 2992 2993 2885
4 2885 2993 2994 2886
4 2886 2994 2995 2887
4 2887 2995 2996 2888
4 2888 2996 2997 2889
4 2889 2997 2998 2890
4 2890 2998 2999 2891
4 2891 2999 3000 2892
4 2892 3000 3001 2893
4 2893 3001 3002 2894
4 2894 3002 3003 2895
4 2895 3003 3004 2896
4 2896 3004 3005 2897
4 2897 3005 3006 2898
4 2898 3006 3007 2899
4 2899 3007 3008 2900
4 2900 3008 3009 2901
4 2901 3009 3010 2902
4 2902 3010 3011 2903
4 2903 3011 3012 2904
4 2904 3012 3013 2905
4 2905 3013 3014 2906
4 2906 3014 3015 2907
4 2907 3015 3016 2908
4 2908 3016 3017 2909
4 2909 3017 3018 2910
4 2910 3018 3019 2911
4 2911 3019 3020 2912
4 2912 3020 3021 2913
4 2913 3021 3022 2914
4 2914 3022 3023 2968
4 2916 2915 3024 3025
4 2915 2917 3026 3024
4 2917 2918 3027 3026
4 2918 2919 3028 3027
4 2919 2920 3029 3028
4 2920 2921 3030 3029
4 2921 2922 3031 3030
4 2922 2923 3032 3031
4 2923 2924 3033 3032
4 2924 2925 3034 3033
4 2925 2926 3035 3034
4 2926 2927 3036 3035
4 2927 2928 3037 3036
4 2928 2929 3038 3037
4 2929 2930 3039 3038
4 2930 2931 3040 3039
4 2931 2932 3041 3040
4 2932 2933 3042 3041
4 2933 2934 3043 3042
4 2934 2935 3044 3043
4 2935 2936 3045 3044
4 2936 2937 3046 3045
4 2937 2938 3047 3046
4 2938 2939 3048 3047
4 2939 2940 3049 3048
4 2940 2941 3050 3049
4 2941 2942 3051 3050
4 2942 2943 3052 3051
4 2943 2944 3053 3052
4 2944 2945 3054 3053
4 2945 2946 3055 3054
4 2946 2947 3056 3055
4 2947 2948 3057 3056
4 2948 2949 3058 3057
4 2949 2950 3059 3058
4 2950 2951 3060 3059
4 2951 2952 3061 3060
4 2952 2953 3062 3061
4 2953 2954 3063 3062
4 2954 2955 3064 3063
4 2955 2956 3065 3064
4 2956 2957 3066 3065
4 2957 2958 3067 3066
4 2958 2959 3068 3067
4 2959 2960 3069 3068
4 2960 2961 3070 3069
4 2961 2962 3071 3070
4 2962 2963 3072 3071
4 2963 2964 3073 3072
4 2964 2965 3074 3073
4 2965 2966 3075 3074
4 2966 2967 3076 3075
4 2967 2969 3077 3076
4 2968 3023 3078 2969
4 2969 3078 3079 3077
4 2970 3080 3081 2971
4 2971 3081 3082 2972
4 2972 3082 3083 2973
4 2973 3083 3084 2974
4 2974 3084 3085 2975
4 2975 3085 3086 2976
4 2976 3086 3087 2977
4 2977 3087 3088 2978
4 2978 3088 3089 2979
4 2979 3089 3090 2980
4 2980 3090 3091 2981
4 2981 3091 3092 2982
4 2982 3092 3093 2983
4 2983 3093 3094 2984
4 2984 3094 3095 2985
4 2985 3095 3096 2986
4 2986 3096 3097 2987
4 2987 3097 3098 2988
4 2988 3098 3099 2989
4 2989 3099 3100 2990
4 2990 3100 3101 2991
4 2991 3101 3102 2992
4 2992 3102 3103 2993
4 2993 3103 3104 2994
4 2994 3104 3105 2995
4 2995 3105 3106 2996
4 2996 3106 3107 2997
4 2997 3107 3108 2998
4 2998 3108 3109 2999
4 2999 3109 3110 3000
4 3000 3110 3111 3001
4 3001 3111 3112 3002
4 3002 3112 3113 3003
4 3003 3113 3114 3004
4 3004 3114 3115 3005
4 3005 3115 3116 3006
4 3006 3116 3117 3007
4 3007 3117 3118 3008
4 3008 3118 3119 3009
4 3009 3119 3120 3010
4 3010 3120 3121 3011
4 3011 3121 3122 3012
4 3012 3122 3123 3013
4 3013 3123 3124 3014
4 3014 3124 3125 3015
4 3015 3125 3126 3016
4 3016 3126 3127 3017
4 3017 3127 3128 3018
4 3018 3128 3129 3019
4 3019 3129 3130 3020
4 3020 3130 3131 3021
4 3021 3131 3132 3022
4 3022 3132 3133 3023
4 3023 3133 3134 3078
4 3025 3024 3135 3136
4 3024 3026 3137 3135
4 3026 3027 3138 3137
4 3027 3028 3139 3138
4 3028 3029 3140 3139
4 3029 3030 3141 3140
4 3030 3031 3142 3141
4 3031 3032 3143 3142
4 3032 3033 3144 3143
4 3033 3034 3145 3144
4 3034 3035 3146 3145
4 3035 3036 3147 3146
4 3036 3037 3148 3147
4 3037 3038 3149 3148
4 3038 3039 3150 3149
4 3039 3040 3151 3150
4 3040 3041 3152 3151
4 3041 3042 3153 3152
4 3042 3043 3154 3153
4 3043 3044 3155 3154
4 3044 3045 3156 3155
4 3045 3046 3157 3156
4 3046 3047 3158 3157
4 3047 3048 3159 3158
4 3048 3049 3160 3159
4 3049 3050 3161 3160
4 3050 3051 3162 3161
4 3051 3052 3163 3162
4 3052 3053 3164 3163
4 3053 3054 3165 3164
4 3054 3055 3166 3165
4 3055 3056 3167 3166
4 3056 3057 3168 3167
4 3057 3058 3169 3168
4 3058 3059 3170 3169
4 3059 3060 3171 3170
4 3060 3061 3172 3171
4 3061 3062 3173 3172
4 3062 3063 3174 3173
4 3063 3064 3175 3174
4 3064 3065 3176 3175
4 3065 3066 3177 3176
4 3066 3067 3178 3177
4 3067 3068 3179 3178
4 3068 3069 3180 3179
4 3069 3070 3181 3180
4 3070 3071 3182 3181
4 3071 3072 3183 3182
4 3072 3073 3184 3183
4 3073 3074 3185 3184
4 3074 3075 3186 3185
4 3075 3076 3187 3186
4 3076 3077 3188 3187
4 3077 3079 3189 3188
4 3078 3134 3190 3079
4 3079 3190 3191 3189
4 3080 3192 3193 3081
4 3081 3193 3194 3082
4 3082 3194 3195 3083
4 3083 3195 3196 3084
4 3084 3196 3197 3085
4 3085 3197 3198 3086
4 3086 3198 3199 3087
4 3087 3199 3200 3088
4 3088 3200 3201 3089
4 3089 3201 3202 3090
4 3090 3202 3203 3091
4 3091 3203 3204 3092
4 3092 3204 3205 3093
4 3093 3205 3206 3094
4 3094 3206 3207 3095
4 3095 3207 3208 3096
4 3096 3208 3209 3097
4 3097 3209 3210 3098
4 3098 3210 3211 3099
4 3099 3211 3212 3100
4 3100 3212 3213 3101
4 3101 3213 3214 3102
4 3102 3214 3215 3103
4 3103 3215 3216 3104
4 3104 3216 3217 3105
4 3105 3217 3218 3106
4 3106 3218 3219 3107
4 3107 3219 3220 3108
4 3108 3220 3221 3109
4 3109 3221 3222 3110
4 3110 3222 3223 3111
4 3111 3223 3224 3112
4 3112 3224 3225 3113
4 3113 3225 3226 3114
4 3114 3226 3227 3115
4 3115 3227 3228 3116
4 3116 3228 3229 3117
4 3117 3229 3230 3118
4 3118 3230 3231 3119
4 3119 3231 3232 3120
4 3120 3232 3233 3121
4 3121 3233 3234 3122
4 3122 3234 3235 3123
4 3123 3235 3236 3124
4 3124 3236 3237 3125
4 3125 3237 3238 3126
4 3126 3238 3239 3127
4 3127 3239 3240 3128
4 3128 3240 3241 3129
4 3129 3241 3242 3130
4 3130 3242 3243 3131
4 3131 3243 3244 3132
4 3132 3244 3245 3133
4 3133 3245 3246 3134
4 3134 3246 3247 3190
4 3136 3135 3248 3249
4 3135 3137 3250 3248
4 3137 3138 3251 3250
4 3138 3139 3252 3251
4 3139 3140 3253 3252
4 3140 3141 3254 3253
4 3141 3142 3255 3254
4 3142 3143 3256 3255
4 3143 3144 3257 3256
4 3144 3145 3258 3257
4 3145 3146 3259 3258
4 3146 3147 3260 3259
4 3147 3148 3261 3260
4 3148 3149 3262 3261
4 3149 3150 3263 3262
4 3150 3151 3264 3263
4 3151 3152 3265 3264
4 3152 3153 3266 3265
4 3153 3154 3267 3266
4 3154 3155 3268 3267
4 3155 3156 3269 3268
4 3156 3157 3270 3269
4 3157 3158 3271 3270
4 3158 3159 3272 3271
4 3159 3160 3273 3272
4 3160 3161 3274 3273
4 3161 3162 3275 3274
4 3162 3163 3276 3275
4 3163 3164 3277 3276
4 3164 3165 3278 3277
4 3165 3166 3279 3278
4 3166 3167 3280 3279
4 3167 3168 3281 3280
4 3168 3169 3282 3281
4 3169 3170 3283 3282
4 3170 3171 3284 3283
4 3171 3172 3285 3284
4 3172 3173 3286 3285
4 3173 3174 3287 3286
4 3174 3175 3288 3287
4 3175 3176 3289 3288
4 3176 3177 3290 3289
4 3177 3178 3291 3290
4 3178 3179 3292 3291
4 3179 3180 3293 3292
4 3180 3181 3294 3293
4 3181 3182 3295 3294
4 3182 3183 3296 3295
4 3183 3184 3297 3296
4 3184 3185 3298 3297
4 3185 3186 3299 3298
4 3186 3187 3300 3299
4 3187 3188 3301 3300
4 3188 3189 3302 3301
4 3189 3191 3303 3302
4 3190 3247 3304 3191
4 3191 3304 3305 3303
4 3192 3306 3307 3193
4 3193 3307 3308 3194
4 3194 3308 3309 3195
4 3195 3309 3310 3196
4 3196 3310 3311 3197
4 3197 3311 3312 3198
4 3198 3312 3313 3199
4 3199 3313 3314 3200
4 3200 3314 3315 3201
4 3201 3315 3316 3202
4 3202 3316 3317 3203
4 3203 3317 3318 3204
4 3204 3318 3319 3205
4 3205 3319 3320 3206
4 3206 3320 3321 3207
4 3207 3321 3322 3208
4 3208 3322 3323 3209
4 3209 3323 3324 3210
4 3210 3324 3325 3211
4 3211 3325 3326 3212
4 3212 3326 3327 3213
4 3213 3327 3328 3214
4 3214 3328 3329 3215
4 3215 3329 3330 3216
4 3216 3330 3331 3217
4 3217 3331 3332 3218
4 3218 3332 3333 3219
4 3219 3333 3334 3220
4 3220 3334 3335 3221
4 3221 3335 3336 3222
4 3222 3336 3337 3223
4 3223 3337 3338 3224
4 3224 3338 3339 3225
4 3225 3339 3340 3226
4 3226 3340 3341 3227
4 3227 3341 3342 3228
4 3228 3342 3343 3229
4 3229 3343 3344 3230
4 3230 3344 3345 3231
4 3231 3345 3346 3232
4 3232 3346 3347 3233
4 3233 3347 3348 3234
4 3234 3348 3349 3235
4 3235 3349 3350 3236
4 3236 3350 3351 3237
4 3237 3351 3352 3238
4 3238 3352 3353 3239
4 3239 3353 3354 3240
4 3240 3354 3355 3241
4 3241 3355 3356 3242
4 3242 3356 3357 3243
4 3243 3357 3358 3244
4 3244 3358 3359 3245
4 3245 3359 3360 3246
4 3246 3360 3361 3247
4 3247 3361 3362 3304
4 3249 3248 3363 3364
4 3248 3250 3365 3363
4 3250 3251 3366 3365
4 3251 3252 3367 3366
4 3252 3253 3368 3367
4 3253 3254 3369 3368
4 3254 3255 3370 3369
4 3255 3256 3371 3370
4 3256 3257 3372 3371
4 3257 3258 3373 3372
4 3258 3259 3374 3373
4 3259 3260 3375 3374
4 3260 3261 3376 3375
4 3261 3262 3377 3376
4 3262 3263 3378 3377
4 3263 3264 3379 3378
4 3264 3265 3380 3379
4 3265 3266 3381 3380
4 3266 3267 3382 3381
4 3267 3268 3383 3382
4 3268 3269 3384 3383
4 3269 3270 3385 3384
4 3270 3271 3386 3385
4 3271 3272 3387 3386
4 3272 3273 3388 3387
4 3273 3274 3389 3388
4 3274 3275 3390 3389
4 3275 3276 3391 3390
4 3276 3277 3392 3391
4 3277 3278 3393 3392
4 3278 3279 3394 3393
4 3279 3280 3395 3394
4 3280 3281 3396 3395
4 3281 3282 3397 3396
4 3282 3283 3398 3397
4 3283 3284 3399 3398
4 3284 3285 3400 3399
4 3285 3286 3401 3400
4 3286 3287 3402 3401
4 3287 3288 3403 3402
4 3288 3289 3404 3403
4 3289 3290 3405 3404
4 3290 3291 3406 3405
4 3291 3292 3407 3406
4 3292 3293 3408 3407
4 3293 3294 3409 3408
4 3294 3295 3410 3409
4 3295 3296 3411 3410
4 3296 3297 3412 3411
4 3297 3298 3413 3412
4 3298 3299 3414 3413
4 3299 3300 3415 3414
4 3300 3301 3416 3415
4 3301 3302 3417 3416
4 3302 3303 3418 3417
4 3303 3305 3419 3418
4 3304 3362 3420 3305
4 3305 3420 3421 3419
4 3306 3422 3423 3307
4 3307 3423 3424 3308
4 3308 3424 3425 3309
4 3309 3425 3426 3310
4 3310 3426 3427 3311
4 3311 3427 3428 3312
4 3312 3428 3429 3313
4 3313 3429 3430 3314
4 3314 3430 3431 3315
4 3315 3431 3432 3316
4 3316 3432 3433 3317
4 3317 3433 3434 3318
4 3318 3434 3435 3319
4 3319 3435 3436 3320
4 3320 3436 3437 3321
4 3321 3437 3438 3322
4 3322 3438 3439 3323
4 3323 3439 3440 3324
4 3324 3440 3441 3325
4 3325 3441 3442 3326
4 3326 3442 3443 3327
4 3327 3443 3444 3328
4 3328 3444 3445 3329
4 3329 3445 3446 3330
4 3330 3446 3447 3331
4 3331 3447 3448 3332
4 3332 3448 3449 3333
4 3333 3449 3450 3334
4 3334 3450 3451 3335
4 3335 3451 3452 3336
4 3336 3452 3453 3337
4 3337 3453 3454 3338
4 3338 3454 3455 3339
4 3339 3455 3456 3340
4 3340 3456 3457 3341
4 3341 3457 3458 3342
4 3342 3458 3459 3343
4 3343 3459 3460 3344
4 3344 3460 3461 3345
4 3345 3461 3462 3346
4 3346 3462 3463 3347
4 3347 3463 3464 3348
4 3348 3464 3465 3349
4 3349 3465 3466 3350
4 3350 3466 3467 3351
4 3351 3467 3468 3352
4 3352 3468 3469 3353
4 3353 3469 3470 3354
4 3354 3470 3471 3355
4 3355 3471 3472 3356
4 3356 3472 3473 3357
4 3357 3473 3474 3358
4 3358 3474 3475 3359
4 3359 3475 3476 3360
4 3360 3476 3477 3361
4 3361 3477 3478 3362
4 3362 3478 3479 3420
4 3364 3363 3480 3481
4 3363 3365 3482 3480
4 3365 3366 3483 3482
4 3366 3367 3484 3483
4 3367 3368 3485 3484
4 3368 3369 3486 3485
4 3369 3370 3487 3486
4 3370 3371 3488 3487
4 3371 3372 3489 3488
4 3372 3373 3490 3489
4 3373 3374 3491 3490
4 3374 3375 3492 3491
4 3375 3376 3493 3492
4 3376 3377 3494 3493
4 3377 3378 3495 3494
4 3378 3379 3496 3495
4 3379 3380 3497 3496
4 3380 3381 3498 3497
4 3381 3382 3499 3498
4 3382 3383 3500 3499
4 3383 3384 3501 3500
4 3384 3385 3502 3501
4 3385 3386 3503 3502
4 3386 3387 3504 3503
4 3387 3388 3505 3504
4 3388 3389 3506 3505
4 3389 3390 3507 3506
4 3390 3391 3508 3507
4 3391 3392 3509 3508
4 3392 3393 3510 3509
4 3393 3394 3511 3510
4 3394 3395 3512 3511
4 3395 3396 3513 3512
4 3396 3397 3514 3513
4 3397 3398 3515 3514
4 3398 3399 3516 3515
4 3399 3400 3517 3516
4 3400 3401 3518 3517
4 3401 3402 3519 3518
4 3402 3403 3520 3519
4 3403 3404 3521 3520
4 3404 3405 3522 3521
4 3405 3406 3523 3522
4 3406 3407 3524 3523
4 3407 3408 3525 3524
4 3408 3409 3526 3525
4 3409 3410 3527 3526
4 3410 3411 3528 3527
4 3411 3412 3529 3528
4 3412 3413 3530 3529
4 3413 3414 3531 3530
4 3414 3415 3532 3531
4 3415 3416 3533 3532
4 3416 3417 3534 3533
4 3417 3418 3535 3534
4 3418 3419 3536 3535
4 3419 3421 3537 3536
4 3420 3479 3538 3421
4 3421 3538 3539 3537
4 3422 3540 3541 3423
4 3423 3541 3542 3424
4 3424 3542 3543 3425
4 3425 3543 3544 3426
4 3426 3544 3545 3427
4 3427 3545 3546 3428
4 3428 3546 3547 3429
4 3429 3547 3548 3430
4 3430 3548 3549 3431
4 3431 3549 3550 3432
4 3432 3550 3551 3433
4 3433 3551 3552 3434
4 3434 3552 3553 3435
4 3435 3553 3554 3436
4 3436 3554 3555 3437
4 3437 3555 3556 3438
4 3438 3556 3557 3439
4 3439 3557 3558 3440
4 3440 3558 3559 3441
4 3441 3559 3560 3442
4 3442 3560 3561 3443
4 3443 3561 3562 3444
4 3444 3562 3563 3445
4 3445 3563 3564 3446
4 3446 3564 3565 3447
4 3447 3565 3566 3448
4 3448 3566 3567 3449
4 3449 3567 3568 3450
4 3450 3568 3569 3451
4 3451 3569 3570 3452
4 3452 3570 3571 3453
4 3453 3571 3572 3454
4 3454 3572 3573 3455
4 3455 3573 3574 3456
4 3456 3574 3575 3457
4 3457 3575 3576 3458
4 3458 3576 3577 3459
4 3459 3577 3578 3460
4 3460 3578 3579 3461
4 3461 3579 3580 3462
4 3462 3580 3581 3463
4 3463 3581 3582 3464
4 3464 3582 3583 3465
4 3465 3583 3584 3466
4 3466 3584 3585 3467
4 3467 3585 3586 3468
4 3468 3586 3587 3469
4 3469 3587 3588 3470
4 3470 3588 3589 3471
4 3471 3589 3590 3472
4 3472 3590 3591 3473
4 3473 3591 3592 3474
4 3474 3592 3593 3475
4 3475 3593 3594 3476
4 3476 3594 3595 3477
4 3477 3595 3596 3478
4 3478 3596 3597 3479
4 3479 3597 3598 3538
4 3481 3480 3599 3600
4 3480 3482 3601 3599
4 3482 3483 3602 3601
4 3483 3484 3603 3602
4 3484 3485 3604 3603
4 3485 3486 3605 3604
4 3486 3487 3606 3605
4 3487 3488 3607 3606
4 3488 3489 3608 3607
4 3489 3490 3609 3608
4 3490 3491 3610 3609
4 3491 3492 3611 3610
4 3492 3493 3612 3611
4 3493 3494 3613 3612
4 3494 3495 3614 3613
4 3495 3496 3615 3614
4 3496 3497 3616 3615
4 3497 3498 3617 3616
4 3498 3499 3618 3617
4 3499 3500 3619 3618
4 3500 3501 3620 3619
4 3501 3502 3621 3620
4 3502 3503 3622 3621
4 3503 3504 3623 3622
4 3504 3505 3624 3623
4 3505 3506 3625 3624
4 3506 3507 3626 3625
4 3507 3508 3627 3626
4 3508 3509 3628 3627
4 3509 3510 3629 3628
4 3510 3511 3630 3629
4 3511 3512 3631 3630
4 3512 3513 3632 3631
4 3513 3514 3633 3632
4 3514 3515 3634 3633
4 3515 3516 3635 3634
4 3516 3517 3636 3635
4 3517 3518 3637 3636
4 3518 3519 3638 3637
4 3519 3520 3639 3638
4 3520 3521 3640 3639
4 3521 3522 3641 3640
4 3522 3523 3642 3641
4 3523 3524 3643 3642
4 3524 3525 3644 3643
4 3525 3526 3645 3644
4 3526 3527 3646 3645
4 3527 3528 3647 3646
4 3528 3529 3648 3647
4 3529 3530 3649 3648
4 3530 3531 3650 3649
4 3531 3532 3651 3650
4 3532 3533 3652 3651
4 3533 3534 3653 3652
4 3534 3535 3654 3653
4 3535 3536 3655 3654
4 3536 3537 3656 3655
4 3537 3539 3657 3656
4 3538 3598 3658 3539
4 3539 3658 3659 3657
4 3540 3660 3661 3541
4 3541 3661 3662 3542
4 3542 3662 3663 3543
4 3543 3663 3664 3544
4 3544 3664 3665 3545
4 3545 3665 3666 3546
4 3546 3666 3667 3547
4 3547 3667 3668 3548
4 3548 3668 3669 3549
4 3549 3669 3670 3550
4 3550 3670 3671 3551
4 3551 3671 3672 3552
4 3552 3672 3673 3553
4 3553 3673 3674 3554
4 3554 3674 3675 3555
4 3555 3675 3676 3556
4 3556 3676 3677 3557
4 3557 3677 3678 3558
4 3558 3678 3679 3559
4 3559 3679 3680 3560
4 3560 3680 3681 3561
4 3561 3681 3682 3562
4 3562 3682 3683 3563
4 3563 3683 3684 3564
4 3564 3684 3685 3565
4 3565 3685 3686 3566
4 3566 3686 3687 3567
4 3567 3687 3688 3568
4 3568 3688 3689 3569
4 3569 3689 3690 3570
4 3570 3690 3691 3571
4 3571 3691 3692 3572
4 3572 3692 3693 3573
4 3573 3693 3694 3574
4 3574 3694 3695 3575
4 3575 3695 3696 3576
4 3576 3696 3697 3577
4 3577 3697 3698 3578
4 3578 3698 3699 3579
4 3579 3699 3700 3580
4 3580 3700 3701 3581
4 3581 3701 3702 3582
4 3582 3702 3703 3583
4 3583 3703 3704 3584
4 3584 3704 3705 3585
4 3585 3705 3706 3586
4 3586 3706 3707 3587
4 3587 3707 3708 3588
4 3588 3708 3709 3589
4 3589 3709 3710 3590
4 3590 3710 3711 3591
4 3591 3711 3712 3592
4 3592 3712 3713 3593
4 3593 3713 3714 3594
4 3594 3714 3715 3595
4 3595 3715 3716 3596
4 3596 3716 3717 3597
4 3597 3717 3718 3598
4 3598 3718 3719 3658
4 3600 3599 3720 3721
4 3599 3601 3722 3720
4 3601 3602 3723 3722
4 3602 3603 3724 3723
4 3603 3604 3725 3724
4 3604 3605 3726 3725
4 3605 3606 3727 3726
4 3606 3607 3728 3727
4 3607 3608 3729 3728
4 3608 3609 3730 3729
4 3609 3610 3731 3730
4 3610 3611 3732 3731
4 3611 3612 3733 3732
4 3612 3613 3734 3733
4 3613 3614 3735 3734
4 3614 3615 3736 3735
4 3615 3616 3737 3736
4 3616 3617 3738 3737
4 3617 3618 3739 3738
4 3618 3619 3740 3739
4 3619 3620 3741 3740
4 3620 3621 3742 3741
4 3621 3622 3743 3742
4 3622 3623 3744 3743
4 3623 3624 3745 3744
4 3624 3625 3746 3745
4 3625 3626 3747 3746
4 3626 3627 3748 3747
4 3627 3628 3749 3748
4 3628 3629 3750 3749
4 3629 3630 3751 3750
4 3630 3631 3752 3751
4 3631 3632 3753 3752
4 3632 3633 3754 3753
4 3633 3634 3755 3754
4 3634 3635 3756 3755
4 3635 3636 3757 3756
4 3636 3637 3758 3757
4 3637 3638 3759 3758
4 3638 3639 3760 3759
4 3639 3640 3761 3760
4 3640 3641 3762 3761
4 3641 3642 3763 3762
4 3642 3643 3764 3763
4 3643 3644 3765 3764
4 3644 3645 3766 3765
4 3645 3646 3767 3766
4 3646 3647 3768 3767
4 3647 3648 3769 3768
4 3648 3649 3770 3769
4 3649 3650 3771 3770
4 3650 3651 3772 3771
4 3651 3652 3773 3772
4 3652 3653 3774 3773
4 3653 3654 3775 3774
4 3654 3655 3776 3775
4 3655 3656 3777 3776
4 3656 3657 3778 3777
4 3657 3659 3779 3778
4 3658 3719 3780 3659
4 3659 3780 3781 3779
4 3660 3782 3783 3661
4 3661 3783 3784 3662
4 3662 3784 3785 3663
4 3663 3785 3786 3664
4 3664 3786 3787 3665
4 3665 3787 3788 3666
4 3666 3788 3789 3667
4 3667 3789 3790 3668
4 3668 3790 3791 3669
4 3669 3791 3792 3670
4 3670 3792 3793 3671
4 3671 3793 3794 3672
4 3672 3794 3795 3673
4 3673 3795 3796 3674
4 3674 3796 3797 3675
4 3675 3797 3798 3676
4 3676 3798 3799 3677
4 3677 3799 3800 3678
4 3678 3800 3801 3679
4 3679 3801 3802 3680
4 3680 3802 3803 3681
4 3681 3803 3804 3682
4 3682 3804 3805 3683
4 3683 3805 3806 3684
4 3684 3806 3807 3685
4 3685 3807 3808 3686
4 3686 3808 3809 3687
4 3687 3809 3810 3688
4 3688 3810 3811 3689
4 3689 3811 3812 3690
4 3690 3812 3813 3691
4 3691 3813 3814 3692
4 3692 3814 3815 3693
4 3693 3815 3816 3694
4 3694 3816 3817 3695
4 3695 3817 3818 3696
4 3696 3818 3819 3697
4 3697 3819 3820 3698
4 3698 3820 3821 3699
4 3699 3821 3822 3700
4 3700 3822 3823 3701
4 3701 3823 3824 3702
4 3702 3824 3825 3703
4 3703 3825 3826 3704
4 3704 3826 3827 3705
4 3705 3827 3828 3706
4 3706 3828 3829 3707
4 3707 3829 3830 3708
4 3708 3830 3831 3709
4 3709 3831 3832 3710
4 3710 3832 3833 3711
4 3711 3833 3834 3712
4 3712 3834 3835 3713
4 3713 3835 3836 3714
4 3714 3836 3837 3715
4 3715 3837 3838 3716
4 3716 3838 3839 3717
4 3717 3839 3840 3718
4 3718 3840 3841 3719
4 3719 3841 3842 3780
4 3721 3720 3843 3844
4 3720 3722 3845 3843
4 3722 3723 3846 3845
4 3723 3724 3847 3846
4 3724 3725 3848 3847
4 3725 3726 3849 3848
4 3726 3727 3850 3849
4 3727 3728 3851 3850
4 3728 3729 3852 3851
4 3729 3730 3853 3852
4 3730 3731 3854 3853
4 3731 3732 3855 3854
4 3732 3733 3856 3855
4 3733 3734 3857 3856
4 3734 3735 3858 3857
4 3735 3736 3859 3858
4 3736 3737 3860 3859
4 3737 3738 3861 3860
4 3738 3739 3862 3861
4 3739 3740 3863 3862
4 3740 3741 3864 3863
4 3741 3742 3865 3864
4 3742 3743 3866 3865
4 3743 3744 3867 3866
4 3744 3745 3868 3867
4 3745 3746 3869 3868
4 3746 3747 3870 3869
4 3747 3748 3871 3870
4 3748 3749 3872 3871
4 3749 3750 3873 3872
4 3750 3751 3874 3873
4 3751 3752 3875 3874
4 3752 3753 3876 3875
4 3753 3754 3877 3876
4 3754 3755 3878 3877
4 3755 3756 3879 3878
4 3756 3757 3880 3879
4 3757 3758 3881 3880
4 3758 3759 3882 3881
4 3759 3760 3883 3882
4 3760 3761 3884 3883
4 3761 3762 3885 3884
4 3762 3763 3886 3885
4 3763 3764 3887 3886
4 3764 3765 3888 3887
4 3765 3766 3889 3888
4 3766 3767 3890 3889
4 3767 3768 3891 3890
4 3768 3769 3892 3891
4 3769 3770 3893 3892
4 3770 3771 3894 3893
4 3771 3772 3895 3894
4 3772 3773 3896 3895
4 3773 3774 3897 3896
4 3774 3775 3898 3897
4 3775 3776 3899 3898
4 3776 3777 3900 3899
4 3777 3778 3901 3900
4 3778 3779 3902 3901
4 3779 3781 3903 3902
4 3780 3842 3904 3781
4 3781 3904 3905 3903
4 3782 3906 3907 3783
4 3783 3907 3908 3784
4 3784 3908 3909 3785
4 3785 3909 3910 3786
4 3786 3910 3911 3787
4 3787 3911 3912 3788
4 3788 3912 3913 3789
4 3789 3913 3914 3790
4 3790 3914 3915 3791
4 3791 3915 3916 3792
4 3792 3916 3917 3793
4 3793 3917 3918 3794
4 3794 3918 3919 3795
4 3795 3919 3920 3796
4 3796 3920 3921 3797
4 3797 3921 3922 3798
4 3798 3922 3923 3799
4 3799 3923 3924 3800
4 3800 3924 3925 3801
4 3801 3925 3926 3802
4 3802 3926 3927 3803
4 3803 3927 3928 3804
4 3804 3928 3929 3805
4 3805 3929 3930 3806
4 3806 3930 3931 3807
4 3807 3931 3932 3808
4 3808 3932 3933 3809
4 3809 3933 3934 3810
4 3810 3934 3935 3811
4 3811 3935 3936 3812
4 3812 3936 3937 3813
4 3813 3937 3938 3814
4 3814 3938 3939 3815
4 3815 3939 3940 3816
4 3816 3940 3941 3817
4 3817 3941 3942 3818
4 3818 3942 3943 3819
4 3819 3943 3944 3820
4 3820 3944 3945 3821
4 3821 3945 3946 3822
4 3822 3946 3947 3823
4 3823 3947 3948 3824
4 3824 3948 3949 3825
4 3825 3949 3950 3826
4 3826 3950 3951 3827
4 3827 3951 3952 3828
4 3828 3952 3953 3829
4 3829 3953 3954 3830
4 3830 3954 3955 3831
4 3831 3955 3956 3832
4 3832 3956 3957 3833
4 3833 3957 3958 3834
4 3834 3958 3959 3835
4 3835 3959 3960 3836
4 3836 3960 3961 3837
4 3837 3961 3962 3838
4 3838 3962 3963 3839
4 3839 3963 3964 3840
4 3840 3964 3965 3841
4 3841 3965 3966 3842
4 3842 3966 3967 3904
4 3844 3843 3968 3969
4 3843 3845 3970 3968
4 3845 3846 3971 3970
4 3846 3847 3972 3971
4 3847 3848 3973 3972
4 3848 3849 3974 3973
4 3849 3850 3975 3974
4 3850 3851 3976 3975
4 3851 3852 3977 3976
4 3852 3853 3978 3977
4 3853 3854 3979 3978
4 3854 3855 3980 3979
4 3855 3856 3981 3980
4 3856 3857 3982 3981
4 3857 3858 3983 3982
4 3858 3859 3984 3983
4 3859 3860 3985 3984
4 3860 3861 3986 3985
4 3861 3862 3987 3986
4 3862 3863 3988 3987
4 3863 3864 3989 3988
4 3864 3865 3990 3989
4 3865 3866 3991 3990
4 3866 3867 3992 3991
4 3867 3868 3993 3992
4 3868 3869 3994 3993
4 3869 3870 3995 3994
4 3870 3871 3996 3995
4 3871 3872 3997 3996
4 3872 3873 3998 3997
4 3873 3874 3999 3998
4 3874 3875 4000 3999
4 3875 3876 4001 4000
4 3876 3877 4002 4001
4 3877 3878 4003 4002
4 3878 3879 4004 4003
4 3879 3880 4005 4004
4 3880 3881 4006 4005
4 3881 3882 4007 4006
4 3882 3883 4008 4007
4 3883 3884 4009 4008
4 3884 3885 4010 4009
4 3885 3886 4011 4010
4 3886 3887 4012 4011
4 3887 3888 4013 4012
4 3888 3889 4014 4013
4 3889 3890 4015 4014
4 3890 3891 4016 4015
4 3891 3892 4017 4016
4 3892 3893 4018 4017
4 3893 3894 4019 4018
4 3894 3895 4020 4019
4 3895 3896 4021 4020
4 3896 3897 4022 4021
4 3897 3898 4023 4022
4 3898 3899 4024 4023
4 3899 3900 4025 4024
4 3900 3901 4026 4025
4 3901 3902 4027 4026
4 3902 3903 4028 4027
4 3903 3905 4029 4028
4 3904 3967 4030 3905
4 3905 4030 4031 4029
4 3906 4032 4033 3907
4 3907 4033 4034 3908
4 3908 4034 4035 3909
4 3909 4035 4036 3910
4 3910 4036 4037 3911
4 3911 4037 4038 3912
4 3912 4038 4039 3913
4 3913 4039 4040 3914
4 3914 4040 4041 3915
4 3915 4041 4042 3916
4 3916 4042 4043 3917
4 3917 4043 4044 3918
4 3918 4044 4045 3919
4 3919 4045 4046 3920
4 3920 4046 4047 3921
4 3921 4047 4048 3922
4 3922 4048 4049 3923
4 3923 4049 4050 3924
4 3924 4050 4051 3925
4 3925 4051 4052 3926
4 3926 4052 4053 3927
4 3927 4053 4054 3928
4 3928 4054 4055 3929
4 3929 4055 4056 3930
4 3930 4056 4057 3931
4 3931 4057 4058 3932
4 3932 4058 4059 3933
4 3933 4059 4060 3934
4 3934 4060 4061 3935
4 3935 4061 4062 3936
4 3936 4062 4063 3937
4 3937 4063 4064 3938
4 3938 4064 4065 3939
4 3939 4065 4066 3940
4 3940 4066 4067 3941
4 3941 4067 4068 3942
4 3942 4068 4069 3943
4 3943 4069 4070 3944
4 3944 4070 4071 3945
4 3945 4071 4072 3946
4 3946 4072 4073 3947
4 3947 4073 4074 3948
4 3948 4074 4075 3949
4 3949 4075 4076 3950
4 3950 4076 4077 3951
4 3951 4077 4078 3952
4 3952 4078 4079 3953
4 3953 4079 4080 3954
4 3954 4080 4081 3955
4 3955 4081 4082 3956
4 3956 4082 4083 3957
4 3957 4083 4084 3958
4 3958 4084 4085 3959
4 3959 4085 4086 3960
4 3960 4086 4087 3961
4 3961 4087 4088 3962
4 3962 4088 4089 3963
4 3963 4089 4090 3964
4 3964 4090 4091 3965
4 3965 4091 4092 3966
4 3966 4092 4093 3967
4 3967 4093 4094 4030
4 3969 3968 4095 4096
4 3968 3970 4097 4095
4 3970 3971 4098 4097
4 3971 3972 4099 4098
4 3972 3973 4100 4099
4 3973 3974 4101 4100
4 3974 3975 4102 4101
4 3975 3976 4103 4102
4 3976 3977 4104 4103
4 3977 3978 4105 4104
4 3978 3979 4106 4105
4 3979 3980 4107 4106
4 3980 3981 4108 4107
4 3981 3982 4109 4108
4 3982 3983 4110 4109
4 3983 3984 4111 4110
4 3984 3985 4112 4111
4 3985 3986 4113 4112
4 3986 3987 4114 4113
4 3987 3988 4115 4114
4 3988 3989 4116 4115
4 3989 3990 4117 4116
4 3990 3991 4118 4117
4 3991 3992 4119 4118
4 3992 3993 4120 4119
4 3993 3994 4121 4120
4 3994 3995 4122 4121
4 3995 3996 4123 4122
4 3996 3997 4124 4123
4 3997 3998 4125 4124
4 3998 3999 4126 4125
4 3999 4000 4127 4126
4 4000 4001 4128 4127
4 4001 4002 4129 4128
4 4002 4003 4130 4129
4 4003 4004 4131 4130
4 4004 4005 4132 4131
4 4005 4006 4133 4132
4 4006 4007 4134 4133
4 4007 4008 4135 4134
4 4008 4009 4136 4135
4 4009 4010 4137 4136
4 4010 4011 4138 4137
4 4011 4012 4139 4138
4 4012 4013 4140 4139
4 4013 4014 4141 4140
4 4014 4015 4142 4141
4 4015 4016 4143 4142
4 4016 4017 4144 4143
4 4017 4018 4145 4144
4 4018 4019 4146 4145
4 4019 4020 4147 4146
4 4020 4021 4148 4147
4 4021 4022 4149 4148
4 4022 4023 4150 4149
4 4023 4024 4151 4150
4 4024 4025 4152 4151
4 4025 4026 4153 4152
4 4026 4027 4154 4153
4 4027 4028 4155 4154
4 4028 4029 4156 4155
4 4029 4031 4157 4156
4 4030 4094 4158 4031
4 4031 4158 4159 4157
4 4032 4160 4161 4033
4 4033 4161 4162 4034
4 4034 4162 4163 4035
4 4035 4163 4164 4036
4 4036 4164 4165 4037
4 4037 4165 4166 4038
4 4038 4166 4167 4039
4 4039 4167 4168 4040
4 4040 4168 4169 4041
4 4041 4169 4170 4042
4 4042 4170 4171 4043
4 4043 4171 4172 4044
4 4044 4172 4173 4045
4 4045 4173 4174 4046
4 4046 4174 4175 4047
4 4047 4175 4176 4048
4 4048 4176 4177 4049
4 4049 4177 4178 4050
4 4050 4178 4179 4051
4 4051 4179 4180 4052
4 4052 4180 4181 4053
4 4053 4181 4182 4054
4 4054 4182 4183 4055
4 4055 4183 4184 4056
4 4056 4184 4185 4057
4 4057 4185 4186 4058
4 4058 4186 4187 4059
4 4059 4187 4188 4060
4 4060 4188 4189 4061
4 4061 4189 4190 4062
4 4062 4190 4191 4063
4 4063 4191 4192 4064
4 4064 4192 4193 4065
4 4065 4193 4194 4066
4 4066 4194 4195 4067
4 4067 4195 4196 4068
4 4068 4196 4197 4069
4 4069 4197 4198 4070
4 4070 4198 4199 4071
4 4071 4199 4200 4072
4 4072 4200 4201 4073
4 4073 4201 4202 4074
4 4074 4202 4203 4075
4 4075 4203 4204 4076
4 4076 4204 4205 4077
4 4077 4205 4206 4078
4 4078 4206 4207 4079
4 4079 4207 4208 4080
4 4080 4208 4209 4081
4 4081 4209 4210 4082
4 4082 4210 4211 4083
4 4083 4211 4212 4084
4 4084 4212 4213 4085
4 4085 4213 4214 4086
4 4086 4214 4215 4087
4 4087 4215 4216 4088
4 4088 4216 4217 4089
4 4089 4217 4218 4090
4 4090 4218 4219 4091
4 4091 4219 4220 4092
4 4092 4220 4221 4093
4 4093 4221 4222 4094
4 4094 4222 4223 4158
4 4096 4095 4224 4225
4 4095 4097 4226 4224
4 4097 4098 4227 4226
4 4098 4099 4228 4227
4 4099 4100 4229 4228
4 4100 4101 4230 4229
4 4101 4102 4231 4230
4 4102 4103 4232 4231
4 4103 4104 4233 4232
4 4104 4105 4234 4233
4 4105 4106 4235 4234
4 4106 4107 4236 4235
4 4107 4108 4237 4236
4 4108 4109 4238 4237
4 4109 4110 4239 4238
4 4110 4111 4240 4239
4 4111 4112 4241 4240
4 4112 4113 4242 4241
4 4113 4114 4243 4242
4 4114 4115 4244 4243
4 4115 4116 4245 4244
4 4116 4117 4246 4245
4 4117 4118 4247 4246
4 4118 4119 4248 4247
4 4119 4120 4249 4248
4 4120 4121 4250 4249
4 4121 4122 4251 4250
4 4122 4123 4252 4251
4 4123 4124 4253 4252
4 4124 4125 4254 4253
4 4125 4126 4255 4254
4 4126 4127 4256 4255
4 4127 4128 4257 4256
4 4128 4129 4258 4257
4 4129 4130 4259 4258
4 4130 4131 4260 4259
4 4131 4132 4261 4260
4 4132 4133 4262 4261
4 4133 4134 4263 4262
4 4134 4135 4264 4263
4 4135 4136 4265 4264
4 4136 4137 4266 4265
4 4137 4138 4267 4266
4 4138 4139 4268 4267
4 4139 4140 4269 4268
4 4140 4141 4270 4269
4 4141 4142 4271 4270
4 4142 4143 4272 4271
4 4143 4144 4273 4272
4 4144 4145 4274 4273
4 4145 4146 4275 4274
4 4146 4147 4276 4275
4 4147 4148 4277 4276
4 4148 4149 4278 4277
4 4149 4150 4279 4278
4 4150 4151 4280 4279
4 4151 4152 4281 4280
4 4152 4153 4282 4281
4 4153 4154 4283 4282
4 4154 4155 4284 4283
4 4155 4156 4285 4284
4 4156 4157 4286 4285
4 4157 4159 4287 4286
4 4158 4223 4288 4159
4 4159 4288 4289 4287
4 4160 4290 4291 4161
4 4161 4291 4292 4162
4 4162 4292 4293 4163
4 4163 4293 4294 4164
4 4164 4294 4295 4165
4 4165 4295 4296 4166
4 4166 4296 4297 4167
4 4167 4297 4298 4168
4 4168 4298 4299 4169
4 4169 4299 4300 4170
4 4170 4300 4301 4171
4 4171 4301 4302 4172
4 4172 4302 4303 4173
4 4173 4303 4304 4174
4 4174 4304 4305 4175
4 4175 4305 4306 4176
4 4176 4306 4307 4177
4 4177 4307 4308 4178
4 4178 4308 4309 4179
4 4179 4309 4310 4180
4 4180 4310 4311 4181
4 4181 4311 4312 4182
4 4182 4312 4313 4183
4 4183 4313 4314 4184
4 4184 4314 4315 4185
4 4185 4315 4316 4186
4 4186 4316 4317 4187
4 4187 4317 4318 4188
4 4188 4318 4319 4189
4 4189 4319 4320 4190
4 4190 4320 4321 4191
4 4191 4321 4322 4192
4 4192 4322 4323 4193
4 4193 4323 4324 4194
4 4194 4324 4325 4195
4 4195 4325 4326 4196
4 4196 4326 4327 4197
4 4197 4327 4328 4198
4 4198 4328 4329 4199
4 4199 4329 4330 4200
4 4200 4330 4331 4201
4 4201 4331 4332 4202
4 4202 4332 4333 4203
4 4203 4333 4334 4204
4 4204 4334 4335 4205
4 4205 4335 4336 4206
4 4206 4336 4337 4207
4 4207 4337 4338 4208
4 4208 4338 4339 4209
4 4209 4339 4340 4210
4 4210 4340 4341 4211
4 4211 4341 4342 4212
4 4212 4342 4343 4213
4 4213 4343 4344 4214
4 4214 4344 4345 4215
4 4215 4345 4346 4216
4 4216 4346 4347 4217
4 4217 4347 4348 4218
4 4218 4348 4349 4219
4 4219 4349 4350 4220
4 4220 4350 4351 4221
4 4221 4351 4352 4222
4 4222 4352 4353 4223
4 4223 4353 4354 4288
4 4225 4224 4355 4356
4 4224 4226 4357 4355
4 4226 4227 4358 4357
4 4227 4228 4359 4358
4 4228 4229 4360 4359
4 4229 4230 4361 4360
4 4230 4231 4362 4361
4 4231 4232 4363 4362
4 4232 4233 4364 4363
4 4233 4234 4365 4364
4 4234 4235 4366 4365
4 4235 4236 4367 4366
4 4236 4237 4368 4367
4 4237 4238 4369 4368
4 4238 4239 4370 4369
4 4239 4240 4371 4370
4 4240 4241 4372 4371
4 4241 4242 4373 4372
4 4242 4243 4374 4373
4 4243 4244 4375 4374
4 4244 4245 4376 4375
4 4245 4246 4377 4376
4 4246 4247 4378 4377
4 4247 4248 4379 4378
4 4248 4249 4380 4379
4 4249 4250 4381 4380
4 4250 4251 4382 4381
4 4251 4252 4383 4382
4 4252 4253 4384 4383
4 4253 4254 4385 4384
4 4254 4255 4386 4385
4 4255 4256 4387 4386
4 4256 4257 4388 4387
4 4257 4258 4389 4388
4 4258 4259 4390 4389
4 4259 4260 4391 4390
4 4260 4261 4392 4391
4 4261 4262 4393 4392
4 4262 4263 4394 4393
4 4263 4264 4395 4394
4 4264 4265 4396 4395
4 4265 4266 4397 4396
4 4266 4267 4398 4397
4 4267 4268 4399 4398
4 4268 4269 4400 4399
4 4269 4270 4401 4400
4 4270 4271 4402 4401
4 4271 4272 4403 4402
4 4272 4273 4404 4403
4 4273 4274 4405 4404
4 4274 4275 4406 4405
4 4275 4276 4407 4406
4 4276 4277 4408 4407
4 4277 4278 4409 4408
4 4278 4279 4410 4409
4 4279 4280 4411 4410
4 4280 4281 4412 4411
4 4281 4282 4413 4412
4 4282 4283 4414 4413
4 4283 4284 4415 4414
4 4284 4285 4416 4415
4 4285 4286 4417 4416
4 4286 4287 4418 4417
4 4287 4289 4419 4418
4 4288 4354 4420 4289
4 4289 4420 4421 4419
4 4290 4422 4423 4291
4 4291 4423 4424 4292
4 4292 4424 4425 4293
4 4293 4425 4426 4294
4 4294 4426 4427 4295
4 4295 4427 4428 4296
4 4296 4428 4429 4297
4 4297 4429 4430 4298
4 4298 4430 4431 4299
4 4299 4431 4432 4300
4 4300 4432 4433 4301
4 4301 4433 4434 4302
4 4302 4434 4435 4303
4 4303 4435 4436 4304
4 4304 4436 4437 4305
4 4305 4437 4438 4306
4 4306 4438 4439 4307
4 4307 4439 4440 4308
4 4308 4440 4441 4309
4 4309 4441 4442 4310
4 4310 4442 4443 4311
4 4311 4443 4444 4312
4 4312 4444 4445 4313
4 4313 4445 4446 4314
4 4314 4446 4447 4315
4 4315 4447 4448 4316
4 4316 4448 4449 4317
4 4317 4449 4450 4318
4 4318 4450 4451 4319
4 4319 4451 4452 4320
4 4320 4452 4453 4321
4 4321 4453 4454 4322
4 4322 4454 4455 4323
4 4323 4455 4456 4324
4 4324 4456 4457 4325
4 4325 4457 4458 4326
4 4326 4458 4459 4327
4 4327 4459 4460 4328
4 4328 4460 4461 4329
4 4329 4461 4462 4330
4 4330 4462 4463 4331
4 4331 4463 4464 4332
4 4332 4464 4465 4333
4 4333 4465 4466 4334
4 4334 4466 4467 4335
4 4335 4467 4468 4336
4 4336 4468 4469 4337
4 4337 4469 4470 4338
4 4338 4470 4471 4339
4 4339 4471 4472 4340
4 4340 4472 4473 4341
4 4341 4473 4474 4342
4 4342 4474 4475 4343
4 4343 4475 4476 4344
4 4344 4476 4477 4345
4 4345 4477 4478 4346
4 4346 4478 4479 4347
4 4347 4479 4480 4348
4 4348 4480 4481 4349
4 4349 4481 4482 4350
4 4350 4482 4483 4351
4 4351 4483 4484 4352
4 4352 4484 4485 4353
4 4353 4485 4486 4354
4 4354 4486 4487 4420
4 4356 4355 4488 4489
4 4355 4357 4490 4488
4 4357 4358 4491 4490
4 4358 4359 4492 4491
4 4359 4360 4493 4492
4 4360 4361 4494 4493
4 4361 4362 4495 4494
4 4362 4363 4496 4495
4 4363 4364 4497 4496
4 4364 4365 4498 4497
4 4365 4366 4499 4498
4 4366 4367 4500 4499
4 4367 4368 4501 4500
4 4368 4369 4502 4501
4 4369 4370 4503 4502
4 4370 4371 4504 4503
4 4371 4372 4505 4504
4 4372 4373 4506 4505
4 4373 4374 4507 4506
4 4374 4375 4508 4507
4 4375 4376 4509 4508
4 4376 4377 4510 4509
4 4377 4378 4511 4510
4 4378 4379 4512 4511
4 4379 4380 4513 4512
4 4380 4381 4514 4513
4 4381 4382 4515 4514
4 4382 4383 4516 4515
4 4383 4384 4517 4516
4 4384 4385 4518 4517
4 4385 4386 4519 4518
4 4386 4387 4520 4519
4 4387 4388 4521 4520
4 4388 4389 4522 4521
4 4389 4390 4523 4522
4 4390 4391 4524 4523
4 4391 4392 4525 4524
4 4392 4393 4526 4525
4 4393 4394 4527 4526
4 4394 4395 4528 4527
4 4395 4396 4529 4528
4 4396 4397 4530 4529
4 4397 4398 4531 4530
4 4398 4399 4532 4531
4 4399 4400 4533 4532
4 4400 4401 4534 4533
4 4401 4402 4535 4534
4 4402 4403 4536 4535
4 4403 4404 4537 4536
4 4404 4405 4538 4537
4 4405 4406 4539 4538
4 4406 4407 4540 4539
4 4407 4408 4541 4540
4 4408 4409 4542 4541
4 4409 4410 4543 4542
4 4410 4411 4544 4543
4 4411 4412 4545 4544
4 4412 4413 4546 4545
4 4413 4414 4547 4546
4 4414 4415 4548 4547
4 4415 4416 4549 4548
4 4416 4417 4550 4549
4 4417 4418 4551 4550
4 4418 4419 4552 4551
4 4419 4421 4553 4552
4 4420 4487 4554 4421
4 4421 4554 4555 4553
4 4422 4556 4557 4423
4 4423 4557 4558 4424
4 4424 4558 4559 4425
4 4425 4559 4560 4426
4 4426 4560 4561 4427
4 4427 4561 4562 4428
4 4428 4562 4563 4429
4 4429 4563 4564 4430
4 4430 4564 4565 4431
4 4431 4565 4566 4432
4 4432 4566 4567 4433
4 4433 4567 4568 4434
4 4434 4568 4569 4435
4 4435 4569 4570 4436
4 4436 4570 4571 4437
4 4437 4571 4572 4438
4 4438 4572 4573 4439
4 4439 4573 4574 4440
4 4440 4574 4575 4441
4 4441 4575 4576 4442
4 4442 4576 4577 4443
4 4443 4577 4578 4444
4 4444 4578 4579 4445
4 4445 4579 4580 4446
4 4446 4580 4581 4447
4 4447 4581 4582 4448
4 4448 4582 4583 4449
4 4449 4583 4584 4450
4 4450 4584 4585 4451
4 4451 4585 4586 4452
4 4452 4586 4587 4453
4 4453 4587 4588 4454
4 4454 4588 4589 4455
4 4455 4589 4590 4456
4 4456 4590 4591 4457
4 4457 4591 4592 4458
4 4458 4592 4593 4459
4 4459 4593 4594 4460
4 4460 4594 4595 4461
4 4461 4595 4596 4462
4 4462 4596 4597 4463
4 4463 4597 4598 4464
4 4464 4598 4599 4465
4 4465 4599 4600 4466
4 4466 4600 4601 4467
4 4467 4601 4602 4468
4 4468 4602 4603 4469
4 4469 4603 4604 4470
4 4470 4604 4605 4471
4 4471 4605 4606 4472
4 4472 4606 4607 4473
4 4473 4607 4608 4474
4 4474 4608 4609 4475
4 4475 4609 4610 4476
4 4476 4610 4611 4477
4 4477 4611 4612 4478
4 4478 4612 4613 4479
4 4479 4613 4614 4480
4 4480 4614 4615 4481
4 4481 4615 4616 4482
4 4482 4616 4617 4483
4 4483 4617 4618 4484
4 4484 4618 4619 4485
4 4485 4619 4620 4486
4 4486 4620 4621 4487
4 4487 4621 4622 4554
4 4489 4488 4623 4624
4 4488 4490 4625 4623
4 4490 4491 4626 4625
4 4491 4492 4627 4626
4 4492 4493 4628 4627
4 4493 4494 4629 4628
4 4494 4495 4630 4629
4 4495 4496 4631 4630
4 4496 4497 4632 4631
4 4497 4498 4633 4632
4 4498 4499 4634 4633
4 4499 4500 4635 4634
4 4500 4501 4636 4635
4 4501 4502 4637 4636
4 4502 4503 4638 4637
4 4503 4504 4639 4638
4 4504 4505 4640 4639
4 4505 4506 4641 4640
4 4506 4507 4642 4641
4 4507 4508 4643 4642
4 4508 4509 4644 4643
4 4509 4510 4645 4644
4 4510 4511 4646 4645
4 4511 4512 4647 4646
4 4512 4513 4648 4647
4 4513 4514 4649 4648
4 4514 4515 4650 4649
4 4515 4516 4651 4650
4 4516 4517 4652 4651
4 4517 4518 4653 4652
4 4518 4519 4654 4653
4 4519 4520 4655 4654
4 4520 4521 4656 4655
4 4521 4522 4657 4656
4 4522 4523 4658 4657
4 4523 4524 4659 4658
4 4524 4525 4660 4659
4 4525 4526 4661 4660
4 4526 4527 4662 4661
4 4527 4528 4663 4662
4 4528 4529 4664 4663
4 4529 4530 4665 4664
4 4530 4531 4666 4665
4 4531 4532 4667 4666
4 4532 4533 4668 4667
4 4533 4534 4669 4668
4 4534 4535 4670 4669
4 4535 4536 4671 4670
4 4536 4537 4672 4671
4 4537 4538 4673 4672
4 4538 4539 4674 4673
4 4539 4540 4675 4674
4 4540 4541 4676 4675
4 4541 4542 4677 4676
4 4542 4543 4678 4677
4 4543 4544 4679 4678
4 4544 4545 4680 4679
4 4545 4546 4681 4680
4 4546 4547 4682 4681
4 4547 4548 4683 4682
4 4548 4549 4684 4683
4 4549 4550 4685 4684
4 4550 4551 4686 4685
4 4551 4552 4687 4686
4 4552 4553 4688 4687
4 4553 4555 4689 4688
4 4554 4622 4690 4555
4 4555 4690 4691 4689
4 4556 4692 4693 4557
4 4557 4693 4694 4558
4 4558 4694 4695 4559
4 4559 4695 4696 4560
4 4560 4696 4697 4561
4 4561 4697 4698 4562
4 4562 4698 4699 4563
4 4563 4699 4700 4564
4 4564 4700 4701 4565
4 4565 4701 4702 4566
4 4566 4702 4703 4567
4 4567 4703 4704 4568
4 4568 4704 4705 4569
4 4569 4705 4706 4570
4 4570 4706 4707 4571
4 4571 4707 4708 4572
4 4572 4708 4709 4573
4 4573 4709 4710 4574
4 4574 4710 4711 4575
4 4575 4711 4712 4576
4 4576 4712 4713 4577
4 4577 4713 4714 4578
4 4578 4714 4715 4579
4 4579 4715 4716 4580
4 4580 4716 4717 4581
4 4581 4717 4718 4582
4 4582 4718 4719 4583
4 4583 4719 4720 4584
4 4584 4720 4721 4585
4 4585 4721 4722 4586
4 4586 4722 4723 4587
4 4587 4723 4724 4588
4 4588 4724 4725 4589
4 4589 4725 4726 4590
4 4590 4726 4727 4591
4 4591 4727 4728 4592
4 4592 4728 4729 4593
4 4593 4729 4730 4594
4 4594 4730 4731 4595
4 4595 4731 4732 4596
4 4596 4732 4733 4597
4 4597 4733 4734 4598
4 4598 4734 4735 4599
4 4599 4735 4736 4600
4 4600 4736 4737 4601
4 4601 4737 4738 4602
4 4602 4738 4739 4603
4 4603 4739 4740 4604
4 4604 4740 4741 4605
4 4605 4741 4742 4606
4 4606 4742 4743 4607
4 4607 4743 4744 4608
4 4608 4744 4745 4609
4 4609 4745 4746 4610
4 4610 4746 4747 4611
4 4611 4747 4748 4612
4 4612 4748 4749 4613
4 4613 4749 4750 4614
4 4614 4750 4751 4615
4 4615 4751 4752 4616
4 4616 4752 4753 4617
4 4617 4753 4754 4618
4 4618 4754 4755 4619
4 4619 4755 4756 4620
4 4620 4756 4757 4621
4 4621 4757 4758 4622
4 4622 4758 4759 4690
4 4624 4623 4760 4761
4 4623 4625 4762 4760
4 4625 4626 4763 4762
4 4626 4627 4764 4763
4 4627 4628 4765 4764
4 4628 4629 4766 4765
4 4629 4630 4767 4766
4 4630 4631 4768 4767
4 4631 4632 4769 4768
4 4632 4633 4770 4769
4 4633 4634 4771 4770
4 4634 4635 4772 4771
4 4635 4636 4773 4772
4 4636 4637 4774 4773
4 4637 4638 4775 4774
4 4638 4639 4776 4775
4 4639 4640 4777 4776
4 4640 4641 4778 4777
4 4641 4642 4779 4778
4 4642 4643 4780 4779
4 4643 4644 4781 4780
4 4644 4645 4782 4781
4 4645 4646 4783 4782
4 4646 4647 4784 4783
4 4647 4648 4785 4784
4 4648 4649 4786 4785
4 4649 4650 4787 4786
4 4650 4651 4788 4787
4 4651 4652 4789 4788
4 4652 4653 4790 4789
4 4653 4654 4791 4790
4 4654 4655 4792 4791
4 4655 4656 4793 4792
4 4656 4657 4794 4793
4 4657 4658 4795 4794
4 4658 4659 4796 4795
4 4659 4660 4797 4796
4 4660 4661 4798 4797
4 4661 4662 4799 4798
4 4662 4663 4800 4799
4 4663 4664 4801 4800
4 4664 4665 4802 4801
4 4665 4666 4803 4802
4 4666 4667 4804 4803
4 4667 4668 4805 4804
4 4668 4669 4806 4805
4 4669 4670 4807 4806
4 4670 4671 4808 4807
4 4671 4672 4809 4808
4 4672 4673 4810 4809
4 4673 4674 4811 4810
4 4674 4675 4812 4811
4 4675 4676 4813 4812
4 4676 4677 4814 4813
4 4677 4678 4815 4814
4 4678 4679 4816 4815
4 4679 4680 4817 4816
4 4680 4681 4818 4817
4 4681 4682 4819 4818
4 4682 4683 4820 4819
4 4683 4684 4821 4820
4 4684 4685 4822 4821
4 4685 4686 4823 4822
4 4686 4687 4824 4823
4 4687 4688 4825 4824
4 4688 4689 4826 4825
4 4689 4691 4827 4826
4 4690 4759 4828 4691
4 4691 4828 4829 4827
4 4692 4830 4831 4693
4 4693 4831 4832 4694
4 4694 4832 4833 4695
4 4695 4833 4834 4696
4 4696 4834 4835 4697
4 4697 4835 4836 4698
4 4698 4836 4837 4699
4 4699 4837 4838 4700
4 4700 4838 4839 4701
4 4701 4839 4840 4702
4 4702 4840 4841 4703
4 4703 4841 4842 4704
4 4704 4842 4843 4705
4 4705 4843 4844 4706
4 4706 4844 4845 4707
4 4707 4845 4846 4708
4 4708 4846 4847 4709
4 4709 4847 4848 4710
4 4710 4848 4849 4711
4 4711 4849 4850 4712
4 4712 4850 4851 4713
4 4713 4851 4852 4714
4 4714 4852 4853 4715
4 4715 4853 4854 4716
4 4716 4854 4855 4717
4 4717 4855 4856 4718
4 4718 4856 4857 4719
4 4719 4857 4858 4720
4 4720 4858 4859 4721
4 4721 4859 4860 4722
4 4722 4860 4861 4723
4 4723 4861 4862 4724
4 4724 4862 4863 4725
4 4725 4863 4864 4726
4 4726 4864 4865 4727
4 4727 4865 4866 4728
4 4728 4866 4867 4729
4 4729 4867 4868 4730
4 4730 4868 4869 4731
4 4731 4869 4870 4732
4 4732 4870 4871 4733
4 4733 4871 4872 4734
4 4734 4872 4873 4735
4 4735 4873 4874 4736
4 4736 4874 4875 4737
4 4737 4875 4876 4738
4 4738 4876 4877 4739
4 4739 4877 4878 4740
4 4740 4878 4879 4741
4 4741 4879 4880 4742
4 4742 4880 4881 4743
4 4743 4881 4882 4744
4 4744 4882 4883 4745
4 4745 4883 4884 4746
4 4746 4884 4885 4747
4 4747 4885 4886 4748
4 4748 4886 4887 4749
4 4749 4887 4888 4750
4 4750 4888 4889 4751
4 4751 4889 4890 4752
4 4752 4890 4891 4753
4 4753 4891 4892 4754
4 4754 4892 4893 4755
4 4755 4893 4894 4756
4 4756 4894 4895 4757
4 4757 4895 4896 4758
4 4758 4896 4897 4759
4 4759 4897 4898 4828
4 4761 4760 4899 4900
4 4760 4762 4901 4899
4 4762 4763 4902 4901
4 4763 4764 4903 4902
4 4764 4765 4904 4903
4 4765 4766 4905 4904
4 4766 4767 4906 4905
4 4767 4768 4907 4906
4 4768 4769 4908 4907
4 4769 4770 4909 4908
4 4770 4771 4910 4909
4 4771 4772 4911 4910
4 4772 4773 4912 4911
4 4773 4774 4913 4912
4 4774 4775 4914 4913
4 4775 4776 4915 4914
4 4776 4777 4916 4915
4 4777 4778 4917 4916
4 4778 4779 4918 4917
4 4779 4780 4919 4918
4 4780 4781 4920 4919
4 4781 4782 4921 4920
4 4782 4783 4922 4921
4 4783 4784 4923 4922
4 4784 4785 4924 4923
4 4785 4786 4925 4924
4 4786 4787 4926 4925
4 4787 4788 4927 4926
4 4788 4789 4928 4927
4 4789 4790 4929 4928
4 4790 4791 4930 4929
4 4791 4792 4931 4930
4 4792 4793 4932 4931
4 4793 4794 4933 4932
4 4794 4795 4934 4933
4 4795 4796 4935 4934
4 4796 4797 4936 4935
4 4797 4798 4937 4936
4 4798 4799 4938 4937
4 4799 4800 4939 4938
4 4800 4801 4940 4939
4 4801 4802 4941 4940
4 4802 4803 4942 4941
4 4803 4804 4943 4942
4 4804 4805 4944 4943
4 4805 4806 4945 4944
4 4806 4807 4946 4945
4 4807 4808 4947 4946
4 4808 4809 4948 4947
4 4809 4810 4949 4948
4 4810 4811 4950 4949
4 4811 4812 4951 4950
4 4812 4813 4952 4951
4 4813 4814 4953 4952
4 4814 4815 4954 4953
4 4815 4816 4955 4954
4 4816 4817 4956 4955
4 4817 4818 4957 4956
4 4818 4819 4958 4957
4 4819 4820 4959 4958
4 4820 4821 4960 4959
4 4821 4822 4961 4960
4 4822 4823 4962 4961
4 4823 4824 4963 4962
4 4824 4825 4964 4963
4 4825 4826 4965 4964
4 4826 4827 4966 4965
4 4827 4829 4967 4966
4 4828 4898 4968 4829
4 4829 4968 4969 4967
4 4830 4970 4971 4831
4 4831 4971 4972 4832
4 4832 4972 4973 4833
4 4833 4973 4974 4834
4 4834 4974 4975 4835
4 4835 4975 4976 4836
4 4836 4976 4977 4837
4 4837 4977 4978 4838
4 4838 4978 4979 4839
4 4839 4979 4980 4840
4 4840 4980 4981 4841
4 4841 4981 4982 4842
4 4842 4982 4983 4843
4 4843 4983 4984 4844
4 4844 4984 4985 4845
4 4845 4985 4986 4846
4 4846 4986 4987 4847
4 4847 4987 4988 4848
4 4848 4988 4989 4849
4 4849 4989 4990 4850
4 4850 4990 4991 4851
4 4851 4991 4992 4852
4 4852 4992 4993 4853
4 4853 4993 4994 4854
4 4854 4994 4995 4855
4 4855 4995 4996 4856
4 4856 4996 4997 4857
4 4857 4997 4998 4858
4 4858 4998 4999 4859
4 4859 4999 5000 4860
4 4860 5000 5001 4861
4 4861 5001 5002 4862
4 4862 5002 5003 4863
4 4863 5003 5004 4864
4 4864 5004 5005 4865
4 4865 5005 5006 4866
4 4866 5006 5007 4867
4 4867 5007 5008 4868
4 4868 5008 5009 4869
4 4869 5009 5010 4870
4 4870 5010 5011 4871
4 4871 5011 5012 4872
4 4872 5012 5013 4873
4 4873 5013 5014 4874
4 4874 5014 5015 4875
4 4875 5015 5016 4876
4 4876 5016 5017 4877
4 4877 5017 5018 4878
4 4878 5018 5019 4879
4 4879 5019 5020 4880
4 4880 5020 5021 4881
4 4881 5021 5022 4882
4 4882 5022 5023 4883
4 4883 5023 5024 4884
4 4884 5024 5025 4885
4 4885 5025 5026 4886
4 4886 5026 5027 4887
4 4887 5027 5028 4888
4 4888 5028 5029 4889
4 4889 5029 5030 4890
4 4890 5030 5031 4891
4 4891 5031 5032 4892
4 4892 5032 5033 4893
4 4893 5033 5034 4894
4 4894 5034 5035 4895
4 4895 5035 5036 4896
4 4896 5036 5037 4897
4 4897 5037 5038 4898
4 4898 5038 5039 4968
4 4900 4899 5040 5041
4 4899 4901 5042 5040
4 4901 4902 5043 5042
4 4902 4903 5044 5043
4 4903 4904 5045 5044
4 4904 4905 5046 5045
4 4905 4906 5047 5046
4 4906 4907 5048 5047
4 4907 4908 5049 5048
4 4908 4909 5050 5049
4 4909 4910 5051 5050
4 4910 4911 5052 5051
4 4911 4912 5053 5052
4 4912 4913 5054 5053
4 4913 4914 5055 5054
4 4914 4915 5056 5055
4 4915 4916 5057 5056
4 4916 4917 5058 5057
4 4917 4918 5059 5058
4 4918 4919 5060 5059
4 4919 4920 5061 5060
4 4920 4921 5062 5061
4 4921 4922 5063 5062
4 4922 4923 5064 5063
4 4923 4924 5065 5064
4 4924 4925 5066 5065
4 4925 4926 5067 5066
4 4926 4927 5068 5067
4 4927 4928 5069 5068
4 4928 4929 5070 5069
4 4929 4930 5071 5070
4 4930 4931 5072 5071
4 4931 4932 5073 5072
4 4932 4933 5074 5073
4 4933 4934 5075 5074
4 4934 4935 5076 5075
4 4935 4936 5077 5076
4 4936 4937 5078 5077
4 4937 4938 5079 5078
4 4938 4939 5080 5079
4 4939 4940 5081 5080
4 4940 4941 5082 5081
4 4941 4942 5083 5082
4 4942 4943 5084 5083
4 4943 4944 5085 5084
4 4944 4945 5086 5085
4 4945 4946 5087 5086
4 4946 4947 5088 5087
4 4947 4948 5089 5088
4 4948 4949 5090 5089
4 4949 4950 5091 5090
4 4950 4951 5092 5091
4 4951 4952 5093 5092
4 4952 4953 5094 5093
4 4953 4954 5095 5094
4 4954 4955 5096 5095
4 4955 4956 5097 5096
4 4956 4957 5098 5097
4 4957 4958 5099 5098
4 4958 4959 5100 5099
4 4959 4960 5101 5100
4 4960 4961 5102 5101
4 4961 4962 5103 5102
4 4962 4963 5104 5103
4 4963 4964 5105 5104
4 4964 4965 5106 5105
4 4965 4966 5107 5106
4 4966 4967 5108 5107
4 4967 4969 5109 5108
4 4968 5039 5110 4969
4 4969 5110 5111 5109
4 4970 5112 5113 4971
4 4971 5113 5114 4972
4 4972 5114 5115 4973
4 4973 5115 5116 4974
4 4974 5116 5117 4975
4 4975 5117 5118 4976
4 4976 5118 5119 4977
4 4977 5119 5120 4978
4 4978 5120 5121 4979
4 4979 5121 5122 4980
4 4980 5122 5123 4981
4 4981 5123 5124 4982
4 4982 5124 5125 4983
4 4983 5125 5126 4984
4 4984 5126 5127 4985
4 4985 5127 5128 4986
4 4986 5128 5129 4987
4 4987 5129 5130 4988
4 4988 5130 5131 4989
4 4989 5131 5132 4990
4 4990 5132 5133 4991
4 4991 5133 5134 4992
4 4992 5134 5135 4993
4 4993 5135 5136 4994
4 4994 5136 5137 4995
4 4995 5137 5138 4996
4 4996 5138 5139 4997
4 4997 5139 5140 4998
4 4998 5140 5141 4999
4 4999 5141 5142 5000
4 5000 5142 5143 5001
4 5001 5143 5144 5002
4 5002 5144 5145 5003
4 5003 5145 5146 5004
4 5004 5146 5147 5005
4 5005 5147 5148 5006
4 5006 5148 5149 5007
4 5007 5149 5150 5008
4 5008 5150 5151 5009
4 5009 5151 5152 5010
4 5010 5152 5153 5011
4 5011 5153 5154 5012
4 5012 5154 5155 5013
4 5013 5155 5156 5014
4 5014 5156 5157 5015
4 5015 5157 5158 5016
4 5016 5158 5159 5017
4 5017 5159 5160 5018
4 5018 5160 5161 5019
4 5019 5161 5162 5020
4 5020 5162 5163 5021
4 5021 5163 5164 5022
4 5022 5164 5165 5023
4 5023 5165 5166 5024
4 5024 5166 5167 5025
4 5025 5167 5168 5026
4 5026 5168 5169 5027
4 5027 5169 5170 5028
4 5028 5170 5171 5029
4 5029 5171 5172 5030
4 5030 5172 5173 5031
4 5031 5173 5174 5032
4 5032 5174 5175 5033
4 5033 5175 5176 5034
4 5034 5176 5177 5035
4 5035 5177 5178 5036
4 5036 5178 5179 5037
4 5037 5179 5180 5038
4 5038 5180 5181 5039
4 5039 5181 5182 5110
4 5041 5040 5183 5184
4 5040 5042 5185 5183
4 5042 5043 5186 5185
4 5043 5044 5187 5186
4 5044 5045 5188 5187
4 5045 5046 5189 5188
4 5046 5047 5190 5189
4 5047 5048 5191 5190
4 5048 5049 5192 5191
4 5049 5050 5193 5192
4 5050 5051 5194 5193
4 5051 5052 5195 5194
4 5052 5053 5196 5195
4 5053 5054 5197 5196
4 5054 5055 5198 5197
4 5055 5056 5199 5198
4 5056 5057 5200 5199
4 5057 5058 5201 5200
4 5058 5059 5202 5201
4 5059 5060 5203 5202
4 5060 5061 5204 5203
4 5061 5062 5205 5204
4 5062 5063 5206 5205
4 5063 5064 5207 5206
4 5064 5065 5208 5207
4 5065 5066 5209 5208
4 5066 5067 5210 5209
4 5067 5068 5211 5210
4 5068 5069 5212 5211
4 5069 5070 5213 5212
4 5070 5071 5214 5213
4 5071 5072 5215 5214
4 5072 5073 5216 5215
4 5073 5074 5217 5216
4 5074 5075 5218 5217
4 5075 5076 5219 5218
4 5076 5077 5220 5219
4 5077 5078 5221 5220
4 5078 5079 5222 5221
4 5079 5080 5223 5222
4 5080 5081 5224 5223
4 5081 5082 5225 5224
4 5082 5083 5226 5225
4 5083 5084 5227 5226
4 5084 5085 5228 5227
4 5085 5086 5229 5228
4 5086 5087 5230 5229
4 5087 5088 5231 5230
4 5088 5089 5232 5231
4 5089 5090 5233 5232
4 5090 5091 5234 5233
4 5091 5092 5235 5234
4 5092 5093 5236 5235
4 5093 5094 5237 5236
4 5094 5095 5238 5237
4 5095 5096 5239 5238
4 5096 5097 5240 5239
4 5097 5098 5241 5240
4 5098 5099 5242 5241
4 5099 5100 5243 5242
4 5100 5101 5244 5243
4 5101 5102 5245 5244
4 5102 5103 5246 5245
4 5103 5104 5247 5246
4 5104 5105 5248 5247
4 5105 5106 5249 5248
4 5106 5107 5250 5249
4 5107 5108 5251 5250
4 5108 5109 5252 5251
4 5109 5111 5253 5252
4 5110 5182 5254 5111
4 5111 5254 5255 5253
4 5112 5256 5257 5113
4 5113 5257 5258 5114
4 5114 5258 5259 5115
4 5115 5259 5260 5116
4 5116 5260 5261 5117
4 5117 5261 5262 5118
4 5118 5262 5263 5119
4 5119 5263 5264 5120
4 5120 5264 5265 5121
4 5121 5265 5266 5122
4 5122 5266 5267 5123
4 5123 5267 5268 5124
4 5124 5268 5269 5125
4 5125 5269 5270 5126
4 5126 5270 5271 5127
4 5127 5271 5272 5128
4 5128 5272 5273 5129
4 5129 5273 5274 5130
4 5130 5274 5275 5131
4 5131 5275 5276 5132
4 5132 5276 5277 5133
4 5133 5277 5278 5134
4 5134 5278 5279 5135
4 5135 5279 5280 5136
4 5136 5280 5281 5137
4 5137 5281 5282 5138
4 5138 5282 5283 5139
4 5139 5283 5284 5140
4 5140 5284 5285 5141
4 5141 5285 5286 5142
4 5142 5286 5287 5143
4 5143 5287 5288 5144
4 5144 5288 5289 5145
4 5145 5289 5290 5146
4 5146 5290 5291 5147
4 5147 5291 5292 5148
4 5148 5292 5293 5149
4 5149 5293 5294 5150
4 5150 5294 5295 5151
4 5151 5295 5296 5152
4 5152 5296 5297 5153
4 5153 5297 5298 5154
4 5154 5298 5299 5155
4 5155 5299 5300 5156
4 5156 5300 5301 5157
4 5157 5301 5302 5158
4 5158 5302 5303 5159
4 5159 5303 5304 5160
4 5160 5304 5305 5161
4 5161 5305 5306 5162
4 5162 5306 5307 5163
4 5163 5307 5308 5164
4 5164 5308 5309 5165
4 5165 5309 5310 5166
4 5166 5310 5311 5167
4 5167 5311 5312 5168
4 5168 5312 5313 5169
4 5169 5313 5314 5170
4 5170 5314 5315 5171
4 5171 5315 5316 5172
4 5172 5316 5317 5173
4 5173 5317 5318 5174
4 5174 5318 5319 5175
4 5175 5319 5320 5176
4 5176 5320 5321 5177
4 5177 5321 5322 5178
4 5178 5322 5323 5179
4 5179 5323 5324 5180
4 5180 5324 5325 5181
4 5181 5325 5326 5182
4 5182 5326 5327 5254
4 5184 5183 5328 5329
4 5183 5185 5330 5328
4 5185 5186 5331 5330
4 5186 5187 5332 5331
4 5187 5188 5333 5332
4 5188 5189 5334 5333
4 5189 5190 5335 5334
4 5190 5191 5336 5335
4 5191 5192 5337 5336
4 5192 5193 5338 5337
4 5193 5194 5339 5338
4 5194 5195 5340 5339
4 5195 5196 5341 5340
4 5196 5197 5342 5341
4 5197 5198 5343 5342
4 5198 5199 5344 5343
4 5199 5200 5345 5344
4 5200 5201 5346 5345
4 5201 5202 5347 5346
4 5202 5203 5348 5347
4 5203 5204 5349 5348
4 5204 5205 5350 5349
4 5205 5206 5351 5350
4 5206 5207 5352 5351
4 5207 5208 5353 5352
4 5208 5209 5354 5353
4 5209 5210 5355 5354
4 5210 5211 5356 5355
4 5211 5212 5357 5356
4 5212 5213 5358 5357
4 5213 5214 5359 5358
4 5214 5215 5360 5359
4 5215 5216 5361 5360
4 5216 5217 5362 5361
4 5217 5218 5363 5362
4 5218 5219 5364 5363
4 5219 5220 5365 5364
4 5220 5221 5366 5365
4 5221 5222 5367 5366
4 5222 5223 5368 5367
4 5223 5224 5369 5368
4 5224 5225 5370 5369
4 5225 5226 5371 5370
4 5226 5227 5372 5371
4 5227 5228 5373 5372
4 5228 5229 5374 5373
4 5229 5230 5375 5374
4 5230 5231 5376 5375
4 5231 5232 5377 5376
4 5232 5233 5378 5377
4 5233 5234 5379 5378
4 5234 5235 5380 5379
4 5235 5236 5381 5380
4 5236 5237 5382 5381
4 5237 5238 5383 5382
4 5238 5239 5384 5383
4 5239 5240 5385 5384
4 5240 5241 5386 5385
4 5241 5242 5387 5386
4 5242 5243 5388 5387
4 5243 5244 5389 5388
4 5244 5245 5390 5389
4 5245 5246 5391 5390
4 5246 5247 5392 5391
4 5247 5248 5393 5392
4 5248 5249 5394 5393
4 5249 5250 5395 5394
4 5250 5251 5396 5395
4 5251 5252 5397 5396
4 5252 5253 5398 5397
4 5253 5255 5399 5398
4 5254 5327 5400 5255
4 5255 5400 5401 5399
4 5256 5402 5403 5257
4 5257 5403 5404 5258
4 5258 5404 5405 5259
4 5259 5405 5406 5260
4 5260 5406 5407 5261
4 5261 5407 5408 5262
4 5262 5408 5409 5263
4 5263 5409 5410 5264
4 5264 5410 5411 5265
4 5265 5411 5412 5266
4 5266 5412 5413 5267
4 5267 5413 5414 5268
4 5268 5414 5415 5269
4 5269 5415 5416 5270
4 5270 5416 5417 5271
4 5271 5417 5418 5272
4 5272 5418 5419 5273
4 5273 5419 5420 5274
4 5274 5420 5421 5275
4 5275 5421 5422 5276
4 5276 5422 5423 5277
4 5277 5423 5424 5278
4 5278 5424 5425 5279
4 5279 5425 5426 5280
4 5280 5426 5427 5281
4 5281 5427 5428 5282
4 5282 5428 5429 5283
4 5283 5429 5430 5284
4 5284 5430 5431 5285
4 5285 5431 5432 5286
4 5286 5432 5433 5287
4 5287 5433 5434 5288
4 5288 5434 5435 5289
4 5289 5435 5436 5290
4 5290 5436 5437 5291
4 5291 5437 5438 5292
4 5292 5438 5439 5293
4 5293 5439 5440 5294
4 5294 5440 5441 5295
4 5295 5441 5442 5296
4 5296 5442 5443 5297
4 5297 5443 5444 5298
4 5298 5444 5445 5299
4 5299 5445 5446 5300
4 5300 5446 5447 5301
4 5301 5447 5448 5302
4 5302 5448 5449 5303
4 5303 5449 5450 5304
4 5304 5450 5451 5305
4 5305 5451 5452 5306
4 5306 5452 5453 5307
4 5307 5453 5454 5308
4 5308 5454 5455 5309
4 5309 5455 5456 5310
4 5310 5456 5457 5311
4 5311 5457 5458 5312
4 5312 5458 5459 5313
4 5313 5459 5460 5314
4 5314 5460 5461 5315
4 5315 5461 5462 5316
4 5316 5462 5463 5317
4 5317 5463 5464 5318
4 5318 5464 5465 5319
4 5319 5465 5466 5320
4 5320 5466 5467 5321
4 5321 5467 5468 5322
4 5322 5468 5469 5323
4 5323 5469 5470 5324
4 5324 5470 5471 5325
4 5325 5471 5472 5326
4 5326 5472 5473 5327
4 5327 5473 5474 5400
4 5329 5328 5475 5476
4 5328 5330 5477 5475
4 5330 5331 5478 5477
4 5331 5332 5479 5478
4 5332 5333 5480 5479
4 5333 5334 5481 5480
4 5334 5335 5482 5481
4 5335 5336 5483 5482
4 5336 5337 5484 5483
4 5337 5338 5485 5484
4 5338 5339 5486 5485
4 5339 5340 5487 5486
4 5340 5341 5488 5487
4 5341 5342 5489 5488
4 5342 5343 5490 5489
4 5343 5344 5491 5490
4 5344 5345 5492 5491
4 5345 5346 5493 5492
4 5346 5347 5494 5493
4 5347 5348 5495 5494
4 5348 5349 5496 5495
4 5349 5350 5497 5496
4 5350 5351 5498 5497
4 5351 5352 5499 5498
4 5352 5353 5500 5499
4 5353 5354 5501 5500
4 5354 5355 5502 5501
4 5355 5356 5503 5502
4 5356 5357 5504 5503
4 5357 5358 5505 5504
4 5358 5359 5506 5505
4 5359 5360 5507 5506
4 5360 5361 5508 5507
4 5361 5362 5509 5508
4 5362 5363 5510 5509
4 5363 5364 5511 5510
4 5364 5365 5512 5511
4 5365 5366 5513 5512
4 5366 5367 5514 5513
4 5367 5368 5515 5514
4 5368 5369 5516 5515
4 5369 5370 5517 5516
4 5370 5371 5518 5517
4 5371 5372 5519 5518
4 5372 5373 5520 5519
4 5373 5374 5521 5520
4 5374 5375 5522 5521
4 5375 5376 5523 5522
4 5376 5377 5524 5523
4 5377 5378 5525 5524
4 5378 5379 5526 5525
4 5379 5380 5527 5526
4 5380 5381 5528 5527
4 5381 5382 5529 5528
4 5382 5383 5530 5529
4 5383 5384 5531 5530
4 5384 5385 5532 5531
4 5385 5386 5533 5532
4 5386 5387 5534 5533
4 5387 5388 5535 5534
4 5388 5389 5536 5535
4 5389 5390 5537 5536
4 5390 5391 5538 5537
4 5391 5392 5539 5538
4 5392 5393 5540 5539
4 5393 5394 5541 5540
4 5394 5395 5542 5541
4 5395 5396 5543 5542
4 5396 5397 5544 5543
4 5397 5398 5545 5544
4 5398 5399 5546 5545
4 5399 5401 5547 5546
4 5400 5474 5548 5401
4 5401 5548 5549 5547
4 5402 5550 5551 5403
4 5403 5551 5552 5404
4 5404 5552 5553 5405
4 5405 5553 5554 5406
4 5406 5554 5555 5407
4 5407 5555 5556 5408
4 5408 5556 5557 5409
4 5409 5557 5558 5410
4 5410 5558 5559 5411
4 5411 5559 5560 5412
4 5412 5560 5561 5413
4 5413 5561 5562 5414
4 5414 5562 5563 5415
4 5415 5563 5564 5416
4 5416 5564 5565 5417
4 5417 5565 5566 5418
4 5418 5566 5567 5419
4 5419 5567 5568 5420
4 5420 5568 5569 5421
4 5421 5569 5570 5422
4 5422 5570 5571 5423
4 5423 5571 5572 5424
4 5424 5572 5573 5425
4 5425 5573 5574 5426
4 5426 5574 5575 5427
4 5427 5575 5576 5428
4 5428 5576 5577 5429
4 5429 5577 5578 5430
4 5430 5578 5579 5431
4 5431 5579 5580 5432
4 5432 5580 5581 5433
4 5433 5581 5582 5434
4 5434 5582 5583 5435
4 5435 5583 5584 5436
4 5436 5584 5585 5437
4 5437 5585 5586 5438
4 5438 5586 5587 5439
4 5439 5587 5588 5440
4 5440 5588 5589 5441
4 5441 5589 5590 5442
4 5442 5590 5591 5443
4 5443 5591 5592 5444
4 5444 5592 5593 5445
4 5445 5593 5594 5446
4 5446 5594 5595 5447
4 5447 5595 5596 5448
4 5448 5596 5597 5449
4 5449 5597 5598 5450
4 5450 5598 5599 5451
4 5451 5599 5600 5452
4 5452 5600 5601 5453
4 5453 5601 5602 5454
4 5454 5602 5603 5455
4 5455 5603 5604 5456
4 5456 5604 5605 5457
4 5457 5605 5606 5458
4 5458 5606 5607 5459
4 5459 5607 5608 5460
4 5460 5608 5609 5461
4 5461 5609 5610 5462
4 5462 5610 5611 5463
4 5463 5611 5612 5464
4 5464 5612 5613 5465
4 5465 5613 5614 5466
4 5466 5614 5615 5467
4 5467 5615 5616 5468
4 5468 5616 5617 5469
4 5469 5617 5618 5470
4 5470 5618 5619 5471
4 5471 5619 5620 5472
4 5472 5620 5621 5473
4 5473 5621 5622 5474
4 5474 5622 5623 5548
4 5476 5475 5624 5625
4 5475 5477 5626 5624
4 5477 5478 5627 5626
4 5478 5479 5628 5627
4 5479 5480 5629 5628
4 5480 5481 5630 5629
4 5481 5482 5631 5630
4 5482 5483 5632 5631
4 5483 5484 5633 5632
4 5484 5485 5634 5633
4 5485 5486 5635 5634
4 5486 5487 5636 5635
4 5487 5488 5637 5636
4 5488 5489 5638 5637
4 5489 5490 5639 5638
4 5490 5491 5640 5639
4 5491 5492 5641 5640
4 5492 5493 5642 5641
4 5493 5494 5643 5642
4 5494 5495 5644 5643
4 5495 5496 5645 5644
4 5496 5497 5646 5645
4 5497 5498 5647 5646
4 5498 5499 5648 5647
4 5499 5500 5649 5648
4 5500 5501 5650 5649
4 5501 5502 5651 5650
4 5502 5503 5652 5651
4 5503 5504 5653 5652
4 5504 5505 5654 5653
4 5505 5506 5655 5654
4 5506 5507 5656 5655
4 5507 5508 5657 5656
4 5508 5509 5658 5657
4 5509 5510 5659 5658
4 5510 5511 5660 5659
4 5511 5512 5661 5660
4 5512 5513 5662 5661
4 5513 5514 5663 5662
4 5514 5515 5664 5663
4 5515 5516 5665 5664
4 5516 5517 5666 5665
4 5517 5518 5667 5666
4 5518 5519 5668 5667
4 5519 5520 5669 5668
4 5520 5521 5670 5669
4 5521 5522 5671 5670
4 5522 5523 5672 5671
4 5523 5524 5673 5672
4 5524 5525 5674 5673
4 5525 5526 5675 5674
4 5526 5527 5676 5675
4 5527 5528 5677 5676
4 5528 5529 5678 5677
4 5529 5530 5679 5678
4 5530 5531 5680 5679
4 5531 5532 5681 5680
4 5532 5533 5682 5681
4 5533 5534 5683 5682
4 5534 5535 5684 5683
4 5535 5536 5685 5684
4 5536 5537 5686 5685
4 5537 5538 5687 5686
4 5538 5539 5688 5687
4 5539 5540 5689 5688
4 5540 5541 5690 5689
4 5541 5542 5691 5690
4 5542 5543 5692 5691
4 5543 5544 5693 5692
4 5544 5545 5694 5693
4 5545 5546 5695 5694
4 5546 5547 5696 5695
4 5547 5549 5697 5696
4 5548 5623 5698 5549
4 5549 5698 5699 5697
4 5550 5700 5701 5551
4 5551 5701 5702 5552
4 5552 5702 5703 5553
4 5553 5703 5704 5554
4 5554 5704 5705 5555
4 5555 5705 5706 5556
4 5556 5706 5707 5557
4 5557 5707 5708 5558
4 5558 5708 5709 5559
4 5559 5709 5710 5560
4 5560 5710 5711 5561
4 5561 5711 5712 5562
4 5562 5712 5713 5563
4 5563 5713 5714 5564
4 5564 5714 5715 5565
4 5565 5715 5716 5566
4 5566 5716 5717 5567
4 5567 5717 5718 5568
4 5568 5718 5719 5569
4 5569 5719 5720 5570
4 5570 5720 5721 5571
4 5571 5721 5722 5572
4 5572 5722 5723 5573
4 5573 5723 5724 5574
4 5574 5724 5725 5575
4 5575 5725 5726 5576
4 5576 5726 5727 5577
4 5577 5727 5728 5578
4 5578 5728 5729 5579
4 5579 5729 5730 5580
4 5580 5730 5731 5581
4 5581 5731 5732 5582
4 5582 5732 5733 5583
4 5583 5733 5734 5584
4 5584 5734 5735 5585
4 5585 5735 5736 5586
4 5586 5736 5737 5587
4 5587 5737 5738 5588
4 5588 5738 5739 5589
4 5589 5739 5740 5590
4 5590 5740 5741 5591
4 5591 5741 5742 5592
4 5592 5742 5743 5593
4 5593 5743 5744 5594
4 5594 5744 5745 5595
4 5595 5745 5746 5596
4 5596 5746 5747 5597
4 5597 5747 5748 5598
4 5598 5748 5749 5599
4 5599 5749 5750 5600
4 5600 5750 5751 5601
4 5601 5751 5752 5602
4 5602 5752 5753 5603
4 5603 5753 5754 5604
4 5604 5754 5755 5605
4 5605 5755 5756 5606
4 5606 5756 5757 5607
4 5607 5757 5758 5608
4 5608 5758 5759 5609
4 5609 5759 5760 5610
4 5610 5760 5761 5611
4 5611 5761 5762 5612
4 5612 5762 5763 5613
4 5613 5763 5764 5614
4 5614 5764 5765 5615
4 5615 5765 5766 5616
4 5616 5766 5767 5617
4 5617 5767 5768 5618
4 5618 5768 5769 5619
4 5619 5769 5770 5620
4 5620 5770 5771 5621
4 5621 5771 5772 5622
4 5622 5772 5773 5623
4 5623 5773 5774 5698
4 5625 5624 5775 5776
4 5624 5626 5777 5775
4 5626 5627 5778 5777
4 5627 5628 5779 5778
4 5628 5629 5780 5779
4 5629 5630 5781 5780
4 5630 5631 5782 5781
4 5631 5632 5783 5782
4 5632 5633 5784 5783
4 5633 5634 5785 5784
4 5634 5635 5786 5785
4 5635 5636 5787 5786
4 5636 5637 5788 5787
4 5637 5638 5789 5788
4 5638 5639 5790 5789
4 5639 5640 5791 5790
4 5640 5641 5792 5791
4 5641 5642 5793 5792
4 5642 5643 5794 5793
4 5643 5644 5795 5794
4 5644 5645 5796 5795
4 5645 5646 5797 5796
4 5646 5647 5798 5797
4 5647 5648 5799 5798
4 5648 5649 5800 5799
4 5649 5650 5801 5800
4 5650 5651 5802 5801
4 5651 5652 5803 5802
4 5652 5653 5804 5803
4 5653 5654 5805 5804
4 5654 5655 5806 5805
4 5655 5656 5807 5806
4 5656 5657 5808 5807
4 5657 5658 5809 5808
4 5658 5659 5810 5809
4 5659 5660 5811 5810
4 5660 5661 5812 5811
4 5661 5662 5813 5812
4 5662 5663 5814 5813
4 5663 5664 5815 5814
4 5664 5665 5816 5815
4 5665 5666 5817 5816
4 5666 5667 5818 5817
4 5667 5668 5819 5818
4 5668 5669 5820 5819
4 5669 5670 5821 5820
4 5670 5671 5822 5821
4 5671 5672 5823 5822
4 5672 5673 5824 5823
4 5673 5674 5825 5824
4 5674 5675 5826 5825
4 5675 5676 5827 5826
4 5676 5677 5828 5827
4 5677 5678 5829 5828
4 5678 5679 5830 5829
4 5679 5680 5831 5830
4 5680 5681 5832 5831
4 5681 5682 5833 5832
4 5682 5683 5834 5833
4 5683 5684 5835 5834
4 5684 5685 5836 5835
4 5685 5686 5837 5836
4 5686 5687 5838 5837
4 5687 5688 5839 5838
4 5688 5689 5840 5839
4 5689 5690 5841 5840
4 5690 5691 5842 5841
4 5691 5692 5843 5842
4 5692 5693 5844 5843
4 5693 5694 5845 5844
4 5694 5695 5846 5845
4 5695 5696 5847 5846
4 5696 5697 5848 5847
4 5697 5699 5849 5848
4 5698 5774 5850 5699
4 5699 5850 5851 5849
4 5700 5852 5853 5701
4 5701 5853 5854 5702
4 5702 5854 5855 5703
4 5703 5855 5856 5704
4 5704 5856 5857 5705
4 5705 5857 5858 5706
4 5706 5858 5859 5707
4 5707 5859 5860 5708
4 5708 5860 5861 5709
4 5709 5861 5862 5710
4 5710 5862 5863 5711
4 5711 5863 5864 5712
4 5712 5864 5865 5713
4 5713 5865 5866 5714
4 5714 5866 5867 5715
4 5715 5867 5868 5716
4 5716 5868 5869 5717
4 5717 5869 5870 5718
4 5718 5870 5871 5719
4 5719 5871 5872 5720
4 5720 5872 5873 5721
4 5721 5873 5874 5722
4 5722 5874 5875 5723
4 5723 5875 5876 5724
4 5724 5876 5877 5725
4 5725 5877 5878 5726
4 5726 5878 5879 5727
4 5727 5879 5880 5728
4 5728 5880 5881 5729
4 5729 5881 5882 5730
4 5730 5882 5883 5731
4 5731 5883 5884 5732
4 5732 5884 5885 5733
4 5733 5885 5886 5734
4 5734 5886 5887 5735
4 5735 5887 5888 5736
4 5736 5888 5889 5737
4 5737 5889 5890 5738
4 5738 5890 5891 5739
4 5739 5891 5892 5740
4 5740 5892 5893 5741
4 5741 5893 5894 5742
4 5742 5894 5895 5743
4 5743 5895 5896 5744
4 5744 5896 5897 5745
4 5745 5897 5898 5746
4 5746 5898 5899 5747
4 5747 5899 5900 5748
4 5748 5900 5901 5749
4 5749 5901 5902 5750
4 5750 5902 5903 5751
4 5751 5903 5904 5752
4 5752 5904 5905 5753
4 5753 5905 5906 5754
4 5754 5906 5907 5755
4 5755 5907 5908 5756
4 5756 5908 5909 5757
4 5757 5909 5910 5758
4 5758 5910 5911 5759
4 5759 5911 5912 5760
4 5760 5912 5913 5761
4 5761 5913 5914 5762
4 5762 5914 5915 5763
4 5763 5915 5916 5764
4 5764 5916 5917 5765
4 5765 5917 5918 5766
4 5766 5918 5919 5767
4 5767 5919 5920 5768
4 5768 5920 5921 5769
4 5769 5921 5922 5770
4 5770 5922 5923 5771
4 5771 5923 5924 5772
4 5772 5924 5925 5773
4 5773 5925 5926 5774
4 5774 5926 5927 5850
4 5776 5775 5928 5929
4 5775 5777 5930 5928
4 5777 5778 5931 5930
4 5778 5779 5932 5931
4 5779 5780 5933 5932
4 5780 5781 5934 5933
4 5781 5782 5935 5934
4 5782 5783 5936 5935
4 5783 5784 5937 5936
4 5784 5785 5938 5937
4 5785 5786 5939 5938
4 5786 5787 5940 5939
4 5787 5788 5941 5940
4 5788 5789 5942 5941
4 5789 5790 5943 5942
4 5790 5791 5944 5943
4 5791 5792 5945 5944
4 5792 5793 5946 5945
4 5793 5794 5947 5946
4 5794 5795 5948 5947
4 5795 5796 5949 5948
4 5796 5797 5950 5949
4 5797 5798 5951 5950
4 5798 5799 5952 5951
4 5799 5800 5953 5952
4 5800 5801 5954 5953
4 5801 5802 5955 5954
4 5802 5803 5956 5955
4 5803 5804 5957 5956
4 5804 5805 5958 5957
4 5805 5806 5959 5958
4 5806 5807 5960 5959
4 5807 5808 5961 5960
4 5808 5809 5962 5961
4 5809 5810 5963 5962
4 5810 5811 5964 5963
4 5811 5812 5965 5964
4 5812 5813 5966 5965
4 5813 5814 5967 5966
4 5814 5815 5968 5967
4 5815 5816 5969 5968
4 5816 5817 5970 5969
4 5817 5818 5971 5970
4 5818 5819 5972 5971
4 5819 5820 5973 5972
4 5820 5821 5974 5973
4 5821 5822 5975 5974
4 5822 5823 5976 5975
4 5823 5824 5977 5976
4 5824 5825 5978 5977
4 5825 5826 5979 5978
4 5826 5827 5980 5979
4 5827 5828 5981 5980
4 5828 5829 5982 5981
4 5829 5830 5983 5982
4 5830 5831 5984 5983
4 5831 5832 5985 5984
4 5832 5833 5986 5985
4 5833 5834 5987 5986
4 5834 5835 5988 5987
4 5835 5836 5989 5988
4 5836 5837 5990 5989
4 5837 5838 5991 5990
4 5838 5839 5992 5991
4 5839 5840 5993 5992
4 5840 5841 5994 5993
4 5841 5842 5995 5994
4 5842 5843 5996 5995
4 5843 5844 5997 5996
4 5844 5845 5998 5997
4 5845 5846 5999 5998
4 5846 5847 6000 5999
4 5847 5848 6001 6000
4 5848 5849 6002 6001
4 5849 5851 6003 6002
4 5850 5927 6004 5851
4 5851 6004 6005 6003
4 5852 6006 6007 5853
4 5853 6007 6008 5854
4 5854 6008 6009 5855
4 5855 6009 6010 5856
4 5856 6010 6011 5857
4 5857 6011 6012 5858
4 5858 6012 6013 5859
4 5859 6013 6014 5860
4 5860 6014 6015 5861
4 5861 6015 6016 5862
4 5862 6016 6017 5863
4 5863 6017 6018 5864
4 5864 6018 6019 5865
4 5865 6019 6020 5866
4 5866 6020 6021 5867
4 5867 6021 6022 5868
4 5868 6022 6023 5869
4 5869 6023 6024 5870
4 5870 6024 6025 5871
4 5871 6025 6026 5872
4 5872 6026 6027 5873
4 5873 6027 6028 5874
4 5874 6028 6029 5875
4 5875 6029 6030 5876
4 5876 6030 6031 5877
4 5877 6031 6032 5878
4 5878 6032 6033 5879
4 5879 6033 6034 5880
4 5880 6034 6035 5881
4 5881 6035 6036 5882
4 5882 6036 6037 5883
4 5883 6037 6038 5884
4 5884 6038 6039 5885
4 5885 6039 6040 5886
4 5886 6040 6041 5887
4 5887 6041 6042 5888
4 5888 6042 6043 5889
4 5889 6043 6044 5890
4 5890 6044 6045 5891
4 5891 6045 6046 5892
4 5892 6046 6047 5893
4 5893 6047 6048 5894
4 5894 6048 6049 5895
4 5895 6049 6050 5896
4 5896 6050 6051 5897
4 5897 6051 6052 5898
4 5898 6052 6053 5899
4 5899 6053 6054 5900
4 5900 6054 6055 5901
4 5901 6055 6056 5902
4 5902 6056 6057 5903
4 5903 6057 6058 5904
4 5904 6058 6059 5905
4 5905 6059 6060 5906
4 5906 6060 6061 5907
4 5907 6061 6062 5908
4 5908 6062 6063 5909
4 5909 6063 6064 5910
4 5910 6064 6065 5911
4 5911 6065 6066 5912
4 5912 6066 6067 5913
4 5913 6067 6068 5914
4 5914 6068 6069 5915
4 5915 6069 6070 5916
4 5916 6070 6071 5917
4 5917 6071 6072 5918
4 5918 6072 6073 5919
4 5919 6073 6074 5920
4 5920 6074 6075 5921
4 5921 6075 6076 5922
4 5922 6076 6077 5923
4 5923 6077 6078 5924
4 5924 6078 6079 5925
4 5925 6079 6080 5926
4 5926 6080 6081 5927
4 5927 6081 6082 6004
4 5929 5928 6083 6084
4 5928 5930 6085 6083
4 5930 5931 6086 6085
4 5931 5932 6087 6086
4 5932 5933 6088 6087
4 5933 5934 6089 6088
4 5934 5935 6090 6089
4 5935 5936 6091 6090
4 5936 5937 6092 6091
4 5937 5938 6093 6092
4 5938 5939 6094 6093
4 5939 5940 6095 6094
4 5940 5941 6096 6095
4 5941 5942 6097 6096
4 5942 5943 6098 6097
4 5943 5944 6099 6098
4 5944 5945 6100 6099
4 5945 5946 6101 6100
4 5946 5947 6102 6101
4 5947 5948 6103 6102
4 5948 5949 6104 6103
4 5949 5950 6105 6104
4 5950 5951 6106 6105
4 5951 5952 6107 6106
4 5952 5953 6108 6107
4 5953 5954 6109 6108
4 5954 5955 6110 6109
4 5955 5956 6111 6110
4 5956 5957 6112 6111
4 5957 5958 6113 6112
4 5958 5959 6114 6113
4 5959 5960 6115 6114
4 5960 5961 6116 6115
4 5961 5962 6117 6116
4 5962 5963 6118 6117
4 5963 5964 6119 6118
4 5964 5965 6120 6119
4 5965 5966 6121 6120
4 5966 5967 6122 6121
4 5967 5968 6123 6122
4 5968 5969 6124 6123
4 5969 5970 6125 6124
4 5970 5971 6126 6125
4 5971 5972 6127 6126
4 5972 5973 6128 6127
4 5973 5974 6129 6128
4 5974 5975 6130 6129
4 5975 5976 6131 6130
4 5976 5977 6132 6131
4 5977 5978 6133 6132
4 5978 5979 6134 6133
4 5979 5980 6135 6134
4 5980 5981 6136 6135
4 5981 5982 6137 6136
4 5982 5983 6138 6137
4 5983 5984 6139 6138
4 5984 5985 6140 6139
4 5985 5986 6141 6140
4 5986 5987 6142 6141
4 5987 5988 6143 6142
4 5988 5989 6144 6143
4 5989 5990 6145 6144
4 5990 5991 6146 6145
4 5991 5992 6147 6146
4 5992 5993 6148 6147
4 5993 5994 6149 6148
4 5994 5995 6150 6149
4 5995 5996 6151 6150
4 5996 5997 6152 6151
4 5997 5998 6153 6152
4 5998 5999 6154 6153
4 5999 6000 6155 6154
4 6000 6001 6156 6155
4 6001 6002 6157 6156
4 6002 6003 6158 6157
4 6003 6005 6159 6158
4 6004 6082 6160 6005
4 6005 6160 6161 6159
4 6006 6162 6163 6007
4 6007 6163 6164 6008
4 6008 6164 6165 6009
4 6009 6165 6166 6010
4 6010 6166 6167 6011
4 6011 6167 6168 6012
4 6012 6168 6169 6013
4 6013 6169 6170 6014
4 6014 6170 6171 6015
4 6015 6171 6172 6016
4 6016 6172 6173 6017
4 6017 6173 6174 6018
4 6018 6174 6175 6019
4 6019 6175 6176 6020
4 6020 6176 6177 6021
4 6021 6177 6178 6022
4 6022 6178 6179 6023
4 6023 6179 6180 6024
4 6024 6180 6181 6025
4 6025 6181 6182 6026
4 6026 6182 6183 6027
4 6027 6183 6184 6028
4 6028 6184 6185 6029
4 6029 6185 6186 6030
4 6030 6186 6187 6031
4 6031 6187 6188 6032
4 6032 6188 6189 6033
4 6033 6189 6190 6034
4 6034 6190 6191 6035
4 6035 6191 6192 6036
4 6036 6192 6193 6037
4 6037 6193 6194 6038
4 6038 6194 6195 6039
4 6039 6195 6196 6040
4 6040 6196 6197 6041
4 6041 6197 6198 6042
4 6042 6198 6199 6043
4 6043 6199 6200 6044
4 6044 6200 6201 6045
4 6045 6201 6202 6046
4 6046 6202 6203 6047
4 6047 6203 6204 6048
4 6048 6204 6205 6049
4 6049 6205 6206 6050
4 6050 6206 6207 6051
4 6051 6207 6208 6052
4 6052 6208 6209 6053
4 6053 6209 6210 6054
4 6054 6210 6211 6055
4 6055 6211 6212 6056
4 6056 6212 6213 6057
4 6057 6213 6214 6058
4 6058 6214 6215 6059
4 6059 6215 6216 6060
4 6060 6216 6217 6061
4 6061 6217 6218 6062
4 6062 6218 6219 6063
4 6063 6219 6220 6064
4 6064 6220 6221 6065
4 6065 6221 6222 6066
4 6066 6222 6223 6067
4 6067 6223 6224 6068
4 6068 6224 6225 6069
4 6069 6225 6226 6070
4 6070 6226 6227 6071
4 6071 6227 6228 6072
4 6072 6228 6229 6073
4 6073 6229 6230 6074
4 6074 6230 6231 6075
4 6075 6231 6232 6076
4 6076 6232 6233 6077
4 6077 6233 6234 6078
4 6078 6234 6235 6079
4 6079 6235 6236 6080
4 6080 6236 6237 6081
4 6081 6237 6238 6082
4 6082 6238 6239 6160
4 6084 6083 6240 6241
4 6083 6085 6242 6240
4 6085 6086 6243 6242
4 6086 6087 6244 6243
4 6087 6088 6245 6244
4 6088 6089 6246 6245
4 6089 6090 6247 6246
4 6090 6091 6248 6247
4 6091 6092 6249 6248
4 6092 6093 6250 6249
4 6093 6094 6251 6250
4 6094 6095 6252 6251
4 6095 6096 6253 6252
4 6096 6097 6254 6253
4 6097 6098 6255 6254
4 6098 6099 6256 6255
4 6099 6100 6257 6256
4 6100 6101 6258 6257
4 6101 6102 6259 6258
4 6102 6103 6260 6259
4 6103 6104 6261 6260
4 6104 6105 6262 6261
4 6105 6106 6263 6262
4 6106 6107 6264 6263
4 6107 6108 6265 6264
4 6108 6109 6266 6265
4 6109 6110 6267 6266
4 6110 6111 6268 6267
4 6111 6112 6269 6268
4 6112 6113 6270 6269
4 6113 6114 6271 6270
4 6114 6115 6272 6271
4 6115 6116 6273 6272
4 6116 6117 6274 6273
4 6117 6118 6275 6274
4 6118 6119 6276 6275
4 6119 6120 6277 6276
4 6120 6121 6278 6277
4 6121 6122 6279 6278
4 6122 6123 6280 6279
4 6123 6124 6281 6280
4 6124 6125 6282 6281
4 6125 6126 6283 6282
4 6126 6127 6284 6283
4 6127 6128 6285 6284
4 6128 6129 6286 6285
4 6129 6130 6287 6286
4 6130 6131 6288 6287
4 6131 6132 6289 6288
4 6132 6133 6290 6289
4 6133 6134 6291 6290
4 6134 6135 6292 6291
4 6135 6136 6293 6292
4 6136 6137 6294 6293
4 6137 6138 6295 6294
4 6138 6139 6296 6295
4 6139 6140 6297 6296
4 6140 6141 6298 6297
4 6141 6142 6299 6298
4 6142 6143 6300 6299
4 6143 6144 6301 6300
4 6144 6145 6302 6301
4 6145 6146 6303 6302
4 6146 6147 6304 6303
4 6147 6148 6305 6304
4 6148 6149 6306 6305
4 6149 6150 6307 6306
4 6150 6151 6308 6307
4 6151 6152 6309 6308
4 6152 6153 6310 6309
4 6153 6154 6311 6310
4 6154 6155 6312 6311
4 6155 6156 6313 6312
4 6156 6157 6314 6313
4 6157 6158 6315 6314
4 6158 6159 6316 6315
4 6159 6161 6317 6316
4 6160 6239 6318 6161
4 6161 6318 6319 6317
4 6162 6320 6321 6163
4 6163 6321 6322 6164
4 6164 6322 6323 6165
4 6165 6323 6324 6166
4 6166 6324 6325 6167
4 6167 6325 6326 6168
4 6168 6326 6327 6169
4 6169 6327 6328 6170
4 6170 6328 6329 6171
4 6171 6329 6330 6172
4 6172 6330 6331 6173
4 6173 6331 6332 6174
4 6174 6332 6333 6175
4 6175 6333 6334 6176
4 6176 6334 6335 6177
4 6177 6335 6336 6178
4 6178 6336 6337 6179
4 6179 6337 6338 6180
4 6180 6338 6339 6181
4 6181 6339 6340 6182
4 6182 6340 6341 6183
4 6183 6341 6342 6184
4 6184 6342 6343 6185
4 6185 6343 6344 6186
4 6186 6344 6345 6187
4 6187 6345 6346 6188
4 6188 6346 6347 6189
4 6189 6347 6348 6190
4 6190 6348 6349 6191
4 6191 6349 6350 6192
4 6192 6350 6351 6193
4 6193 6351 6352 6194
4 6194 6352 6353 6195
4 6195 6353 6354 6196
4 6196 6354 6355 6197
4 6197 6355 6356 6198
4 6198 6356 6357 6199
4 6199 6357 6358 6200
4 6200 6358 6359 6201
4 6201 6359 6360 6202
4 6202 6360 6361 6203
4 6203 6361 6362 6204
4 6204 6362 6363 6205
4 6205 6363 6364 6206
4 6206 6364 6365 6207
4 6207 6365 6366 6208
4 6208 6366 6367 6209
4 6209 6367 6368 6210
4 6210 6368 6369 6211
4 6211 6369 6370 6212
4 6212 6370 6371 6213
4 6213 6371 6372 6214
4 6214 6372 6373 6215
4 6215 6373 6374 6216
4 6216 6374 6375 6217
4 6217 6375 6376 6218
4 6218 6376 6377 6219
4 6219 6377 6378 6220
4 6220 6378 6379 6221
4 6221 6379 6380 6222
4 6222 6380 6381 6223
4 6223 6381 6382 6224
4 6224 6382 6383 6225
4 6225 6383 6384 6226
4 6226 6384 6385 6227
4 6227 6385 6386 6228
4 6228 6386 6387 6229
4 6229 6387 6388 6230
4 6230 6388 6389 6231
4 6231 6389 6390 6232
4 6232 6390 6391 6233
4 6233 6391 6392 6234
4 6234 6392 6393 6235
4 6235 6393 6394 6236
4 6236 6394 6395 6237
4 6237 6395 6396 6238
4 6238 6396 6397 6239
4 6239 6397 6398 6318
4 6241 6240 6399 6400
4 6240 6242 6401 6399
4 6242 6243 6402 6401
4 6243 6244 6403 6402
4 6244 6245 6404 6403
4 6245 6246 6405 6404
4 6246 6247 6406 6405
4 6247 6248 6407 6406
4 6248 6249 6408 6407
4 6249 6250 6409 6408
4 6250 6251 6410 6409
4 6251 6252 6411 6410
4 6252 6253 6412 6411
4 6253 6254 6413 6412
4 6254 6255 6414 6413
4 6255 6256 6415 6414
4 6256 6257 6416 6415
4 6257 6258 6417 6416
4 6258 6259 6418 6417
4 6259 6260 6419 6418
4 6260 6261 6420 6419
4 6261 6262 6421 6420
4 6262 6263 6422 6421
4 6263 6264 6423 6422
4 6264 6265 6424 6423
4 6265 6266 6425 6424
4 6266 6267 6426 6425
4 6267 6268 6427 6426
4 6268 6269 6428 6427
4 6269 6270 6429 6428
4 6270 6271 6430 6429
4 6271 6272 6431 6430
4 6272 6273 6432 6431
4 6273 6274 6433 6432
4 6274 6275 6434 6433
4 6275 6276 6435 6434
4 6276 6277 6436 6435
4 6277 6278 6437 6436
4 6278 6279 6438 6437
4 6279 6280 6439 6438
4 6280 6281 6440 6439
4 6281 6282 6441 6440
4 6282 6283 6442 6441
4 6283 6284 6443 6442
4 6284 6285 6444 6443
4 6285 6286 6445 6444
4 6286 6287 6446 6445
4 6287 6288 6447 6446
4 6288 6289 6448 6447
4 6289 6290 6449 6448
4 6290 6291 6450 6449
4 6291 6292 6451 6450
4 6292 6293 6452 6451
4 6293 6294 6453 6452
4 6294 6295 6454 6453
4 6295 6296 6455 6454
4 6296 6297 6456 6455
4 6297 6298 6457 6456
4 6298 6299 6458 6457
4 6299 6300 6459 6458
4 6300 6301 6460 6459
4 6301 6302 6461 6460
4 6302 6303 6462 6461
4 6303 6304 6463 6462
4 6304 6305 6464 6463
4 6305 6306 6465 6464
4 6306 6307 6466 6465
4 6307 6308 6467 6466
4 6308 6309 6468 6467
4 6309 6310 6469 6468
4 6310 6311 6470 6469
4 6311 6312 6471 6470
4 6312 6313 6472 6471
4 6313 6314 6473 6472
4 6314 6315 6474 6473
4 6315 6316 6475 6474
4 6316 6317 6476 6475
4 6317 6319 6477 6476
4 6318 6398 6478 6319
4 6319 6478 6479 6477
4 6320 6480 6481 6321
4 6321 6481 6482 6322
4 6322 6482 6483 6323
4 6323 6483 6484 6324
4 6324 6484 6485 6325
4 6325 6485 6486 6326
4 6326 6486 6487 6327
4 6327 6487 6488 6328
4 6328 6488 6489 6329
4 6329 6489 6490 6330
4 6330 6490 6491 6331
4 6331 6491 6492 6332
4 6332 6492 6493 6333
4 6333 6493 6494 6334
4 6334 6494 6495 6335
4 6335 6495 6496 6336
4 6336 6496 6497 6337
4 6337 6497 6498 6338
4 6338 6498 6499 6339
4 6339 6499 6500 6340
4 6340 6500 6501 6341
4 6341 6501 6502 6342
4 6342 6502 6503 6343
4 6343 6503 6504 6344
4 6344 6504 6505 6345
4 6345 6505 6506 6346
4 6346 6506 6507 6347
4 6347 6507 6508 6348
4 6348 6508 6509 6349
4 6349 6509 6510 6350
4 6350 6510 6511 6351
4 6351 6511 6512 6352
4 6352 6512 6513 6353
4 6353 6513 6514 6354
4 6354 6514 6515 6355
4 6355 6515 6516 6356
4 6356 6516 6517 6357
4 6357 6517 6518 6358
4 6358 6518 6519 6359
4 6359 6519 6520 6360
4 6360 6520 6521 6361
4 6361 6521 6522 6362
4 6362 6522 6523 6363
4 6363 6523 6524 6364
4 6364 6524 6525 6365
4 6365 6525 6526 6366
4 6366 6526 6527 6367
4 6367 6527 6528 6368
4 6368 6528 6529 6369
4 6369 6529 6530 6370
4 6370 6530 6531 6371
4 6371 6531 6532 6372
4 6372 6532 6533 6373
4 6373 6533 6534 6374
4 6374 6534 6535 6375
4 6375 6535 6536 6376
4 6376 6536 6537 6377
4 6377 6537 6538 6378
4 6378 6538 6539 6379
4 6379 6539 6540 6380
4 6380 6540 6541 6381
4 6381 6541 6542 6382
4 6382 6542 6543 6383
4 6383 6543 6544 6384
4 6384 6544 6545 6385
4 6385 6545 6546 6386
4 6386 6546 6547 6387
4 6387 6547 6548 6388
4 6388 6548 6549 6389
4 6389 6549 6550 6390
4 6390 6550 6551 6391
4 6391 6551 6552 6392
4 6392 6552 6553 6393
4 6393 6553 6554 6394
4 6394 6554 6555 6395
4 6395 6555 6556 6396
4 6396 6556 6557 6397
4 6397 6557 6558 6398
4 6398 6558 6559 6478
4 6400 6399 6560 6561
4 6399 6401 6562 6560
4 6401 6402 6563 6562
4 6402 6403 6564 6563
4 6403 6404 6565 6564
4 6404 6405 6566 6565
4 6405 6406 6567 6566
4 6406 6407 6568 6567
4 6407 6408 6569 6568
4 6408 6409 6570 6569
4 6409 6410 6571 6570
4 6410 6411 6572 6571
4 6411 6412 6573 6572
4 6412 6413 6574 6573
4 6413 6414 6575 6574
4 6414 6415 6576 6575
4 6415 6416 6577 6576
4 6416 6417 6578 6577
4 6417 6418 6579 6578
4 6418 6419 6580 6579
4 6419 6420 6581 6580
4 6420 6421 6582 6581
4 6421 6422 6583 6582
4 6422 6423 6584 6583
4 6423 6424 6585 6584
4 6424 6425 6586 6585
4 6425 6426 6587 6586
4 6426 6427 6588 6587
4 6427 6428 6589 6588
4 6428 6429 6590 6589
4 6429 6430 6591 6590
4 6430 6431 6592 6591
4 6431 6432 6593 6592
4 6432 6433 6594 6593
4 6433 6434 6595 6594
4 6434 6435 6596 6595
4 6435 6436 6597 6596
4 6436 6437 6598 6597
4 6437 6438 6599 6598
4 6438 6439 6600 6599
4 6439 6440 6601 6600
4 6440 6441 6602 6601
4 6441 6442 6603 6602
4 6442 6443 6604 6603
4 6443 6444 6605 6604
4 6444 6445 6606 6605
4 6445 6446 6607 6606
4 6446 6447 6608 6607
4 6447 6448 6609 6608
4 6448 6449 6610 6609
4 6449 6450 6611 6610
4 6450 6451 6612 6611
4 6451 6452 6613 6612
4 6452 6453 6614 6613
4 6453 6454 6615 6614
4 6454 6455 6616 6615
4 6455 6456 6617 6616
4 6456 6457 6618 6617
4 6457 6458 6619 6618
4 6458 6459 6620 6619
4 6459 6460 6621 6620
4 6460 6461 6622 6621
4 6461 6462 6623 6622
4 6462 6463 6624 6623
4 6463 6464 6625 6624
4 6464 6465 6626 6625
4 6465 6466 6627 6626
4 6466 6467 6628 6627
4 6467 6468 6629 6628
4 6468 6469 6630 6629
4 6469 6470 6631 6630
4 6470 6471 6632 6631
4 6471 6472 6633 6632
4 6472 6473 6634 6633
4 6473 6474 6635 6634
4 6474 6475 6636 6635
4 6475 6476 6637 6636
4 6476 6477 6638 6637
4 6477 6479 6639 6638
4 6478 6559 6640 6479
4 6479 6640 6641 6639
4 6480 6642 6643 6481
4 6481 6643 6644 6482
4 6482 6644 6645 6483
4 6483 6645 6646 6484
4 6484 6646 6647 6485
4 6485 6647 6648 6486
4 6486 6648 6649 6487
4 6487 6649 6650 6488
4 6488 6650 6651 6489
4 6489 6651 6652 6490
4 6490 6652 6653 6491
4 6491 6653 6654 6492
4 6492 6654 6655 6493
4 6493 6655 6656 6494
4 6494 6656 6657 6495
4 6495 6657 6658 6496
4 6496 6658 6659 6497
4 6497 6659 6660 6498
4 6498 6660 6661 6499
4 6499 6661 6662 6500
4 6500 6662 6663 6501
4 6501 6663 6664 6502
4 6502 6664 6665 6503
4 6503 6665 6666 6504
4 6504 6666 6667 6505
4 6505 6667 6668 6506
4 6506 6668 6669 6507
4 6507 6669 6670 6508
4 6508 6670 6671 6509
4 6509 6671 6672 6510
4 6510 6672 6673 6511
4 6511 6673 6674 6512
4 6512 6674 6675 6513
4 6513 6675 6676 6514
4 6514 6676 6677 6515
4 6515 6677 6678 6516
4 6516 6678 6679 6517
4 6517 6679 6680 6518
4 6518 6680 6681 6519
4 6519 6681 6682 6520
4 6520 6682 6683 6521
4 6521 6683 6684 6522
4 6522 6684 6685 6523
4 6523 6685 6686 6524
4 6524 6686 6687 6525
4 6525 6687 6688 6526
4 6526 6688 6689 6527
4 6527 6689 6690 6528
4 6528 6690 6691 6529
4 6529 6691 6692 6530
4 6530 6692 6693 6531
4 6531 6693 6694 6532
4 6532 6694 6695 6533
4 6533 6695 6696 6534
4 6534 6696 6697 6535
4 6535 6697 6698 6536
4 6536 6698 6699 6537
4 6537 6699 6700 6538
4 6538 6700 6701 6539
4 6539 6701 6702 6540
4 6540 6702 6703 6541
4 6541 6703 6704 6542
4 6542 6704 6705 6543
4 6543 6705 6706 6544
4 6544 6706 6707 6545
4 6545 6707 6708 6546
4 6546 6708 6709 6547
4 6547 6709 6710 6548
4 6548 6710 6711 6549
4 6549 6711 6712 6550
4 6550 6712 6713 6551
4 6551 6713 6714 6552
4 6552 6714 6715 6553
4 6553 6715 6716 6554
4 6554 6716 6717 6555
4 6555 6717 6718 6556
4 6556 6718 6719 6557
4 6557 6719 6720 6558
4 6558 6720 6721 6559
4 6559 6721 6722 6640
4 6561 6560 6723 6724
4 6560 6562 6725 6723
4 6562 6563 6726 6725
4 6563 6564 6727 6726
4 6564 6565 6728 6727
4 6565 6566 6729 6728
4 6566 6567 6730 6729
4 6567 6568 6731 6730
4 6568 6569 6732 6731
4 6569 6570 6733 6732
4 6570 6571 6734 6733
4 6571 6572 6735 6734
4 6572 6573 6736 6735
4 6573 6574 6737 6736
4 6574 6575 6738 6737
4 6575 6576 6739 6738
4 6576 6577 6740 6739
4 6577 6578 6741 6740
4 6578 6579 6742 6741
4 6579 6580 6743 6742
4 6580 6581 6744 6743
4 6581 6582 6745 6744
4 6582 6583 6746 6745
4 6583 6584 6747 6746
4 6584 6585 6748 6747
4 6585 6586 6749 6748
4 6586 6587 6750 6749
4 6587 6588 6751 6750
4 6588 6589 6752 6751
4 6589 6590 6753 6752
4 6590 6591 6754 6753
4 6591 6592 6755 6754
4 6592 6593 6756 6755
4 6593 6594 6757 6756
4 6594 6595 6758 6757
4 6595 6596 6759 6758
4 6596 6597 6760 6759
4 6597 6598 6761 6760
4 6598 6599 6762 6761
4 6599 6600 6763 6762
4 6600 6601 6764 6763
4 6601 6602 6765 6764
4 6602 6603 6766 6765
4 6603 6604 6767 6766
4 6604 6605 6768 6767
4 6605 6606 6769 6768
4 6606 6607 6770 6769
4 6607 6608 6771 6770
4 6608 6609 6772 6771
4 6609 6610 6773 6772
4 6610 6611 6774 6773
4 6611 6612 6775 6774
4 6612 6613 6776 6775
4 6613 6614 6777 6776
4 6614 6615 6778 6777
4 6615 6616 6779 6778
4 6616 6617 6780 6779
4 6617 6618 6781 6780
4 6618 6619 6782 6781
4 6619 6620 6783 6782
4 6620 6621 6784 6783
4 6621 6622 6785 6784
4 6622 6623 6786 6785
4 6623 6624 6787 6786
4 6624 6625 6788 6787
4 6625 6626 6789 6788
4 6626 6627 6790 6789
4 6627 6628 6791 6790
4 6628 6629 6792 6791
4 6629 6630 6793 6792
4 6630 6631 6794 6793
4 6631 6632 6795 6794
4 6632 6633 6796 6795
4 6633 6634 6797 6796
4 6634 6635 6798 6797
4 6635 6636 6799 6798
4 6636 6637 6800 6799
4 6637 6638 6801 6800
4 6638 6639 6802 6801
4 6639 6641 6803 6802
4 6640 6722 6804 6641
4 6641 6804 6805 6803
4 6642 6806 6807 6643
4 6643 6807 6808 6644
4 6644 6808 6809 6645
4 6645 6809 6810 6646
4 6646 6810 6811 6647
4 6647 6811 6812 6648
4 6648 6812 6813 6649
4 6649 6813 6814 6650
4 6650 6814 6815 6651
4 6651 6815 6816 6652
4 6652 6816 6817 6653
4 6653 6817 6818 6654
4 6654 6818 6819 6655
4 6655 6819 6820 6656
4 6656 6820 6821 6657
4 6657 6821 6822 6658
4 6658 6822 6823 6659
4 6659 6823 6824 6660
4 6660 6824 6825 6661
4 6661 6825 6826 6662
4 6662 6826 6827 6663
4 6663 6827 6828 6664
4 6664 6828 6829 6665
4 6665 6829 6830 6666
4 6666 6830 6831 6667
4 6667 6831 6832 6668
4 6668 6832 6833 6669
4 6669 6833 6834 6670
4 6670 6834 6835 6671
4 6671 6835 6836 6672
4 6672 6836 6837 6673
4 6673 6837 6838 6674
4 6674 6838 6839 6675
4 6675 6839 6840 6676
4 6676 6840 6841 6677
4 6677 6841 6842 6678
4 6678 6842 6843 6679
4 6679 6843 6844 6680
4 6680 6844 6845 6681
4 6681 6845 6846 6682
4 6682 6846 6847 6683
4 6683 6847 6848 6684
4 6684 6848 6849 6685
4 6685 6849 6850 6686
4 6686 6850 6851 6687
4 6687 6851 6852 6688
4 6688 6852 6853 6689
4 6689 6853 6854 6690
4 6690 6854 6855 6691
4 6691 6855 6856 6692
4 6692 6856 6857 6693
4 6693 6857 6858 6694
4 6694 6858 6859 6695
4 6695 6859 6860 6696
4 6696 6860 6861 6697
4 6697 6861 6862 6698
4 6698 6862 6863 6699
4 6699 6863 6864 6700
4 6700 6864 6865 6701
4 6701 6865 6866 6702
4 6702 6866 6867 6703
4 6703 6867 6868 6704
4 6704 6868 6869 6705
4 6705 6869 6870 6706
4 6706 6870 6871 6707
4 6707 6871 6872 6708
4 6708 6872 6873 6709
4 6709 6873 6874 6710
4 6710 6874 6875 6711
4 6711 6875 6876 6712
4 6712 6876 6877 6713
4 6713 6877 6878 6714
4 6714 6878 6879 6715
4 6715 6879 6880 6716
4 6716 6880 6881 6717
4 6717 6881 6882 6718
4 6718 6882 6883 6719
4 6719 6883 6884 6720
4 6720 6884 6885 6721
4 6721 6885 6886 6722
4 6722 6886 6887 6804
4 6724 6723 6888 6889
4 6723 6725 6890 6888
4 6725 6726 6891 6890
4 6726 6727 6892 6891
4 6727 6728 6893 6892
4 6728 6729 6894 6893
4 6729 6730 6895 6894
4 6730 6731 6896 6895
4 6731 6732 6897 6896
4 6732 6733 6898 6897
4 6733 6734 6899 6898
4 6734 6735 6900 6899
4 6735 6736 6901 6900
4 6736 6737 6902 6901
4 6737 6738 6903 6902
4 6738 6739 6904 6903
4 6739 6740 6905 6904
4 6740 6741 6906 6905
4 6741 6742 6907 6906
4 6742 6743 6908 6907
4 6743 6744 6909 6908
4 6744 6745 6910 6909
4 6745 6746 6911 6910
4 6746 6747 6912 6911
4 6747 6748 6913 6912
4 6748 6749 6914 6913
4 6749 6750 6915 6914
4 6750 6751 6916 6915
4 6751 6752 6917 6916
4 6752 6753 6918 6917
4 6753 6754 6919 6918
4 6754 6755 6920 6919
4 6755 6756 6921 6920
4 6756 6757 6922 6921
4 6757 6758 6923 6922
4 6758 6759 6924 6923
4 6759 6760 6925 6924
4 6760 6761 6926 6925
4 6761 6762 6927 6926
4 6762 6763 6928 6927
4 6763 6764 6929 6928
4 6764 6765 6930 6929
4 6765 6766 6931 6930
4 6766 6767 6932 6931
4 6767 6768 6933 6932
4 6768 6769 6934 6933
4 6769 6770 6935 6934
4 6770 6771 6936 6935
4 6771 6772 6937 6936
4 6772 6773 6938 6937
4 6773 6774 6939 6938
4 6774 6775 6940 6939
4 6775 6776 6941 6940
4 6776 6777 6942 6941
4 6777 6778 6943 6942
4 6778 6779 6944 6943
4 6779 6780 6945 6944
4 6780 6781 6946 6945
4 6781 6782 6947 6946
4 6782 6783 6948 6947
4 6783 6784 6949 6948
4 6784 6785 6950 6949
4 6785 6786 6951 6950
4 6786 6787 6952 6951
4 6787 6788 6953 6952
4 6788 6789 6954 6953
4 6789 6790 6955 6954
4 6790 6791 6956 6955
4 6791 6792 6957 6956
4 6792 6793 6958 6957
4 6793 6794 6959 6958
4 6794 6795 6960 6959
4 6795 6796 6961 6960
4 6796 6797 6962 6961
4 6797 6798 6963 6962
4 6798 6799 6964 6963
4 6799 6800 6965 6964
4 6800 6801 6966 6965
4 6801 6802 6967 6966
4 6802 6803 6968 6967
4 6803 6805 6969 6968
4 6804 6887 6970 6805
4 6805 6970 6971 6969
4 6806 6972 6973 6807
4 6807 6973 6974 6808
4 6808 6974 6975 6809
4 6809 6975 6976 6810
4 6810 6976 6977 6811
4 6811 6977 6978 6812
4 6812 6978 6979 6813
4 6813 6979 6980 6814
4 6814 6980 6981 6815
4 6815 6981 6982 6816
4 6816 6982 6983 6817
4 6817 6983 6984 6818
4 6818 6984 6985 6819
4 6819 6985 6986 6820
4 6820 6986 6987 6821
4 6821 6987 6988 6822
4 6822 6988 6989 6823
4 6823 6989 6990 6824
4 6824 6990 6991 6825
4 6825 6991 6992 6826
4 6826 6992 6993 6827
4 6827 6993 6994 6828
4 6828 6994 6995 6829
4 6829 6995 6996 6830
4 6830 6996 6997 6831
4 6831 6997 6998 6832
4 6832 6998 6999 6833
4 6833 6999 7000 6834
4 6834 7000 7001 6835
4 6835 7001 7002 6836
4 6836 7002 7003 6837
4 6837 7003 7004 6838
4 6838 7004 7005 6839
4 6839 7005 7006 6840
4 6840 7006 7007 6841
4 6841 7007 7008 6842
4 6842 7008 7009 6843
4 6843 7009 7010 6844
4 6844 7010 7011 6845
4 6845 7011 7012 6846
4 6846 7012 7013 6847
4 6847 7013 7014 6848
4 6848 7014 7015 6849
4 6849 7015 7016 6850
4 6850 7016 7017 6851
4 6851 7017 7018 6852
4 6852 7018 7019 6853
4 6853 7019 7020 6854
4 6854 7020 7021 6855
4 6855 7021 7022 6856
4 6856 7022 7023 6857
4 6857 7023 7024 6858
4 6858 7024 7025 6859
4 6859 7025 7026 6860
4 6860 7026 7027 6861
4 6861 7027 7028 6862
4 6862 7028 7029 6863
4 6863 7029 7030 6864
4 6864 7030 7031 6865
4 6865 7031 7032 6866
4 6866 7032 7033 6867
4 6867 7033 7034 6868
4 6868 7034 7035 6869
4 6869 7035 7036 6870
4 6870 7036 7037 6871
4 6871 7037 7038 6872
4 6872 7038 7039 6873
4 6873 7039 7040 6874
4 6874 7040 7041 6875
4 6875 7041 7042 6876
4 6876 7042 7043 6877
4 6877 7043 7044 6878
4 6878 7044 7045 6879
4 6879 7045 7046 6880
4 6880 7046 7047 6881
4 6881 7047 7048 6882
4 6882 7048 7049 6883
4 6883 7049 7050 6884
4 6884 7050 7051 6885
4 6885 7051 7052 6886
4 6886 7052 7053 6887
4 6887 7053 7054 6970
4 6889 6888 7055 7056
4 6888 6890 7057 7055
4 6890 6891 7058 7057
4 6891 6892 7059 7058
4 6892 6893 7060 7059
4 6893 6894 7061 7060
4 6894 6895 7062 7061
4 6895 6896 7063 7062
4 6896 6897 7064 7063
4 6897 6898 7065 7064
4 6898 6899 7066 7065
4 6899 6900 7067 7066
4 6900 6901 7068 7067
4 6901 6902 7069 7068
4 6902 6903 7070 7069
4 6903 6904 7071 7070
4 6904 6905 7072 7071
4 6905 6906 7073 7072
4 6906 6907 7074 7073
4 6907 6908 7075 7074
4 6908 6909 7076 7075
4 6909 6910 7077 7076
4 6910 6911 7078 7077
4 6911 6912 7079 7078
4 6912 6913 7080 7079
4 6913 6914 7081 7080
4 6914 6915 7082 7081
4 6915 6916 7083 7082
4 6916 6917 7084 7083
4 6917 6918 7085 7084
4 6918 6919 7086 7085
4 6919 6920 7087 7086
4 6920 6921 7088 7087
4 6921 6922 7089 7088
4 6922 6923 7090 7089
4 6923 6924 7091 7090
4 6924 6925 7092 7091
4 6925 6926 7093 7092
4 6926 6927 7094 7093
4 6927 6928 7095 7094
4 6928 6929 7096 7095
4 6929 6930 7097 7096
4 6930 6931 7098 7097
4 6931 6932 7099 7098
4 6932 6933 7100 7099
4 6933 6934 7101 7100
4 6934 6935 7102 7101
4 6935 6936 7103 7102
4 6936 6937 7104 7103
4 6937 6938 7105 7104
4 6938 6939 7106 7105
4 6939 6940 7107 7106
4 6940 6941 7108 7107
4 6941 6942 7109 7108
4 6942 6943 7110 7109
4 6943 6944 7111 7110
4 6944 6945 7112 7111
4 6945 6946 7113 7112
4 6946 6947 7114 7113
4 6947 6948 7115 7114
4 6948 6949 7116 7115
4 6949 6950 7117 7116
4 6950 6951 7118 7117
4 6951 6952 7119 7118
4 6952 6953 7120 7119
4 6953 6954 7121 7120
4 6954 6955 7122 7121
4 6955 6956 7123 7122
4 6956 6957 7124 7123
4 6957 6958 7125 7124
4 6958 6959 7126 7125
4 6959 6960 7127 7126
4 6960 6961 7128 7127
4 6961 6962 7129 7128
4 6962 6963 7130 7129
4 6963 6964 7131 7130
4 6964 6965 7132 7131
4 6965 6966 7133 7132
4 6966 6967 7134 7133
4 6967 6968 7135 7134
4 6968 6969 7136 7135
4 6969 6971 7137 7136
4 6970 7054 7138 6971
4 6971 7138 7139 7137
4 6972 7140 7141 6973
4 6973 7141 7142 6974
4 6974 7142 7143 6975
4 6975 7143 7144 6976
4 6976 7144 7145 6977
4 6977 7145 7146 6978
4 6978 7146 7147 6979
4 6979 7147 7148 6980
4 6980 7148 7149 6981
4 6981 7149 7150 6982
4 6982 7150 7151 6983
4 6983 7151 7152 6984
4 6984 7152 7153 6985
4 6985 7153 7154 6986
4 6986 7154 7155 6987
4 6987 7155 7156 6988
4 6988 7156 7157 6989
4 6989 7157 7158 6990
4 6990 7158 7159 6991
4 6991 7159 7160 6992
4 6992 7160 7161 6993
4 6993 7161 7162 6994
4 6994 7162 7163 6995
4 6995 7163 7164 6996
4 6996 7164 7165 6997
4 6997 7165 7166 6998
4 6998 7166 7167 6999
4 6999 7167 7168 7000
4 7000 7168 7169 7001
4 7001 7169 7170 7002
4 7002 7170 7171 7003
4 7003 7171 7172 7004
4 7004 7172 7173 7005
4 7005 7173 7174 7006
4 7006 7174 7175 7007
4 7007 7175 7176 7008
4 7008 7176 7177 7009
4 7009 7177 7178 7010
4 7010 7178 7179 7011
4 7011 7179 7180 7012
4 7012 7180 7181 7013
4 7013 7181 7182 7014
4 7014 7182 7183 7015
4 7015 7183 7184 7016
4 7016 7184 7185 7017
4 7017 7185 7186 7018
4 7018 7186 7187 7019
4 7019 7187 7188 7020
4 7020 7188 7189 7021
4 7021 7189 7190 7022
4 7022 7190 7191 7023
4 7023 7191 7192 7024
4 7024 7192 7193 7025
4 7025 7193 7194 7026
4 7026 7194 7195 7027
4 7027 7195 7196 7028
4 7028 7196 7197 7029
4 7029 7197 7198 7030
4 7030 7198 7199 7031
4 7031 7199 7200 7032
4 7032 7200 7201 7033
4 7033 7201 7202 7034
4 7034 7202 7203 7035
4 7035 7203 7204 7036
4 7036 7204 7205 7037
4 7037 7205 7206 7038
4 7038 7206 7207 7039
4 7039 7207 7208 7040
4 7040 7208 7209 7041
4 7041 7209 7210 7042
4 7042 7210 7211 7043
4 7043 7211 7212 7044
4 7044 7212 7213 7045
4 7045 7213 7214 7046
4 7046 7214 7215 7047
4 7047 7215 7216 7048
4 7048 7216 7217 7049
4 7049 7217 7218 7050
4 7050 7218 7219 7051
4 7051 7219 7220 7052
4 7052 7220 7221 7053
4 7053 7221 7222 7054
4 7054 7222 7223 7138
4 7056 7055 7224 7225
4 7055 7057 7226 7224
4 7057 7058 7227 7226
4 7058 7059 7228 7227
4 7059 7060 7229 7228
4 7060 7061 7230 7229
4 7061 7062 7231 7230
4 7062 7063 7232 7231
4 7063 7064 7233 7232
4 7064 7065 7234 7233
4 7065 7066 7235 7234
4 7066 7067 7236 7235
4 7067 7068 7237 7236
4 7068 7069 7238 7237
4 7069 7070 7239 7238
4 7070 7071 7240 7239
4 7071 7072 7241 7240
4 7072 7073 7242 7241
4 7073 7074 7243 7242
4 7074 7075 7244 7243
4 7075 7076 7245 7244
4 7076 7077 7246 7245
4 7077 7078 7247 7246
4 7078 7079 7248 7247
4 7079 7080 7249 7248
4 7080 7081 7250 7249
4 7081 7082 7251 7250
4 7082 7083 7252 7251
4 7083 7084 7253 7252
4 7084 7085 7254 7253
4 7085 7086 7255 7254
4 7086 7087 7256 7255
4 7087 7088 7257 7256
4 7088 7089 7258 7257
4 7089 7090 7259 7258
4 7090 7091 7260 7259
4 7091 7092 7261 7260
4 7092 7093 7262 7261
4 7093 7094 7263 7262
4 7094 7095 7264 7263
4 7095 7096 7265 7264
4 7096 7097 7266 7265
4 7097 7098 7267 7266
4 7098 7099 7268 7267
4 7099 7100 7269 7268
4 7100 7101 7270 7269
4 7101 7102 7271 7270
4 7102 7103 7272 7271
4 7103 7104 7273 7272
4 7104 7105 7274 7273
4 7105 7106 7275 7274
4 7106 7107 7276 7275
4 7107 7108 7277 7276
4 7108 7109 7278 7277
4 7109 7110 7279 7278
4 7110 7111 7280 7279
4 7111 7112 7281 7280
4 7112 7113 7282 7281
4 7113 7114 7283 7282
4 7114 7115 7284 7283
4 7115 7116 7285 7284
4 7116 7117 7286 7285
4 7117 7118 7287 7286
4 7118 7119 7288 7287
4 7119 7120 7289 7288
4 7120 7121 7290 7289
4 7121 7122 7291 7290
4 7122 7123 7292 7291
4 7123 7124 7293 7292
4 7124 7125 7294 7293
4 7125 7126 7295 7294
4 7126 7127 7296 7295
4 7127 7128 7297 7296
4 7128 7129 7298 7297
4 7129 7130 7299 7298
4 7130 7131 7300 7299
4 7131 7132 7301 7300
4 7132 7133 7302 7301
4 7133 7134 7303 7302
4 7134 7135 7304 7303
4 7135 7136 7305 7304
4 7136 7137 7306 7305
4 7137 7139 7307 7306
4 7138 7223 7308 7139
4 7139 7308 7309 7307
4 7140 7310 7311 7141
4 7141 7311 7312 7142
4 7142 7312 7313 7143
4 7143 7313 7314 7144
4 7144 7314 7315 7145
4 7145 7315 7316 7146
4 7146 7316 7317 7147
4 7147 7317 7318 7148
4 7148 7318 7319 7149
4 7149 7319 7320 7150
4 7150 7320 7321 7151
4 7151 7321 7322 7152
4 7152 7322 7323 7153
4 7153 7323 7324 7154
4 7154 7324 7325 7155
4 7155 7325 7326 7156
4 7156 7326 7327 7157
4 7157 7327 7328 7158
4 7158 7328 7329 7159
4 7159 7329 7330 7160
4 7160 7330 7331 7161
4 7161 7331 7332 7162
4 7162 7332 7333 7163
4 7163 7333 7334 7164
4 7164 7334 7335 7165
4 7165 7335 7336 7166
4 7166 7336 7337 7167
4 7167 7337 7338 7168
4 7168 7338 7339 7169
4 7169 7339 7340 7170
4 7170 7340 7341 7171
4 7171 7341 7342 7172
4 7172 7342 7343 7173
4 7173 7343 7344 7174
4 7174 7344 7345 7175
4 7175 7345 7346 7176
4 7176 7346 7347 7177
4 7177 7347 7348 7178
4 7178 7348 7349 7179
4 7179 7349 7350 7180
4 7180 7350 7351 7181
4 7181 7351 7352 7182
4 7182 7352 7353 7183
4 7183 7353 7354 7184
4 7184 7354 7355 7185
4 7185 7355 7356 7186
4 7186 7356 7357 7187
4 7187 7357 7358 7188
4 7188 7358 7359 7189
4 7189 7359 7360 7190
4 7190 7360 7361 7191
4 7191 7361 7362 7192
4 7192 7362 7363 7193
4 7193 7363 7364 7194
4 7194 7364 7365 7195
4 7195 7365 7366 7196
4 7196 7366 7367 7197
4 7197 7367 7368 7198
4 7198 7368 7369 7199
4 7199 7369 7370 7200
4 7200 7370 7371 7201
4 7201 7371 7372 7202
4 7202 7372 7373 7203
4 7203 7373 7374 7204
4 7204 7374 7375 7205
4 7205 7375 7376 7206
4 7206 7376 7377 7207
4 7207 7377 7378 7208
4 7208 7378 7379 7209
4 7209 7379 7380 7210
4 7210 7380 7381 7211
4 7211 7381 7382 7212
4 7212 7382 7383 7213
4 7213 7383 7384 7214
4 7214 7384 7385 7215
4 7215 7385 7386 7216
4 7216 7386 7387 7217
4 7217 7387 7388 7218
4 7218 7388 7389 7219
4 7219 7389 7390 7220
4 7220 7390 7391 7221
4 7221 7391 7392 7222
4 7222 7392 7393 7223
4 7223 7393 7394 7308
4 7225 7224 7395 7396
4 7224 7226 7397 7395
4 7226 7227 7398 7397
4 7227 7228 7399 7398
4 7228 7229 7400 7399
4 7229 7230 7401 7400
4 7230 7231 7402 7401
4 7231 7232 7403 7402
4 7232 7233 7404 7403
4 7233 7234 7405 7404
4 7234 7235 7406 7405
4 7235 7236 7407 7406
4 7236 7237 7408 7407
4 7237 7238 7409 7408
4 7238 7239 7410 7409
4 7239 7240 7411 7410
4 7240 7241 7412 7411
4 7241 7242 7413 7412
4 7242 7243 7414 7413
4 7243 7244 7415 7414
4 7244 7245 7416 7415
4 7245 7246 7417 7416
4 7246 7247 7418 7417
4 7247 7248 7419 7418
4 7248 7249 7420 7419
4 7249 7250 7421 7420
4 7250 7251 7422 7421
4 7251 7252 7423 7422
4 7252 7253 7424 7423
4 7253 7254 7425 7424
4 7254 7255 7426 7425
4 7255 7256 7427 7426
4 7256 7257 7428 7427
4 7257 7258 7429 7428
4 7258 7259 7430 7429
4 7259 7260 7431 7430
4 7260 7261 7432 7431
4 7261 7262 7433 7432
4 7262 7263 7434 7433
4 7263 7264 7435 7434
4 7264 7265 7436 7435
4 7265 7266 7437 7436
4 7266 7267 7438 7437
4 7267 7268 7439 7438
4 7268 7269 7440 7439
4 7269 7270 7441 7440
4 7270 7271 7442 7441
4 7271 7272 7443 7442
4 7272 7273 7444 7443
4 7273 7274 7445 7444
4 7274 7275 7446 7445
4 7275 7276 7447 7446
4 7276 7277 7448 7447
4 7277 7278 7449 7448
4 7278 7279 7450 7449
4 7279 7280 7451 7450
4 7280 7281 7452 7451
4 7281 7282 7453 7452
4 7282 7283 7454 7453
4 7283 7284 7455 7454
4 7284 7285 7456 7455
4 7285 7286 7457 7456
4 7286 7287 7458 7457
4 7287 7288 7459 7458
4 7288 7289 7460 7459
4 7289 7290 7461 7460
4 7290 7291 7462 7461
4 7291 7292 7463 7462
4 7292 7293 7464 7463
4 7293 7294 7465 7464
4 7294 7295 7466 7465
4 7295 7296 7467 7466
4 7296 7297 7468 7467
4 7297 7298 7469 7468
4 7298 7299 7470 7469
4 7299 7300 7471 7470
4 7300 7301 7472 7471
4 7301 7302 7473 7472
4 7302 7303 7474 7473
4 7303 7304 7475 7474
4 7304 7305 7476 7475
4 7305 7306 7477 7476
4 7306 7307 7478 7477
4 7307 7309 7479 7478
4 7308 7394 7480 7309
4 7309 7480 7481 7479
4 7310 7482 7483 7311
4 7311 7483 7484 7312
4 7312 7484 7485 7313
4 7313 7485 7486 7314
4 7314 7486 7487 7315
4 7315 7487 7488 7316
4 7316 7488 7489 7317
4 7317 7489 7490 7318
4 7318 7490 7491 7319
4 7319 7491 7492 7320
4 7320 7492 7493 7321
4 7321 7493 7494 7322
4 7322 7494 7495 7323
4 7323 7495 7496 7324
4 7324 7496 7497 7325
4 7325 7497 7498 7326
4 7326 7498 7499 7327
4 7327 7499 7500 7328
4 7328 7500 7501 7329
4 7329 7501 7502 7330
4 7330 7502 7503 7331
4 7331 7503 7504 7332
4 7332 7504 7505 7333
4 7333 7505 7506 7334
4 7334 7506 7507 7335
4 7335 7507 7508 7336
4 7336 7508 7509 7337
4 7337 7509 7510 7338
4 7338 7510 7511 7339
4 7339 7511 7512 7340
4 7340 7512 7513 7341
4 7341 7513 7514 7342
4 7342 7514 7515 7343
4 7343 7515 7516 7344
4 7344 7516 7517 7345
4 7345 7517 7518 7346
4 7346 7518 7519 7347
4 7347 7519 7520 7348
4 7348 7520 7521 7349
4 7349 7521 7522 7350
4 7350 7522 7523 7351
4 7351 7523 7524 7352
4 7352 7524 7525 7353
4 7353 7525 7526 7354
4 7354 7526 7527 7355
4 7355 7527 7528 7356
4 7356 7528 7529 7357
4 7357 7529 7530 7358
4 7358 7530 7531 7359
4 7359 7531 7532 7360
4 7360 7532 7533 7361
4 7361 7533 7534 7362
4 7362 7534 7535 7363
4 7363 7535 7536 7364
4 7364 7536 7537 7365
4 7365 7537 7538 7366
4 7366 7538 7539 7367
4 7367 7539 7540 7368
4 7368 7540 7541 7369
4 7369 7541 7542 7370
4 7370 7542 7543 7371
4 7371 7543 7544 7372
4 7372 7544 7545 7373
4 7373 7545 7546 7374
4 7374 7546 7547 7375
4 7375 7547 7548 7376
4 7376 7548 7549 7377
4 7377 7549 7550 7378
4 7378 7550 7551 7379
4 7379 7551 7552 7380
4 7380 7552 7553 7381
4 7381 7553 7554 7382
4 7382 7554 7555 7383
4 7383 7555 7556 7384
4 7384 7556 7557 7385
4 7385 7557 7558 7386
4 7386 7558 7559 7387
4 7387 7559 7560 7388
4 7388 7560 7561 7389
4 7389 7561 7562 7390
4 7390 7562 7563 7391
4 7391 7563 7564 7392
4 7392 7564 7565 7393
4 7393 7565 7566 7394
4 7394 7566 7567 7480
4 7396 7395 7568 7569
4 7395 7397 7570 7568
4 7397 7398 7571 7570
4 7398 7399 7572 7571
4 7399 7400 7573 7572
4 7400 7401 7574 7573
4 7401 7402 7575 7574
4 7402 7403 7576 7575
4 7403 7404 7577 7576
4 7404 7405 7578 7577
4 7405 7406 7579 7578
4 7406 7407 7580 7579
4 7407 7408 7581 7580
4 7408 7409 7582 7581
4 7409 7410 7583 7582
4 7410 7411 7584 7583
4 7411 7412 7585 7584
4 7412 7413 7586 7585
4 7413 7414 7587 7586
4 7414 7415 7588 7587
4 7415 7416 7589 7588
4 7416 7417 7590 7589
4 7417 7418 7591 7590
4 7418 7419 7592 7591
4 7419 7420 7593 7592
4 7420 7421 7594 7593
4 7421 7422 7595 7594
4 7422 7423 7596 7595
4 7423 7424 7597 7596
4 7424 7425 7598 7597
4 7425 7426 7599 7598
4 7426 7427 7600 7599
4 7427 7428 7601 7600
4 7428 7429 7602 7601
4 7429 7430 7603 7602
4 7430 7431 7604 7603
4 7431 7432 7605 7604
4 7432 7433 7606 7605
4 7433 7434 7607 7606
4 7434 7435 7608 7607
4 7435 7436 7609 7608
4 7436 7437 7610 7609
4 7437 7438 7611 7610
4 7438 7439 7612 7611
4 7439 7440 7613 7612
4 7440 7441 7614 7613
4 7441 7442 7615 7614
4 7442 7443 7616 7615
4 7443 7444 7617 7616
4 7444 7445 7618 7617
4 7445 7446 7619 7618
4 7446 7447 7620 7619
4 7447 7448 7621 7620
4 7448 7449 7622 7621
4 7449 7450 7623 7622
4 7450 7451 7624 7623
4 7451 7452 7625 7624
4 7452 7453 7626 7625
4 7453 7454 7627 7626
4 7454 7455 7628 7627
4 7455 7456 7629 7628
4 7456 7457 7630 7629
4 7457 7458 7631 7630
4 7458 7459 7632 7631
4 7459 7460 7633 7632
4 7460 7461 7634 7633
4 7461 7462 7635 7634
4 7462 7463 7636 7635
4 7463 7464 7637 7636
4 7464 7465 7638 7637
4 7465 7466 7639 7638
4 7466 7467 7640 7639
4 7467 7468 7641 7640
4 7468 7469 7642 7641
4 7469 7470 7643 7642
4 7470 7471 7644 7643
4 7471 7472 7645 7644
4 7472 7473 7646 7645
4 7473 7474 7647 7646
4 7474 7475 7648 7647
4 7475 7476 7649 7648
4 7476 7477 7650 7649
4 7477 7478 7651 7650
4 7478 7479 7652 7651
4 7479 7481 7653 7652
4 7480 7567 7654 7481
4 7481 7654 7655 7653
4 7482 7656 7657 7483
4 7483 7657 7658 7484
4 7484 7658 7659 7485
4 7485 7659 7660 7486
4 7486 7660 7661 7487
4 7487 7661 7662 7488
4 7488 7662 7663 7489
4 7489 7663 7664 7490
4 7490 7664 7665 7491
4 7491 7665 7666 7492
4 7492 7666 7667 7493
4 7493 7667 7668 7494
4 7494 7668 7669 7495
4 7495 7669 7670 7496
4 7496 7670 7671 7497
4 7497 7671 7672 7498
4 7498 7672 7673 7499
4 7499 7673 7674 7500
4 7500 7674 7675 7501
4 7501 7675 7676 7502
4 7502 7676 7677 7503
4 7503 7677 7678 7504
4 7504 7678 7679 7505
4 7505 7679 7680 7506
4 7506 7680 7681 7507
4 7507 7681 7682 7508
4 7508 7682 7683 7509
4 7509 7683 7684 7510
4 7510 7684 7685 7511
4 7511 7685 7686 7512
4 7512 7686 7687 7513
4 7513 7687 7688 7514
4 7514 7688 7689 7515
4 7515 7689 7690 7516
4 7516 7690 7691 7517
4 7517 7691 7692 7518
4 7518 7692 7693 7519
4 7519 7693 7694 7520
4 7520 7694 7695 7521
4 7521 7695 7696 7522
4 7522 7696 7697 7523
4 7523 7697 7698 7524
4 7524 7698 7699 7525
4 7525 7699 7700 7526
4 7526 7700 7701 7527
4 7527 7701 7702 7528
4 7528 7702 7703 7529
4 7529 7703 7704 7530
4 7530 7704 7705 7531
4 7531 7705 7706 7532
4 7532 7706 7707 7533
4 7533 7707 7708 7534
4 7534 7708 7709 7535
4 7535 7709 7710 7536
4 7536 7710 7711 7537
4 7537 7711 7712 7538
4 7538 7712 7713 7539
4 7539 7713 7714 7540
4 7540 7714 7715 7541
4 7541 7715 7716 7542
4 7542 7716 7717 7543
4 7543 7717 7718 7544
4 7544 7718 7719 7545
4 7545 7719 7720 7546
4 7546 7720 7721 7547
4 7547 7721 7722 7548
4 7548 7722 7723 7549
4 7549 7723 7724 7550
4 7550 7724 7725 7551
4 7551 7725 7726 7552
4 7552 7726 7727 7553
4 7553 7727 7728 7554
4 7554 7728 7729 7555
4 7555 7729 7730 7556
4 7556 7730 7731 7557
4 7557 7731 7732 7558
4 7558 7732 7733 7559
4 7559 7733 7734 7560
4 7560 7734 7735 7561
4 7561 7735 7736 7562
4 7562 7736 7737 7563
4 7563 7737 7738 7564
4 7564 7738 7739 7565
4 7565 7739 7740 7566
4 7566 7740 7741 7567
4 7567 7741 7742 7654
4 7569 7568 7743 7744
4 7568 7570 7745 7743
4 7570 7571 7746 7745
4 7571 7572 7747 7746
4 7572 7573 7748 7747
4 7573 7574 7749 7748
4 7574 7575 7750 7749
4 7575 7576 7751 7750
4 7576 7577 7752 7751
4 7577 7578 7753 7752
4 7578 7579 7754 7753
4 7579 7580 7755 7754
4 7580 7581 7756 7755
4 7581 7582 7757 7756
4 7582 7583 7758 7757
4 7583 7584 7759 7758
4 7584 7585 7760 7759
4 7585 7586 7761 7760
4 7586 7587 7762 7761
4 7587 7588 7763 7762
4 7588 7589 7764 7763
4 7589 7590 7765 7764
4 7590 7591 7766 7765
4 7591 7592 7767 7766
4 7592 7593 7768 7767
4 7593 7594 7769 7768
4 7594 7595 7770 7769
4 7595 7596 7771 7770
4 7596 7597 7772 7771
4 7597 7598 7773 7772
4 7598 7599 7774 7773
4 7599 7600 7775 7774
4 7600 7601 7776 7775
4 7601 7602 7777 7776
4 7602 7603 7778 7777
4 7603 7604 7779 7778
4 7604 7605 7780 7779
4 7605 7606 7781 7780
4 7606 7607 7782 7781
4 7607 7608 7783 7782
4 7608 7609 7784 7783
4 7609 7610 7785 7784
4 7610 7611 7786 7785
4 7611 7612 7787 7786
4 7612 7613 7788 7787
4 7613 7614 7789 7788
4 7614 7615 7790 7789
4 7615 7616 7791 7790
4 7616 7617 7792 7791
4 7617 7618 7793 7792
4 7618 7619 7794 7793
4 7619 7620 7795 7794
4 7620 7621 7796 7795
4 7621 7622 7797 7796
4 7622 7623 7798 7797
4 7623 7624 7799 7798
4 7624 7625 7800 7799
4 7625 7626 7801 7800
4 7626 7627 7802 7801
4 7627 7628 7803 7802
4 7628 7629 7804 7803
4 7629 7630 7805 7804
4 7630 7631 7806 7805
4 7631 7632 7807 7806
4 7632 7633 7808 7807
4 7633 7634 7809 7808
4 7634 7635 7810 7809
4 7635 7636 7811 7810
4 7636 7637 7812 7811
4 7637 7638 7813 7812
4 7638 7639 7814 7813
4 7639 7640 7815 7814
4 7640 7641 7816 7815
4 7641 7642 7817 7816
4 7642 7643 7818 7817
4 7643 7644 7819 7818
4 7644 7645 7820 7819
4 7645 7646 7821 7820
4 7646 7647 7822 7821
4 7647 7648 7823 7822
4 7648 7649 7824 7823
4 7649 7650 7825 7824
4 7650 7651 7826 7825
4 7651 7652 7827 7826
4 7652 7653 7828 7827
4 7653 7655 7829 7828
4 7654 7742 7830 7655
4 7655 7830 7831 7829
4 7656 7832 7833 7657
4 7657 7833 7834 7658
4 7658 7834 7835 7659
4 7659 7835 7836 7660
4 7660 7836 7837 7661
4 7661 7837 7838 7662
4 7662 7838 7839 7663
4 7663 7839 7840 7664
4 7664 7840 7841 7665
4 7665 7841 7842 7666
4 7666 7842 7843 7667
4 7667 7843 7844 7668
4 7668 7844 7845 7669
4 7669 7845 7846 7670
4 7670 7846 7847 7671
4 7671 7847 7848 7672
4 7672 7848 7849 7673
4 7673 7849 7850 7674
4 7674 7850 7851 7675
4 7675 7851 7852 7676
4 7676 7852 7853 7677
4 7677 7853 7854 7678
4 7678 7854 7855 7679
4 7679 7855 7856 7680
4 7680 7856 7857 7681
4 7681 7857 7858 7682
4 7682 7858 7859 7683
4 7683 7859 7860 7684
4 7684 7860 7861 7685
4 7685 7861 7862 7686
4 7686 7862 7863 7687
4 7687 7863 7864 7688
4 7688 7864 7865 7689
4 7689 7865 7866 7690
4 7690 7866 7867 7691
4 7691 7867 7868 7692
4 7692 7868 7869 7693
4 7693 7869 7870 7694
4 7694 7870 7871 7695
4 7695 7871 7872 7696
4 7696 7872 7873 7697
4 7697 7873 7874 7698
4 7698 7874 7875 7699
4 7699 7875 7876 7700
4 7700 7876 7877 7701
4 7701 7877 7878 7702
4 7702 7878 7879 7703
4 7703 7879 7880 7704
4 7704 7880 7881 7705
4 7705 7881 7882 7706
4 7706 7882 7883 7707
4 7707 7883 7884 7708
4 7708 7884 7885 7709
4 7709 7885 7886 7710
4 7710 7886 7887 7711
4 7711 7887 7888 7712
4 7712 7888 7889 7713
4 7713 7889 7890 7714
4 7714 7890 7891 7715
4 7715 7891 7892 7716
4 7716 7892 7893 7717
4 7717 7893 7894 7718
4 7718 7894 7895 7719
4 7719 7895 7896 7720
4 7720 7896 7897 7721
4 7721 7897 7898 7722
4 7722 7898 7899 7723
4 7723 7899 7900 7724
4 7724 7900 7901 7725
4 7725 7901 7902 7726
4 7726 7902 7903 7727
4 7727 7903 7904 7728
4 7728 7904 7905 7729
4 7729 7905 7906 7730
4 7730 7906 7907 7731
4 7731 7907 7908 7732
4 7732 7908 7909 7733
4 7733 7909 7910 7734
4 7734 7910 7911 7735
4 7735 7911 7912 7736
4 7736 7912 7913 7737
4 7737 7913 7914 7738
4 7738 7914 7915 7739
4 7739 7915 7916 7740
4 7740 7916 7917 7741
4 7741 7917 7918 7742
4 7742 7918 7919 7830
4 7744 7743 7920 7921
4 7743 7745 7922 7920
4 7745 7746 7923 7922
4 7746 7747 7924 7923
4 7747 7748 7925 7924
4 7748 7749 7926 7925
4 7749 7750 7927 7926
4 7750 7751 7928 7927
4 7751 7752 7929 7928
4 7752 7753 7930 7929
4 7753 7754 7931 7930
4 7754 7755 7932 7931
4 7755 7756 7933 7932
4 7756 7757 7934 7933
4 7757 7758 7935 7934
4 7758 7759 7936 7935
4 7759 7760 7937 7936
4 7760 7761 7938 7937
4 7761 7762 7939 7938
4 7762 7763 7940 7939
4 7763 7764 7941 7940
4 7764 7765 7942 7941
4 7765 7766 7943 7942
4 7766 7767 7944 7943
4 7767 7768 7945 7944
4 7768 7769 7946 7945
4 7769 7770 7947 7946
4 7770 7771 7948 7947
4 7771 7772 7949 7948
4 7772 7773 7950 7949
4 7773 7774 7951 7950
4 7774 7775 7952 7951
4 7775 7776 7953 7952
4 7776 7777 7954 7953
4 7777 7778 7955 7954
4 7778 7779 7956 7955
4 7779 7780 7957 7956
4 7780 7781 7958 7957
4 7781 7782 7959 7958
4 7782 7783 7960 7959
4 7783 7784 7961 7960
4 7784 7785 7962 7961
4 7785 7786 7963 7962
4 7786 7787 7964 7963
4 7787 7788 7965 7964
4 7788 7789 7966 7965
4 7789 7790 7967 7966
4 7790 7791 7968 7967
4 7791 7792 7969 7968
4 7792 7793 7970 7969
4 7793 7794 7971 7970
4 7794 7795 7972 7971
4 7795 7796 7973 7972
4 7796 7797 7974 7973
4 7797 7798 7975 7974
4 7798 7799 7976 7975
4 7799 7800 7977 7976
4 7800 7801 7978 7977
4 7801 7802 7979 7978
4 7802 7803 7980 7979
4 7803 7804 7981 7980
4 7804 7805 7982 7981
4 7805 7806 7983 7982
4 7806 7807 7984 7983
4 7807 7808 7985 7984
4 7808 7809 7986 7985
4 7809 7810 7987 7986
4 7810 7811 7988 7987
4 7811 7812 7989 7988
4 7812 7813 7990 7989
4 7813 7814 7991 7990
4 7814 7815 7992 7991
4 7815 7816 7993 7992
4 7816 7817 7994 7993
4 7817 7818 7995 7994
4 7818 7819 7996 7995
4 7819 7820 7997 7996
4 7820 7821 7998 7997
4 7821 7822 7999 7998
4 7822 7823 8000 7999
4 7823 7824 8001 8000
4 7824 7825 8002 8001
4 7825 7826 8003 8002
4 7826 7827 8004 8003
4 7827 7828 8005 8004
4 7828 7829 8006 8005
4 7829 7831 8007 8006
4 7830 7919 8008 7831
4 7831 8008 8009 8007
4 7832 8010 8011 7833
4 7833 8011 8012 7834
4 7834 8012 8013 7835
4 7835 8013 8014 7836
4 7836 8014 8015 7837
4 7837 8015 8016 7838
4 7838 8016 8017 7839
4 7839 8017 8018 7840
4 7840 8018 8019 7841
4 7841 8019 8020 7842
4 7842 8020 8021 7843
4 7843 8021 8022 7844
4 7844 8022 8023 7845
4 7845 8023 8024 7846
4 7846 8024 8025 7847
4 7847 8025 8026 7848
4 7848 8026 8027 7849
4 7849 8027 8028 7850
4 7850 8028 8029 7851
4 7851 8029 8030 7852
4 7852 8030 8031 7853
4 7853 8031 8032 7854
4 7854 8032 8033 7855
4 7855 8033 8034 7856
4 7856 8034 8035 7857
4 7857 8035 8036 7858
4 7858 8036 8037 7859
4 7859 8037 8038 7860
4 7860 8038 8039 7861
4 7861 8039 8040 7862
4 7862 8040 8041 7863
4 7863 8041 8042 7864
4 7864 8042 8043 7865
4 7865 8043 8044 7866
4 7866 8044 8045 7867
4 7867 8045 8046 7868
4 7868 8046 8047 7869
4 7869 8047 8048 7870
4 7870 8048 8049 7871
4 7871 8049 8050 7872
4 7872 8050 8051 7873
4 7873 8051 8052 7874
4 7874 8052 8053 7875
4 7875 8053 8054 7876
4 7876 8054 8055 7877
4 7877 8055 8056 7878
4 7878 8056 8057 7879
4 7879 8057 8058 7880
4 7880 8058 8059 7881
4 7881 8059 8060 7882
4 7882 8060 8061 7883
4 7883 8061 8062 7884
4 7884 8062 8063 7885
4 7885 8063 8064 7886
4 7886 8064 8065 7887
4 7887 8065 8066 7888
4 7888 8066 8067 7889
4 7889 8067 8068 7890
4 7890 8068 8069 7891
4 7891 8069 8070 7892
4 7892 8070 8071 7893
4 7893 8071 8072 7894
4 7894 8072 8073 7895
4 7895 8073 8074 7896
4 7896 8074 8075 7897
4 7897 8075 8076 7898
4 7898 8076 8077 7899
4 7899 8077 8078 7900
4 7900 8078 8079 7901
4 7901 8079 8080 7902
4 7902 8080 8081 7903
4 7903 8081 8082 7904
4 7904 8082 8083 7905
4 7905 8083 8084 7906
4 7906 8084 8085 7907
4 7907 8085 8086 7908
4 7908 8086 8087 7909
4 7909 8087 8088 7910
4 7910 8088 8089 7911
4 7911 8089 8090 7912
4 7912 8090 8091 7913
4 7913 8091 8092 7914
4 7914 8092 8093 7915
4 7915 8093 8094 7916
4 7916 8094 8095 7917
4 7917 8095 8096 7918
4 7918 8096 8097 7919
4 7919 8097 8098 8008
4 7921 7920 8099 8100
4 7920 7922 8101 8099
4 7922 7923 8102 8101
4 7923 7924 8103 8102
4 7924 7925 8104 8103
4 7925 7926 8105 8104
4 7926 7927 8106 8105
4 7927 7928 8107 8106
4 7928 7929 8108 8107
4 7929 7930 8109 8108
4 7930 7931 8110 8109
4 7931 7932 8111 8110
4 7932 7933 8112 8111
4 7933 7934 8113 8112
4 7934 7935 8114 8113
4 7935 7936 8115 8114
4 7936 7937 8116 8115
4 7937 7938 8117 8116
4 7938 7939 8118 8117
4 7939 7940 8119 8118
4 7940 7941 8120 8119
4 7941 7942 8121 8120
4 7942 7943 8122 8121
4 7943 7944 8123 8122
4 7944 7945 8124 8123
4 7945 7946 8125 8124
4 7946 7947 8126 8125
4 7947 7948 8127 8126
4 7948 7949 8128 8127
4 7949 7950 8129 8128
4 7950 7951 8130 8129
4 7951 7952 8131 8130
4 7952 7953 8132 8131
4 7953 7954 8133 8132
4 7954 7955 8134 8133
4 7955 7956 8135 8134
4 7956 7957 8136 8135
4 7957 7958 8137 8136
4 7958 7959 8138 8137
4 7959 7960 8139 8138
4 7960 7961 8140 8139
4 7961 7962 8141 8140
4 7962 7963 8142 8141
4 7963 7964 8143 8142
4 7964 7965 8144 8143
4 7965 7966 8145 8144
4 7966 7967 8146 8145
4 7967 7968 8147 8146
4 7968 7969 8148 8147
4 7969 7970 8149 8148
4 7970 7971 8150 8149
4 7971 7972 8151 8150
4 7972 7973 8152 8151
4 7973 7974 8153 8152
4 7974 7975 8154 8153
4 7975 7976 8155 8154
4 7976 7977 8156 8155
4 7977 7978 8157 8156
4 7978 7979 8158 8157
4 7979 7980 8159 8158
4 7980 7981 8160 8159
4 7981 7982 8161 8160
4 7982 7983 8162 8161
4 7983 7984 8163 8162
4 7984 7985 8164 8163
4 7985 7986 8165 8164
4 7986 7987 8166 8165
4 7987 7988 8167 8166
4 7988 7989 8168 8167
4 7989 7990 8169 8168
4 7990 7991 8170 8169
4 7991 7992 8171 8170
4 7992 7993 8172 8171
4 7993 7994 8173 8172
4 7994 7995 8174 8173
4 7995 7996 8175 8174
4 7996 7997 8176 8175
4 7997 7998 8177 8176
4 7998 7999 8178 8177
4 7999 8000 8179 8178
4 8000 8001 8180 8179
4 8001 8002 8181 8180
4 8002 8003 8182 8181
4 8003 8004 8183 8182
4 8004 8005 8184 8183
4 8005 8006 8185 8184
4 8006 8007 8186 8185
4 8007 8009 8187 8186
4 8008 8098 8188 8009
4 8009 8188 8189 8187
4 8010 8190 8191 8011
4 8011 8191 8192 8012
4 8012 8192 8193 8013
4 8013 8193 8194 8014
4 8014 8194 8195 8015
4 8015 8195 8196 8016
4 8016 8196 8197 8017
4 8017 8197 8198 8018
4 8018 8198 8199 8019
4 8019 8199 8200 8020
4 8020 8200 8201 8021
4 8021 8201 8202 8022
4 8022 8202 8203 8023
4 8023 8203 8204 8024
4 8024 8204 8205 8025
4 8025 8205 8206 8026
4 8026 8206 8207 8027
4 8027 8207 8208 8028
4 8028 8208 8209 8029
4 8029 8209 8210 8030
4 8030 8210 8211 8031
4 8031 8211 8212 8032
4 8032 8212 8213 8033
4 8033 8213 8214 8034
4 8034 8214 8215 8035
4 8035 8215 8216 8036
4 8036 8216 8217 8037
4 8037 8217 8218 8038
4 8038 8218 8219 8039
4 8039 8219 8220 8040
4 8040 8220 8221 8041
4 8041 8221 8222 8042
4 8042 8222 8223 8043
4 8043 8223 8224 8044
4 8044 8224 8225 8045
4 8045 8225 8226 8046
4 8046 8226 8227 8047
4 8047 8227 8228 8048
4 8048 8228 8229 8049
4 8049 8229 8230 8050
4 8050 8230 8231 8051
4 8051 8231 8232 8052
4 8052 8232 8233 8053
4 8053 8233 8234 8054
4 8054 8234 8235 8055
4 8055 8235 8236 8056
4 8056 8236 8237 8057
4 8057 8237 8238 8058
4 8058 8238 8239 8059
4 8059 8239 8240 8060
4 8060 8240 8241 8061
4 8061 8241 8242 8062
4 8062 8242 8243 8063
4 8063 8243 8244 8064
4 8064 8244 8245 8065
4 8065 8245 8246 8066
4 8066 8246 8247 8067
4 8067 8247 8248 8068
4 8068 8248 8249 8069
4 8069 8249 8250 8070
4 8070 8250 8251 8071
4 8071 8251 8252 8072
4 8072 8252 8253 8073
4 8073 8253 8254 8074
4 8074 8254 8255 8075
4 8075 8255 8256 8076
4 8076 8256 8257 8077
4 8077 8257 8258 8078
4 8078 8258 8259 8079
4 8079 8259 8260 8080
4 8080 8260 8261 8081
4 8081 8261 8262 8082
4 8082 8262 8263 8083
4 8083 8263 8264 8084
4 8084 8264 8265 8085
4 8085 8265 8266 8086
4 8086 8266 8267 8087
4 8087 8267 8268 8088
4 8088 8268 8269 8089
4 8089 8269 8270 8090
4 8090 8270 8271 8091
4 8091 8271 8272 8092
4 8092 8272 8273 8093
4 8093 8273 8274 8094
4 8094 8274 8275 8095
4 8095 8275 8276 8096
4 8096 8276 8277 8097
4 8097 8277 8278 8098
4 8098 8278 8279 8188
4 8100 8099 8280 8281
4 8099 8101 8282 8280
4 8101 8102 8283 8282
4 8102 8103 8284 8283
4 8103 8104 8285 8284
4 8104 8105 8286 8285
4 8105 8106 8287 8286
4 8106 8107 8288 8287
4 8107 8108 8289 8288
4 8108 8109 8290 8289
4 8109 8110 8291 8290
4 8110 8111 8292 8291
4 8111 8112 8293 8292
4 8112 8113 8294 8293
4 8113 8114 8295 8294
4 8114 8115 8296 8295
4 8115 8116 8297 8296
4 8116 8117 8298 8297
4 8117 8118 8299 8298
4 8118 8119 8300 8299
4 8119 8120 8301 8300
4 8120 8121 8302 8301
4 8121 8122 8303 8302
4 8122 8123 8304 8303
4 8123 8124 8305 8304
4 8124 8125 8306 8305
4 8125 8126 8307 8306
4 8126 8127 8308 8307
4 8127 8128 8309 8308
4 8128 8129 8310 8309
4 8129 8130 8311 8310
4 8130 8131 8312 8311
4 8131 8132 8313 8312
4 8132 8133 8314 8313
4 8133 8134 8315 8314
4 8134 8135 8316 8315
4 8135 8136 8317 8316
4 8136 8137 8318 8317
4 8137 8138 8319 8318
4 8138 8139 8320 8319
4 8139 8140 8321 8320
4 8140 8141 8322 8321
4 8141 8142 8323 8322
4 8142 8143 8324 8323
4 8143 8144 8325 8324
4 8144 8145 8326 8325
4 8145 8146 8327 8326
4 8146 8147 8328 8327
4 8147 8148 8329 8328
4 8148 8149 8330 8329
4 8149 8150 8331 8330
4 8150 8151 8332 8331
4 8151 8152 8333 8332
4 8152 8153 8334 8333
4 8153 8154 8335 8334
4 8154 8155 8336 8335
4 8155 8156 8337 8336
4 8156 8157 8338 8337
4 8157 8158 8339 8338
4 8158 8159 8340 8339
4 8159 8160 8341 8340
4 8160 8161 8342 8341
4 8161 8162 8343 8342
4 8162 8163 8344 8343
4 8163 8164 8345 8344
4 8164 8165 8346 8345
4 8165 8166 8347 8346
4 8166 8167 8348 8347
4 8167 8168 8349 8348
4 8168 8169 8350 8349
4 8169 8170 8351 8350
4 8170 8171 8352 8351
4 8171 8172 8353 8352
4 8172 8173 8354 8353
4 8173 8174 8355 8354
4 8174 8175 8356 8355
4 8175 8176 8357 8356
4 8176 8177 8358 8357
4 8177 8178 8359 8358
4 8178 8179 8360 8359
4 8179 8180 8361 8360
4 8180 8181 8362 8361
4 8181 8182 8363 8362
4 8182 8183 8364 8363
4 8183 8184 8365 8364
4 8184 8185 8366 8365
4 8185 8186 8367 8366
4 8186 8187 8368 8367
4 8187 8189 8369 8368
4 8188 8279 8370 8189
4 8189 8370 8371 8369
4 8190 8372 8373 8191
4 8191 8373 8374 8192
4 8192 8374 8375 8193
4 8193 8375 8376 8194
4 8194 8376 8377 8195
4 8195 8377 8378 8196
4 8196 8378 8379 8197
4 8197 8379 8380 8198
4 8198 8380 8381 8199
4 8199 8381 8382 8200
4 8200 8382 8383 8201
4 8201 8383 8384 8202
4 8202 8384 8385 8203
4 8203 8385 8386 8204
4 8204 8386 8387 8205
4 8205 8387 8388 8206
4 8206 8388 8389 8207
4 8207 8389 8390 8208
4 8208 8390 8391 8209
4 8209 8391 8392 8210
4 8210 8392 8393 8211
4 8211 8393 8394 8212
4 8212 8394 8395 8213
4 8213 8395 8396 8214
4 8214 8396 8397 8215
4 8215 8397 8398 8216
4 8216 8398 8399 8217
4 8217 8399 8400 8218
4 8218 8400 8401 8219
4 8219 8401 8402 8220
4 8220 8402 8403 8221
4 8221 8403 8404 8222
4 8222 8404 8405 8223
4 8223 8405 8406 8224
4 8224 8406 8407 8225
4 8225 8407 8408 8226
4 8226 8408 8409 8227
4 8227 8409 8410 8228
4 8228 8410 8411 8229
4 8229 8411 8412 8230
4 8230 8412 8413 8231
4 8231 8413 8414 8232
4 8232 8414 8415 8233
4 8233 8415 8416 8234
4 8234 8416 8417 8235
4 8235 8417 8418 8236
4 8236 8418 8419 8237
4 8237 8419 8420 8238
4 8238 8420 8421 8239
4 8239 8421 8422 8240
4 8240 8422 8423 8241
4 8241 8423 8424 8242
4 8242 8424 8425 8243
4 8243 8425 8426 8244
4 8244 8426 8427 8245
4 8245 8427 8428 8246
4 8246 8428 8429 8247
4 8247 8429 8430 8248
4 8248 8430 8431 8249
4 8249 8431 8432 8250
4 8250 8432 8433 8251
4 8251 8433 8434 8252
4 8252 8434 8435 8253
4 8253 8435 8436 8254
4 8254 8436 8437 8255
4 8255 8437 8438 8256
4 8256 8438 8439 8257
4 8257 8439 8440 8258
4 8258 8440 8441 8259
4 8259 8441 8442 8260
4 8260 8442 8443 8261
4 8261 8443 8444 8262
4 8262 8444 8445 8263
4 8263 8445 8446 8264
4 8264 8446 8447 8265
4 8265 8447 8448 8266
4 8266 8448 8449 8267
4 8267 8449 8450 8268
4 8268 8450 8451 8269
4 8269 8451 8452 8270
4 8270 8452 8453 8271
4 8271 8453 8454 8272
4 8272 8454 8455 8273
4 8273 8455 8456 8274
4 8274 8456 8457 8275
4 8275 8457 8458 8276
4 8276 8458 8459 8277
4 8277 8459 8460 8278
4 8278 8460 8461 8279
4 8279 8461 8462 8370
4 8281 8280 8463 8464
4 8280 8282 8465 8463
4 8282 8283 8466 8465
4 8283 8284 8467 8466
4 8284 8285 8468 8467
4 8285 8286 8469 8468
4 8286 8287 8470 8469
4 8287 8288 8471 8470
4 8288 8289 8472 8471
4 8289 8290 8473 8472
4 8290 8291 8474 8473
4 8291 8292 8475 8474
4 8292 8293 8476 8475
4 8293 8294 8477 8476
4 8294 8295 8478 8477
4 8295 8296 8479 8478
4 8296 8297 8480 8479
4 8297 8298 8481 8480
4 8298 8299 8482 8481
4 8299 8300 8483 8482
4 8300 8301 8484 8483
4 8301 8302 8485 8484
4 8302 8303 8486 8485
4 8303 8304 8487 8486
4 8304 8305 8488 8487
4 8305 8306 8489 8488
4 8306 8307 8490 8489
4 8307 8308 8491 8490
4 8308 8309 8492 8491
4 8309 8310 8493 8492
4 8310 8311 8494 8493
4 8311 8312 8495 8494
4 8312 8313 8496 8495
4 8313 8314 8497 8496
4 8314 8315 8498 8497
4 8315 8316 8499 8498
4 8316 8317 8500 8499
4 8317 8318 8501 8500
4 8318 8319 8502 8501
4 8319 8320 8503 8502
4 8320 8321 8504 8503
4 8321 8322 8505 8504
4 8322 8323 8506 8505
4 8323 8324 8507 8506
4 8324 8325 8508 8507
4 8325 8326 8509 8508
4 8326 8327 8510 8509
4 8327 8328 8511 8510
4 8328 8329 8512 8511
4 8329 8330 8513 8512
4 8330 8331 8514 8513
4 8331 8332 8515 8514
4 8332 8333 8516 8515
4 8333 8334 8517 8516
4 8334 8335 8518 8517
4 8335 8336 8519 8518
4 8336 8337 8520 8519
4 8337 8338 8521 8520
4 8338 8339 8522 8521
4 8339 8340 8523 8522
4 8340 8341 8524 8523
4 8341 8342 8525 8524
4 8342 8343 8526 8525
4 8343 8344 8527 8526
4 8344 8345 8528 8527
4 8345 8346 8529 8528
4 8346 8347 8530 8529
4 8347 8348 8531 8530
4 8348 8349 8532 8531
4 8349 8350 8533 8532
4 8350 8351 8534 8533
4 8351 8352 8535 8534
4 8352 8353 8536 8535
4 8353 8354 8537 8536
4 8354 8355 8538 8537
4 8355 8356 8539 8538
4 8356 8357 8540 8539
4 8357 8358 8541 8540
4 8358 8359 8542 8541
4 8359 8360 8543 8542
4 8360 8361 8544 8543
4 8361 8362 8545 8544
4 8362 8363 8546 8545
4 8363 8364 8547 8546
4 8364 8365 8548 8547
4 8365 8366 8549 8548
4 8366 8367 8550 8549
4 8367 8368 8551 8550
4 8368 8369 8552 8551
4 8369 8371 8553 8552
4 8370 8462 8554 8371
4 8371 8554 8555 8553
4 8372 8556 8557 8373
4 8373 8557 8558 8374
4 8374 8558 8559 8375
4 8375 8559 8560 8376
4 8376 8560 8561 8377
4 8377 8561 8562 8378
4 8378 8562 8563 8379
4 8379 8563 8564 8380
4 8380 8564 8565 8381
4 8381 8565 8566 8382
4 8382 8566 8567 8383
4 8383 8567 8568 8384
4 8384 8568 8569 8385
4 8385 8569 8570 8386
4 8386 8570 8571 8387
4 8387 8571 8572 8388
4 8388 8572 8573 8389
4 8389 8573 8574 8390
4 8390 8574 8575 8391
4 8391 8575 8576 8392
4 8392 8576 8577 8393
4 8393 8577 8578 8394
4 8394 8578 8579 8395
4 8395 8579 8580 8396
4 8396 8580 8581 8397
4 8397 8581 8582 8398
4 8398 8582 8583 8399
4 8399 8583 8584 8400
4 8400 8584 8585 8401
4 8401 8585 8586 8402
4 8402 8586 8587 8403
4 8403 8587 8588 8404
4 8404 8588 8589 8405
4 8405 8589 8590 8406
4 8406 8590 8591 8407
4 8407 8591 8592 8408
4 8408 8592 8593 8409
4 8409 8593 8594 8410
4 8410 8594 8595 8411
4 8411 8595 8596 8412
4 8412 8596 8597 8413
4 8413 8597 8598 8414
4 8414 8598 8599 8415
4 8415 8599 8600 8416
4 8416 8600 8601 8417
4 8417 8601 8602 8418
4 8418 8602 8603 8419
4 8419 8603 8604 8420
4 8420 8604 8605 8421
4 8421 8605 8606 8422
4 8422 8606 8607 8423
4 8423 8607 8608 8424
4 8424 8608 8609 8425
4 8425 8609 8610 8426
4 8426 8610 8611 8427
4 8427 8611 8612 8428
4 8428 8612 8613 8429
4 8429 8613 8614 8430
4 8430 8614 8615 8431
4 8431 8615 8616 8432
4 8432 8616 8617 8433
4 8433 8617 8618 8434
4 8434 8618 8619 8435
4 8435 8619 8620 8436
4 8436 8620 8621 8437
4 8437 8621 8622 8438
4 8438 8622 8623 8439
4 8439 8623 8624 8440
4 8440 8624 8625 8441
4 8441 8625 8626 8442
4 8442 8626 8627 8443
4 8443 8627 8628 8444
4 8444 8628 8629 8445
4 8445 8629 8630 8446
4 8446 8630 8631 8447
4 8447 8631 8632 8448
4 8448 8632 8633 8449
4 8449 8633 8634 8450
4 8450 8634 8635 8451
4 8451 8635 8636 8452
4 8452 8636 8637 8453
4 8453 8637 8638 8454
4 8454 8638 8639 8455
4 8455 8639 8640 8456
4 8456 8640 8641 8457
4 8457 8641 8642 8458
4 8458 8642 8643 8459
4 8459 8643 8644 8460
4 8460 8644 8645 8461
4 8461 8645 8646 8462
4 8462 8646 8647 8554
4 8464 8463 8648 8649
4 8463 8465 8650 8648
4 8465 8466 8651 8650
4 8466 8467 8652 8651
4 8467 8468 8653 8652
4 8468 8469 8654 8653
4 8469 8470 8655 8654
4 8470 8471 8656 8655
4 8471 8472 8657 8656
4 8472 8473 8658 8657
4 8473 8474 8659 8658
4 8474 8475 8660 8659
4 8475 8476 8661 8660
4 8476 8477 8662 8661
4 8477 8478 8663 8662
4 8478 8479 8664 8663
4 8479 8480 8665 8664
4 8480 8481 8666 8665
4 8481 8482 8667 8666
4 8482 8483 8668 8667
4 8483 8484 8669 8668
4 8484 8485 8670 8669
4 8485 8486 8671 8670
4 8486 8487 8672 8671
4 8487 8488 8673 8672
4 8488 8489 8674 8673
4 8489 8490 8675 8674
4 8490 8491 8676 8675
4 8491 8492 8677 8676
4 8492 8493 8678 8677
4 8493 8494 8679 8678
4 8494 8495 8680 8679
4 8495 8496 8681 8680
4 8496 8497 8682 8681
4 8497 8498 8683 8682
4 8498 8499 8684 8683
4 8499 8500 8685 8684
4 8500 8501 8686 8685
4 8501 8502 8687 8686
4 8502 8503 8688 8687
4 8503 8504 8689 8688
4 8504 8505 8690 8689
4 8505 8506 8691 8690
4 8506 8507 8692 8691
4 8507 8508 8693 8692
4 8508 8509 8694 8693
4 8509 8510 8695 8694
4 8510 8511 8696 8695
4 8511 8512 8697 8696
4 8512 8513 8698 8697
4 8513 8514 8699 8698
4 8514 8515 8700 8699
4 8515 8516 8701 8700
4 8516 8517 8702 8701
4 8517 8518 8703 8702
4 8518 8519 8704 8703
4 8519 8520 8705 8704
4 8520 8521 8706 8705
4 8521 8522 8707 8706
4 8522 8523 8708 8707
4 8523 8524 8709 8708
4 8524 8525 8710 8709
4 8525 8526 8711 8710
4 8526 8527 8712 8711
4 8527 8528 8713 8712
4 8528 8529 8714 8713
4 8529 8530 8715 8714
4 8530 8531 8716 8715
4 8531 8532 8717 8716
4 8532 8533 8718 8717
4 8533 8534 8719 8718
4 8534 8535 8720 8719
4 8535 8536 8721 8720
4 8536 8537 8722 8721
4 8537 8538 8723 8722
4 8538 8539 8724 8723
4 8539 8540 8725 8724
4 8540 8541 8726 8725
4 8541 8542 8727 8726
4 8542 8543 8728 8727
4 8543 8544 8729 8728
4 8544 8545 8730 8729
4 8545 8546 8731 8730
4 8546 8547 8732 8731
4 8547 8548 8733 8732
4 8548 8549 8734 8733
4 8549 8550 8735 8734
4 8550 8551 8736 8735
4 8551 8552 8737 8736
4 8552 8553 8738 8737
4 8553 8555 8739 8738
4 8554 8647 8740 8555
4 8555 8740 8741 8739
4 8556 8742 8743 8557
4 8557 8743 8744 8558
4 8558 8744 8745 8559
4 8559 8745 8746 8560
4 8560 8746 8747 8561
4 8561 8747 8748 8562
4 8562 8748 8749 8563
4 8563 8749 8750 8564
4 8564 8750 8751 8565
4 8565 8751 8752 8566
4 8566 8752 8753 8567
4 8567 8753 8754 8568
4 8568 8754 8755 8569
4 8569 8755 8756 8570
4 8570 8756 8757 8571
4 8571 8757 8758 8572
4 8572 8758 8759 8573
4 8573 8759 8760 8574
4 8574 8760 8761 8575
4 8575 8761 8762 8576
4 8576 8762 8763 8577
4 8577 8763 8764 8578
4 8578 8764 8765 8579
4 8579 8765 8766 8580
4 8580 8766 8767 8581
4 8581 8767 8768 8582
4 8582 8768 8769 8583
4 8583 8769 8770 8584
4 8584 8770 8771 8585
4 8585 8771 8772 8586
4 8586 8772 8773 8587
4 8587 8773 8774 8588
4 8588 8774 8775 8589
4 8589 8775 8776 8590
4 8590 8776 8777 8591
4 8591 8777 8778 8592
4 8592 8778 8779 8593
4 8593 8779 8780 8594
4 8594 8780 8781 8595
4 8595 8781 8782 8596
4 8596 8782 8783 8597
4 8597 8783 8784 8598
4 8598 8784 8785 8599
4 8599 8785 8786 8600
4 8600 8786 8787 8601
4 8601 8787 8788 8602
4 8602 8788 8789 8603
4 8603 8789 8790 8604
4 8604 8790 8791 8605
4 8605 8791 8792 8606
4 8606 8792 8793 8607
4 8607 8793 8794 8608
4 8608 8794 8795 8609
4 8609 8795 8796 8610
4 8610 8796 8797 8611
4 8611 8797 8798 8612
4 8612 8798 8799 8613
4 8613 8799 8800 8614
4 8614 8800 8801 8615
4 8615 8801 8802 8616
4 8616 8802 8803 8617
4 8617 8803 8804 8618
4 8618 8804 8805 8619
4 8619 8805 8806 8620
4 8620 8806 8807 8621
4 8621 8807 8808 8622
4 8622 8808 8809 8623
4 8623 8809 8810 8624
4 8624 8810 8811 8625
4 8625 8811 8812 8626
4 8626 8812 8813 8627
4 8627 8813 8814 8628
4 8628 8814 8815 8629
4 8629 8815 8816 8630
4 8630 8816 8817 8631
4 8631 8817 8818 8632
4 8632 8818 8819 8633
4 8633 8819 8820 8634
4 8634 8820 8821 8635
4 8635 8821 8822 8636
4 8636 8822 8823 8637
4 8637 8823 8824 8638
4 8638 8824 8825 8639
4 8639 8825 8826 8640
4 8640 8826 8827 8641
4 8641 8827 8828 8642
4 8642 8828 8829 8643
4 8643 8829 8830 8644
4 8644 8830 8831 8645
4 8645 8831 8832 8646
4 8646 8832 8833 8647
4 8647 8833 8834 8740
4 8649 8648 8835 8836
4 8648 8650 8837 8835
4 8650 8651 8838 8837
4 8651 8652 8839 8838
4 8652 8653 8840 8839
4 8653 8654 8841 8840
4 8654 8655 8842 8841
4 8655 8656 8843 8842
4 8656 8657 8844 8843
4 8657 8658 8845 8844
4 8658 8659 8846 8845
4 8659 8660 8847 8846
4 8660 8661 8848 8847
4 8661 8662 8849 8848
4 8662 8663 8850 8849
4 8663 8664 8851 8850
4 8664 8665 8852 8851
4 8665 8666 8853 8852
4 8666 8667 8854 8853
4 8667 8668 8855 8854
4 8668 8669 8856 8855
4 8669 8670 8857 8856
4 8670 8671 8858 8857
4 8671 8672 8859 8858
4 8672 8673 8860 8859
4 8673 8674 8861 8860
4 8674 8675 8862 8861
4 8675 8676 8863 8862
4 8676 8677 8864 8863
4 8677 8678 8865 8864
4 8678 8679 8866 8865
4 8679 8680 8867 8866
4 8680 8681 8868 8867
4 8681 8682 8869 8868
4 8682 8683 8870 8869
4 8683 8684 8871 8870
4 8684 8685 8872 8871
4 8685 8686 8873 8872
4 8686 8687 8874 8873
4 8687 8688 8875 8874
4 8688 8689 8876 8875
4 8689 8690 8877 8876
4 8690 8691 8878 8877
4 8691 8692 8879 8878
4 8692 8693 8880 8879
4 8693 8694 8881 8880
4 8694 8695 8882 8881
4 8695 8696 8883 8882
4 8696 8697 8884 8883
4 8697 8698 8885 8884
4 8698 8699 8886 8885
4 8699 8700 8887 8886
4 8700 8701 8888 8887
4 8701 8702 8889 8888
4 8702 8703 8890 8889
4 8703 8704 8891 8890
4 8704 8705 8892 8891
4 8705 8706 8893 8892
4 8706 8707 8894 8893
4 8707 8708 8895 8894
4 8708 8709 8896 8895
4 8709 8710 8897 8896
4 8710 8711 8898 8897
4 8711 8712 8899 8898
4 8712 8713 8900 8899
4 8713 8714 8901 8900
4 8714 8715 8902 8901
4 8715 8716 8903 8902
4 8716 8717 8904 8903
4 8717 8718 8905 8904
4 8718 8719 8906 8905
4 8719 8720 8907 8906
4 8720 8721 8908 8907
4 8721 8722 8909 8908
4 8722 8723 8910 8909
4 8723 8724 8911 8910
4 8724 8725 8912 8911
4 8725 8726 8913 8912
4 8726 8727 8914 8913
4 8727 8728 8915 8914
4 8728 8729 8916 8915
4 8729 8730 8917 8916
4 8730 8731 8918 8917
4 8731 8732 8919 8918
4 8732 8733 8920 8919
4 8733 8734 8921 8920
4 8734 8735 8922 8921
4 8735 8736 8923 8922
4 8736 8737 8924 8923
4 8737 8738 8925 8924
4 8738 8739 8926 8925
4 8739 8741 8927 8926
4 8740 8834 8928 8741
4 8741 8928 8929 8927
4 8742 8930 8931 8743
4 8743 8931 8932 8744
4 8744 8932 8933 8745
4 8745 8933 8934 8746
4 8746 8934 8935 8747
4 8747 8935 8936 8748
4 8748 8936 8937 8749
4 8749 8937 8938 8750
4 8750 8938 8939 8751
4 8751 8939 8940 8752
4 8752 8940 8941 8753
4 8753 8941 8942 8754
4 8754 8942 8943 8755
4 8755 8943 8944 8756
4 8756 8944 8945 8757
4 8757 8945 8946 8758
4 8758 8946 8947 8759
4 8759 8947 8948 8760
4 8760 8948 8949 8761
4 8761 8949 8950 8762
4 8762 8950 8951 8763
4 8763 8951 8952 8764
4 8764 8952 8953 8765
4 8765 8953 8954 8766
4 8766 8954 8955 8767
4 8767 8955 8956 8768
4 8768 8956 8957 8769
4 8769 8957 8958 8770
4 8770 8958 8959 8771
4 8771 8959 8960 8772
4 8772 8960 8961 8773
4 8773 8961 8962 8774
4 8774 8962 8963 8775
4 8775 8963 8964 8776
4 8776 8964 8965 8777
4 8777 8965 8966 8778
4 8778 8966 8967 8779
4 8779 8967 8968 8780
4 8780 8968 8969 8781
4 8781 8969 8970 8782
4 8782 8970 8971 8783
4 8783 8971 8972 8784
4 8784 8972 8973 8785
4 8785 8973 8974 8786
4 8786 8974 8975 8787
4 8787 8975 8976 8788
4 8788 8976 8977 8789
4 8789 8977 8978 8790
4 8790 8978 8979 8791
4 8791 8979 8980 8792
4 8792 8980 8981 8793
4 8793 8981 8982 8794
4 8794 8982 8983 8795
4 8795 8983 8984 8796
4 8796 8984 8985 8797
4 8797 8985 8986 8798
4 8798 8986 8987 8799
4 8799 8987 8988 8800
4 8800 8988 8989 8801
4 8801 8989 8990 8802
4 8802 8990 8991 8803
4 8803 8991 8992 8804
4 8804 8992 8993 8805
4 8805 8993 8994 8806
4 8806 8994 8995 8807
4 8807 8995 8996 8808
4 8808 8996 8997 8809
4 8809 8997 8998 8810
4 8810 8998 8999 8811
4 8811 8999 9000 8812
4 8812 9000 9001 8813
4 8813 9001 9002 8814
4 8814 9002 9003 8815
4 8815 9003 9004 8816
4 8816 9004 9005 8817
4 8817 9005 9006 8818
4 8818 9006 9007 8819
4 8819 9007 9008 8820
4 8820 9008 9009 8821
4 8821 9009 9010 8822
4 8822 9010 9011 8823
4 8823 9011 9012 8824
4 8824 9012 9013 8825
4 8825 9013 9014 8826
4 8826 9014 9015 8827
4 8827 9015 9016 8828
4 8828 9016 9017 8829
4 8829 9017 9018 8830
4 8830 9018 9019 8831
4 8831 9019 9020 8832
4 8832 9020 9021 8833
4 8833 9021 9022 8834
4 8834 9022 9023 8928
4 8836 8835 9024 9025
4 8835 8837 9026 9024
4 8837 8838 9027 9026
4 8838 8839 9028 9027
4 8839 8840 9029 9028
4 8840 8841 9030 9029
4 8841 8842 9031 9030
4 8842 8843 9032 9031
4 8843 8844 9033 9032
4 8844 8845 9034 9033
4 8845 8846 9035 9034
4 8846 8847 9036 9035
4 8847 8848 9037 9036
4 8848 8849 9038 9037
4 8849 8850 9039 9038
4 8850 8851 9040 9039
4 8851 8852 9041 9040
4 8852 8853 9042 9041
4 8853 8854 9043 9042
4 8854 8855 9044 9043
4 8855 8856 9045 9044
4 8856 8857 9046 9045
4 8857 8858 9047 9046
4 8858 8859 9048 9047
4 8859 8860 9049 9048
4 8860 8861 9050 9049
4 8861 8862 9051 9050
4 8862 8863 9052 9051
4 8863 8864 9053 9052
4 8864 8865 9054 9053
4 8865 8866 9055 9054
4 8866 8867 9056 9055
4 8867 8868 9057 9056
4 8868 8869 9058 9057
4 8869 8870 9059 9058
4 8870 8871 9060 9059
4 8871 8872 9061 9060
4 8872 8873 9062 9061
4 8873 8874 9063 9062
4 8874 8875 9064 9063
4 8875 8876 9065 9064
4 8876 8877 9066 9065
4 8877 8878 9067 9066
4 8878 8879 9068 9067
4 8879 8880 9069 9068
4 8880 8881 9070 9069
4 8881 8882 9071 9070
4 8882 8883 9072 9071
4 8883 8884 9073 9072
4 8884 8885 9074 9073
4 8885 8886 9075 9074
4 8886 8887 9076 9075
4 8887 8888 9077 9076
4 8888 8889 9078 9077
4 8889 8890 9079 9078
4 8890 8891 9080 9079
4 8891 8892 9081 9080
4 8892 8893 9082 9081
4 8893 8894 9083 9082
4 8894 8895 9084 9083
4 8895 8896 9085 9084
4 8896 8897 9086 9085
4 8897 8898 9087 9086
4 8898 8899 9088 9087
4 8899 8900 9089 9088
4 8900 8901 9090 9089
4 8901 8902 9091 9090
4 8902 8903 9092 9091
4 8903 8904 9093 9092
4 8904 8905 9094 9093
4 8905 8906 9095 9094
4 8906 8907 9096 9095
4 8907 8908 9097 9096
4 8908 8909 9098 9097
4 8909 8910 9099 9098
4 8910 8911 9100 9099
4 8911 8912 9101 9100
4 8912 8913 9102 9101
4 8913 8914 9103 9102
4 8914 8915 9104 9103
4 8915 8916 9105 9104
4 8916 8917 9106 9105
4 8917 8918 9107 9106
4 8918 8919 9108 9107
4 8919 8920 9109 9108
4 8920 8921 9110 9109
4 8921 8922 9111 9110
4 8922 8923 9112 9111
4 8923 8924 9113 9112
4 8924 8925 9114 9113
4 8925 8926 9115 9114
4 8926 8927 9116 9115
4 8927 8929 9117 9116
4 8928 9023 9118 8929
4 8929 9118 9119 9117
4 8930 9120 9121 8931
4 8931 9121 9122 8932
4 8932 9122 9123 8933
4 8933 9123 9124 8934
4 8934 9124 9125 8935
4 8935 9125 9126 8936
4 8936 9126 9127 8937
4 8937 9127 9128 8938
4 8938 9128 9129 8939
4 8939 9129 9130 8940
4 8940 9130 9131 8941
4 8941 9131 9132 8942
4 8942 9132 9133 8943
4 8943 9133 9134 8944
4 8944 9134 9135 8945
4 8945 9135 9136 8946
4 8946 9136 9137 8947
4 8947 9137 9138 8948
4 8948 9138 9139 8949
4 8949 9139 9140 8950
4 8950 9140 9141 8951
4 8951 9141 9142 8952
4 8952 9142 9143 8953
4 8953 9143 9144 8954
4 8954 9144 9145 8955
4 8955 9145 9146 8956
4 8956 9146 9147 8957
4 8957 9147 9148 8958
4 8958 9148 9149 8959
4 8959 9149 9150 8960
4 8960 9150 9151 8961
4 8961 9151 9152 8962
4 8962 9152 9153 8963
4 8963 9153 9154 8964
4 8964 9154 9155 8965
4 8965 9155 9156 8966
4 8966 9156 9157 8967
4 8967 9157 9158 8968
4 8968 9158 9159 8969
4 8969 9159 9160 8970
4 8970 9160 9161 8971
4 8971 9161 9162 8972
4 8972 9162 9163 8973
4 8973 9163 9164 8974
4 8974 9164 9165 8975
4 8975 9165 9166 8976
4 8976 9166 9167 8977
4 8977 9167 9168 8978
4 8978 9168 9169 8979
4 8979 9169 9170 8980
4 8980 9170 9171 8981
4 8981 9171 9172 8982
4 8982 9172 9173 8983
4 8983 9173 9174 8984
4 8984 9174 9175 8985
4 8985 9175 9176 8986
4 8986 9176 9177 8987
4 8987 9177 9178 8988
4 8988 9178 9179 8989
4 8989 9179 9180 8990
4 8990 9180 9181 8991
4 8991 9181 9182 8992
4 8992 9182 9183 8993
4 8993 9183 9184 8994
4 8994 9184 9185 8995
4 8995 9185 9186 8996
4 8996 9186 9187 8997
4 8997 9187 9188 8998
4 8998 9188 9189 8999
4 8999 9189 9190 9000
4 9000 9190 9191 9001
4 9001 9191 9192 9002
4 9002 9192 9193 9003
4 9003 9193 9194 9004
4 9004 9194 9195 9005
4 9005 9195 9196 9006
4 9006 9196 9197 9007
4 9007 9197 9198 9008
4 9008 9198 9199 9009
4 9009 9199 9200 9010
4 9010 9200 9201 9011
4 9011 9201 9202 9012
4 9012 9202 9203 9013
4 9013 9203 9204 9014
4 9014 9204 9205 9015
4 9015 9205 9206 9016
4 9016 9206 9207 9017
4 9017 9207 9208 9018
4 9018 9208 9209 9019
4 9019 9209 9210 9020
4 9020 9210 9211 9021
4 9021 9211 9212 9022
4 9022 9212 9213 9023
4 9023 9213 9214 9118
4 9025 9024 9215 9216
4 9024 9026 9217 9215
4 9026 9027 9218 9217
4 9027 9028 9219 9218
4 9028 9029 9220 9219
4 9029 9030 9221 9220
4 9030 9031 9222 9221
4 9031 9032 9223 9222
4 9032 9033 9224 9223
4 9033 9034 9225 9224
4 9034 9035 9226 9225
4 9035 9036 9227 9226
4 9036 9037 9228 9227
4 9037 9038 9229 9228
4 9038 9039 9230 9229
4 9039 9040 9231 9230
4 9040 9041 9232 9231
4 9041 9042 9233 9232
4 9042 9043 9234 9233
4 9043 9044 9235 9234
4 9044 9045 9236 9235
4 9045 9046 9237 9236
4 9046 9047 9238 9237
4 9047 9048 9239 9238
4 9048 9049 9240 9239
4 9049 9050 9241 9240
4 9050 9051 9242 9241
4 9051 9052 9243 9242
4 9052 9053 9244 9243
4 9053 9054 9245 9244
4 9054 9055 9246 9245
4 9055 9056 9247 9246
4 9056 9057 9248 9247
4 9057 9058 9249 9248
4 9058 9059 9250 9249
4 9059 9060 9251 9250
4 9060 9061 9252 9251
4 9061 9062 9253 9252
4 9062 9063 9254 9253
4 9063 9064 9255 9254
4 9064 9065 9256 9255
4 9065 9066 9257 9256
4 9066 9067 9258 9257
4 9067 9068 9259 9258
4 9068 9069 9260 9259
4 9069 9070 9261 9260
4 9070 9071 9262 9261
4 9071 9072 9263 9262
4 9072 9073 9264 9263
4 9073 9074 9265 9264
4 9074 9075 9266 9265
4 9075 9076 9267 9266
4 9076 9077 9268 9267
4 9077 9078 9269 9268
4 9078 9079 9270 9269
4 9079 9080 9271 9270
4 9080 9081 9272 9271
4 9081 9082 9273 9272
4 9082 9083 9274 9273
4 9083 9084 9275 9274
4 9084 9085 9276 9275
4 9085 9086 9277 9276
4 9086 9087 9278 9277
4 9087 9088 9279 9278
4 9088 9089 9280 9279
4 9089 9090 9281 9280
4 9090 9091 9282 9281
4 9091 9092 9283 9282
4 9092 9093 9284 9283
4 9093 9094 9285 9284
4 9094 9095 9286 9285
4 9095 9096 9287 9286
4 9096 9097 9288 9287
4 9097 9098 9289 9288
4 9098 9099 9290 9289
4 9099 9100 9291 9290
4 9100 9101 9292 9291
4 9101 9102 9293 9292
4 9102 9103 9294 9293
4 9103 9104 9295 9294
4 9104 9105 9296 9295
4 9105 9106 9297 9296
4 9106 9107 9298 9297
4 9107 9108 9299 9298
4 9108 9109 9300 9299
4 9109 9110 9301 9300
4 9110 9111 9302 9301
4 9111 9112 9303 9302
4 9112 9113 9304 9303
4 9113 9114 9305 9304
4 9114 9115 9306 9305
4 9115 9116 9307 9306
4 9116 9117 9308 9307
4 9117 9119 9309 9308
4 9118 9214 9310 9119
4 9119 9310 9311 9309
4 9120 9312 9313 9121
4 9121 9313 9314 9122
4 9122 9314 9315 9123
4 9123 9315 9316 9124
4 9124 9316 9317 9125
4 9125 9317 9318 9126
4 9126 9318 9319 9127
4 9127 9319 9320 9128
4 9128 9320 9321 9129
4 9129 9321 9322 9130
4 9130 9322 9323 9131
4 9131 9323 9324 9132
4 9132 9324 9325 9133
4 9133 9325 9326 9134
4 9134 9326 9327 9135
4 9135 9327 9328 9136
4 9136 9328 9329 9137
4 9137 9329 9330 9138
4 9138 9330 9331 9139
4 9139 9331 9332 9140
4 9140 9332 9333 9141
4 9141 9333 9334 9142
4 9142 9334 9335 9143
4 9143 9335 9336 9144
4 9144 9336 9337 9145
4 9145 9337 9338 9146
4 9146 9338 9339 9147
4 9147 9339 9340 9148
4 9148 9340 9341 9149
4 9149 9341 9342 9150
4 9150 9342 9343 9151
4 9151 9343 9344 9152
4 9152 9344 9345 9153
4 9153 9345 9346 9154
4 9154 9346 9347 9155
4 9155 9347 9348 9156
4 9156 9348 9349 9157
4 9157 9349 9350 9158
4 9158 9350 9351 9159
4 9159 9351 9352 9160
4 9160 9352 9353 9161
4 9161 9353 9354 9162
4 9162 9354 9355 9163
4 9163 9355 9356 9164
4 9164 9356 9357 9165
4 9165 9357 9358 9166
4 9166 9358 9359 9167
4 9167 9359 9360 9168
4 9168 9360 9361 9169
4 9169 9361 9362 9170
4 9170 9362 9363 9171
4 9171 9363 9364 9172
4 9172 9364 9365 9173
4 9173 9365 9366 9174
4 9174 9366 9367 9175
4 9175 9367 9368 9176
4 9176 9368 9369 9177
4 9177 9369 9370 9178
4 9178 9370 9371 9179
4 9179 9371 9372 9180
4 9180 9372 9373 9181
4 9181 9373 9374 9182
4 9182 9374 9375 9183
4 9183 9375 9376 9184
4 9184 9376 9377 9185
4 9185 9377 9378 9186
4 9186 9378 9379 9187
4 9187 9379 9380 9188
4 9188 9380 9381 9189
4 9189 9381 9382 9190
4 9190 9382 9383 9191
4 9191 9383 9384 9192
4 9192 9384 9385 9193
4 9193 9385 9386 9194
4 9194 9386 9387 9195
4 9195 9387 9388 9196
4 9196 9388 9389 9197
4 9197 9389 9390 9198
4 9198 9390 9391 9199
4 9199 9391 9392 9200
4 9200 9392 9393 9201
4 9201 9393 9394 9202
4 9202 9394 9395 9203
4 9203 9395 9396 9204
4 9204 9396 9397 9205
4 9205 9397 9398 9206
4 9206 9398 9399 9207
4 9207 9399 9400 9208
4 9208 9400 9401 9209
4 9209 9401 9402 9210
4 9210 9402 9403 9211
4 9211 9403 9404 9212
4 9212 9404 9405 9213
4 9213 9405 9406 9214
4 9214 9406 9407 9310
4 9216 9215 9408 9409
4 9215 9217 9410 9408
4 9217 9218 9411 9410
4 9218 9219 9412 9411
4 9219 9220 9413 9412
4 9220 9221 9414 9413
4 9221 9222 9415 9414
4 9222 9223 9416 9415
4 9223 9224 9417 9416
4 9224 9225 9418 9417
4 9225 9226 9419 9418
4 9226 9227 9420 9419
4 9227 9228 9421 9420
4 9228 9229 9422 9421
4 9229 9230 9423 9422
4 9230 9231 9424 9423
4 9231 9232 9425 9424
4 9232 9233 9426 9425
4 9233 9234 9427 9426
4 9234 9235 9428 9427
4 9235 9236 9429 9428
4 9236 9237 9430 9429
4 9237 9238 9431 9430
4 9238 9239 9432 9431
4 9239 9240 9433 9432
4 9240 9241 9434 9433
4 9241 9242 9435 9434
4 9242 9243 9436 9435
4 9243 9244 9437 9436
4 9244 9245 9438 9437
4 9245 9246 9439 9438
4 9246 9247 9440 9439
4 9247 9248 9441 9440
4 9248 9249 9442 9441
4 9249 9250 9443 9442
4 9250 9251 9444 9443
4 9251 9252 9445 9444
4 9252 9253 9446 9445
4 9253 9254 9447 9446
4 9254 9255 9448 9447
4 9255 9256 9449 9448
4 9256 9257 9450 9449
4 9257 9258 9451 9450
4 9258 9259 9452 9451
4 9259 9260 9453 9452
4 9260 9261 9454 9453
4 9261 9262 9455 9454
4 9262 9263 9456 9455
4 9263 9264 9457 9456
4 9264 9265 9458 9457
4 9265 9266 9459 9458
4 9266 9267 9460 9459
4 9267 9268 9461 9460
4 9268 9269 9462 9461
4 9269 9270 9463 9462
4 9270 9271 9464 9463
4 9271 9272 9465 9464
4 9272 9273 9466 9465
4 9273 9274 9467 9466
4 9274 9275 9468 9467
4 9275 9276 9469 9468
4 9276 9277 9470 9469
4 9277 9278 9471 9470
4 9278 9279 9472 9471
4 9279 9280 9473 9472
4 9280 9281 9474 9473
4 9281 9282 9475 9474
4 9282 9283 9476 9475
4 9283 9284 9477 9476
4 9284 9285 9478 9477
4 9285 9286 9479 9478
4 9286 9287 9480 9479
4 9287 9288 9481 9480
4 9288 9289 9482 9481
4 9289 9290 9483 9482
4 9290 9291 9484 9483
4 9291 9292 9485 9484
4 9292 9293 9486 9485
4 9293 9294 9487 9486
4 9294 9295 9488 9487
4 9295 9296 9489 9488
4 9296 9297 9490 9489
4 9297 9298 9491 9490
4 9298 9299 9492 9491
4 9299 9300 9493 9492
4 9300 9301 9494 9493
4 9301 9302 9495 9494
4 9302 9303 9496 9495
4 9303 9304 9497 9496
4 9304 9305 9498 9497
4 9305 9306 9499 9498
4 9306 9307 9500 9499
4 9307 9308 9501 9500
4 9308 9309 9502 9501
4 9309 9311 9503 9502
4 9310 9407 9504 9311
4 9311 9504 9505 9503
4 9312 9506 9507 9313
4 9313 9507 9508 9314
4 9314 9508 9509 9315
4 9315 9509 9510 9316
4 9316 9510 9511 9317
4 9317 9511 9512 9318
4 9318 9512 9513 9319
4 9319 9513 9514 9320
4 9320 9514 9515 9321
4 9321 9515 9516 9322
4 9322 9516 9517 9323
4 9323 9517 9518 9324
4 9324 9518 9519 9325
4 9325 9519 9520 9326
4 9326 9520 9521 9327
4 9327 9521 9522 9328
4 9328 9522 9523 9329
4 9329 9523 9524 9330
4 9330 9524 9525 9331
4 9331 9525 9526 9332
4 9332 9526 9527 9333
4 9333 9527 9528 9334
4 9334 9528 9529 9335
4 9335 9529 9530 9336
4 9336 9530 9531 9337
4 9337 9531 9532 9338
4 9338 9532 9533 9339
4 9339 9533 9534 9340
4 9340 9534 9535 9341
4 9341 9535 9536 9342
4 9342 9536 9537 9343
4 9343 9537 9538 9344
4 9344 9538 9539 9345
4 9345 9539 9540 9346
4 9346 9540 9541 9347
4 9347 9541 9542 9348
4 9348 9542 9543 9349
4 9349 9543 9544 9350
4 9350 9544 9545 9351
4 9351 9545 9546 9352
4 9352 9546 9547 9353
4 9353 9547 9548 9354
4 9354 9548 9549 9355
4 9355 9549 9550 9356
4 9356 9550 9551 9357
4 9357 9551 9552 9358
4 9358 9552 9553 9359
4 9359 9553 9554 9360
4 9360 9554 9555 9361
4 9361 9555 9556 9362
4 9362 9556 9557 9363
4 9363 9557 9558 9364
4 9364 9558 9559 9365
4 9365 9559 9560 9366
4 9366 9560 9561 9367
4 9367 9561 9562 9368
4 9368 9562 9563 9369
4 9369 9563 9564 9370
4 9370 9564 9565 9371
4 9371 9565 9566 9372
4 9372 9566 9567 9373
4 9373 9567 9568 9374
4 9374 9568 9569 9375
4 9375 9569 9570 9376
4 9376 9570 9571 9377
4 9377 9571 9572 9378
4 9378 9572 9573 9379
4 9379 9573 9574 9380
4 9380 9574 9575 9381
4 9381 9575 9576 9382
4 9382 9576 9577 9383
4 9383 9577 9578 9384
4 9384 9578 9579 9385
4 9385 9579 9580 9386
4 9386 9580 9581 9387
4 9387 9581 9582 9388
4 9388 9582 9583 9389
4 9389 9583 9584 9390
4 9390 9584 9585 9391
4 9391 9585 9586 9392
4 9392 9586 9587 9393
4 9393 9587 9588 9394
4 9394 9588 9589 9395
4 9395 9589 9590 9396
4 9396 9590 9591 9397
4 9397 9591 9592 9398
4 9398 9592 9593 9399
4 9399 9593 9594 9400
4 9400 9594 9595 9401
4 9401 9595 9596 9402
4 9402 9596 9597 9403
4 9403 9597 9598 9404
4 9404 9598 9599 9405
4 9405 9599 9600 9406
4 9406 9600 9601 9407
4 9407 9601 9602 9504
4 9409 9408 9603 9604
4 9408 9410 9605 9603
4 9410 9411 9606 9605
4 9411 9412 9607 9606
4 9412 9413 9608 9607
4 9413 9414 9609 9608
4 9414 9415 9610 9609
4 9415 9416 9611 9610
4 9416 9417 9612 9611
4 9417 9418 9613 9612
4 9418 9419 9614 9613
4 9419 9420 9615 9614
4 9420 9421 9616 9615
4 9421 9422 9617 9616
4 9422 9423 9618 9617
4 9423 9424 9619 9618
4 9424 9425 9620 9619
4 9425 9426 9621 9620
4 9426 9427 9622 9621
4 9427 9428 9623 9622
4 9428 9429 9624 9623
4 9429 9430 9625 9624
4 9430 9431 9626 9625
4 9431 9432 9627 9626
4 9432 9433 9628 9627
4 9433 9434 9629 9628
4 9434 9435 9630 9629
4 9435 9436 9631 9630
4 9436 9437 9632 9631
4 9437 9438 9633 9632
4 9438 9439 9634 9633
4 9439 9440 9635 9634
4 9440 9441 9636 9635
4 9441 9442 9637 9636
4 9442 9443 9638 9637
4 9443 9444 9639 9638
4 9444 9445 9640 9639
4 9445 9446 9641 9640
4 9446 9447 9642 9641
4 9447 9448 9643 9642
4 9448 9449 9644 9643
4 9449 9450 9645 9644
4 9450 9451 9646 9645
4 9451 9452 9647 9646
4 9452 9453 9648 9647
4 9453 9454 9649 9648
4 9454 9455 9650 9649
4 9455 9456 9651 9650
4 9456 9457 9652 9651
4 9457 9458 9653 9652
4 9458 9459 9654 9653
4 9459 9460 9655 9654
4 9460 9461 9656 9655
4 9461 9462 9657 9656
4 9462 9463 9658 9657
4 9463 9464 9659 9658
4 9464 9465 9660 9659
4 9465 9466 9661 9660
4 9466 9467 9662 9661
4 9467 9468 9663 9662
4 9468 9469 9664 9663
4 9469 9470 9665 9664
4 9470 9471 9666 9665
4 9471 9472 9667 9666
4 9472 9473 9668 9667
4 9473 9474 9669 9668
4 9474 9475 9670 9669
4 9475 9476 9671 9670
4 9476 9477 9672 9671
4 9477 9478 9673 9672
4 9478 9479 9674 9673
4 9479 9480 9675 9674
4 9480 9481 9676 9675
4 9481 9482 9677 9676
4 9482 9483 9678 9677
4 9483 9484 9679 9678
4 9484 9485 9680 9679
4 9485 9486 9681 9680
4 9486 9487 9682 9681
4 9487 9488 9683 9682
4 9488 9489 9684 9683
4 9489 9490 9685 9684
4 9490 9491 9686 9685
4 9491 9492 9687 9686
4 9492 9493 9688 9687
4 9493 9494 9689 9688
4 9494 9495 9690 9689
4 9495 9496 9691 9690
4 9496 9497 9692 9691
4 9497 9498 9693 9692
4 9498 9499 9694 9693
4 9499 9500 9695 9694
4 9500 9501 9696 9695
4 9501 9502 9697 9696
4 9502 9503 9698 9697
4 9503 9505 9699 9698
4 9504 9602 9700 9505
4 9505 9700 9701 9699
4 9506 9702 9703 9507
4 9507 9703 9704 9508
4 9508 9704 9705 9509
4 9509 9705 9706 9510
4 9510 9706 9707 9511
4 9511 9707 9708 9512
4 9512 9708 9709 9513
4 9513 9709 9710 9514
4 9514 9710 9711 9515
4 9515 9711 9712 9516
4 9516 9712 9713 9517
4 9517 9713 9714 9518
4 9518 9714 9715 9519
4 9519 9715 9716 9520
4 9520 9716 9717 9521
4 9521 9717 9718 9522
4 9522 9718 9719 9523
4 9523 9719 9720 9524
4 9524 9720 9721 9525
4 9525 9721 9722 9526
4 9526 9722 9723 9527
4 9527 9723 9724 9528
4 9528 9724 9725 9529
4 9529 9725 9726 9530
4 9530 9726 9727 9531
4 9531 9727 9728 9532
4 9532 9728 9729 9533
4 9533 9729 9730 9534
4 9534 9730 9731 9535
4 9535 9731 9732 9536
4 9536 9732 9733 9537
4 9537 9733 9734 9538
4 9538 9734 9735 9539
4 9539 9735 9736 9540
4 9540 9736 9737 9541
4 9541 9737 9738 9542
4 9542 9738 9739 9543
4 9543 9739 9740 9544
4 9544 9740 9741 9545
4 9545 9741 9742 9546
4 9546 9742 9743 9547
4 9547 9743 9744 9548
4 9548 9744 9745 9549
4 9549 9745 9746 9550
4 9550 9746 9747 9551
4 9551 9747 9748 9552
4 9552 9748 9749 9553
4 9553 9749 9750 9554
4 9554 9750 9751 9555
4 9555 9751 9752 9556
4 9556 9752 9753 9557
4 9557 9753 9754 9558
4 9558 9754 9755 9559
4 9559 9755 9756 9560
4 9560 9756 9757 9561
4 9561 9757 9758 9562
4 9562 9758 9759 9563
4 9563 9759 9760 9564
4 9564 9760 9761 9565
4 9565 9761 9762 9566
4 9566 9762 9763 9567
4 9567 9763 9764 9568
4 9568 9764 9765 9569
4 9569 9765 9766 9570
4 9570 9766 9767 9571
4 9571 9767 9768 9572
4 9572 9768 9769 9573
4 9573 9769 9770 9574
4 9574 9770 9771 9575
4 9575 9771 9772 9576
4 9576 9772 9773 9577
4 9577 9773 9774 9578
4 9578 9774 9775 9579
4 9579 9775 9776 9580
4 9580 9776 9777 9581
4 9581 9777 9778 9582
4 9582 9778 9779 9583
4 9583 9779 9780 9584
4 9584 9780 9781 9585
4 9585 9781 9782 9586
4 9586 9782 9783 9587
4 9587 9783 9784 9588
4 9588 9784 9785 9589
4 9589 9785 9786 9590
4 9590 9786 9787 9591
4 9591 9787 9788 9592
4 9592 9788 9789 9593
4 9593 9789 9790 9594
4 9594 9790 9791 9595
4 9595 9791 9792 9596
4 9596 9792 9793 9597
4 9597 9793 9794 9598
4 9598 9794 9795 9599
4 9599 9795 9796 9600
4 9600 9796 9797 9601
4 9601 9797 9798 9602
4 9602 9798 9799 9700
4 9604 9603 9800 9801
4 9603 9605 9802 9800
4 9605 9606 9803 9802
4 9606 9607 9804 9803
4 9607 9608 9805 9804
4 9608 9609 9806 9805
4 9609 9610 9807 9806
4 9610 9611 9808 9807
4 9611 9612 9809 9808
4 9612 9613 9810 9809
4 9613 9614 9811 9810
4 9614 9615 9812 9811
4 9615 9616 9813 9812
4 9616 9617 9814 9813
4 9617 9618 9815 9814
4 9618 9619 9816 9815
4 9619 9620 9817 9816
4 9620 9621 9818 9817
4 9621 9622 9819 9818
4 9622 9623 9820 9819
4 9623 9624 9821 9820
4 9624 9625 9822 9821
4 9625 9626 9823 9822
4 9626 9627 9824 9823
4 9627 9628 9825 9824
4 9628 9629 9826 9825
4 9629 9630 9827 9826
4 9630 9631 9828 9827
4 9631 9632 9829 9828
4 9632 9633 9830 9829
4 9633 9634 9831 9830
4 9634 9635 9832 9831
4 9635 9636 9833 9832
4 9636 9637 9834 9833
4 9637 9638 9835 9834
4 9638 9639 9836 9835
4 9639 9640 9837 9836
4 9640 9641 9838 9837
4 9641 9642 9839 9838
4 9642 9643 9840 9839
4 9643 9644 9841 9840
4 9644 9645 9842 9841
4 9645 9646 9843 9842
4 9646 9647 9844 9843
4 9647 9648 9845 9844
4 9648 9649 9846 9845
4 9649 9650 9847 9846
4 9650 9651 9848 9847
4 9651 9652 9849 9848
4 9652 9653 9850 9849
4 9653 9654 9851 9850
4 9654 9655 9852 9851
4 9655 9656 9853 9852
4 9656 9657 9854 9853
4 9657 9658 9855 9854
4 9658 9659 9856 9855
4 9659 9660 9857 9856
4 9660 9661 9858 9857
4 9661 9662 9859 9858
4 9662 9663 9860 9859
4 9663 9664 9861 9860
4 9664 9665 9862 9861
4 9665 9666 9863 9862
4 9666 9667 9864 9863
4 9667 9668 9865 9864
4 9668 9669 9866 9865
4 9669 9670 9867 9866
4 9670 9671 9868 9867
4 9671 9672 9869 9868
4 9672 9673 9870 9869
4 9673 9674 9871 9870
4 9674 9675 9872 9871
4 9675 9676 9873 9872
4 9676 9677 9874 9873
4 9677 9678 9875 9874
4 9678 9679 9876 9875
4 9679 9680 9877 9876
4 9680 9681 9878 9877
4 9681 9682 9879 9878
4 9682 9683 9880 9879
4 9683 9684 9881 9880
4 9684 9685 9882 9881
4 9685 9686 9883 9882
4 9686 9687 9884 9883
4 9687 9688 9885 9884
4 9688 9689 9886 9885
4 9689 9690 9887 9886
4 9690 9691 9888 9887
4 9691 9692 9889 9888
4 9692 9693 9890 9889
4 9693 9694 9891 9890
4 9694 9695 9892 9891
4 9695 9696 9893 9892
4 9696 9697 9894 9893
4 9697 9698 9895 9894
4 9698 9699 9896 9895
4 9699 9701 9897 9896
4 9700 9799 9898 9701
4 9701 9898 9899 9897
4 9702 9900 9901 9703
4 9703 9901 9902 9704
4 9704 9902 9903 9705
4 9705 9903 9904 9706
4 9706 9904 9905 9707
4 9707 9905 9906 9708
4 9708 9906 9907 9709
4 9709 9907 9908 9710
4 9710 9908 9909 9711
4 9711 9909 9910 9712
4 9712 9910 9911 9713
4 9713 9911 9912 9714
4 9714 9912 9913 9715
4 9715 9913 9914 9716
4 9716 9914 9915 9717
4 9717 9915 9916 9718
4 9718 9916 9917 9719
4 9719 9917 9918 9720
4 9720 9918 9919 9721
4 9721 9919 9920 9722
4 9722 9920 9921 9723
4 9723 9921 9922 9724
4 9724 9922 9923 9725
4 9725 9923 9924 9726
4 9726 9924 9925 9727
4 9727 9925 9926 9728
4 9728 9926 9927 9729
4 9729 9927 9928 9730
4 9730 9928 9929 9731
4 9731 9929 9930 9732
4 9732 9930 9931 9733
4 9733 9931 9932 9734
4 9734 9932 9933 9735
4 9735 9933 9934 9736
4 9736 9934 9935 9737
4 9737 9935 9936 9738
4 9738 9936 9937 9739
4 9739 9937 9938 9740
4 9740 9938 9939 9741
4 9741 9939 9940 9742
4 9742 9940 9941 9743
4 9743 9941 9942 9744
4 9744 9942 9943 9745
4 9745 9943 9944 9746
4 9746 9944 9945 9747
4 9747 9945 9946 9748
4 9748 9946 9947 9749
4 9749 9947 9948 9750
4 9750 9948 9949 9751
4 9751 9949 9950 9752
4 9752 9950 9951 9753
4 9753 9951 9952 9754
4 9754 9952 9953 9755
4 9755 9953 9954 9756
4 9756 9954 9955 9757
4 9757 9955 9956 9758
4 9758 9956 9957 9759
4 9759 9957 9958 9760
4 9760 9958 9959 9761
4 9761 9959 9960 9762
4 9762 9960 9961 9763
4 9763 9961 9962 9764
4 9764 9962 9963 9765
4 9765 9963 9964 9766
4 9766 9964 9965 9767
4 9767 9965 9966 9768
4 9768 9966 9967 9769
4 9769 9967 9968 9770
4 9770 9968 9969 9771
4 9771 9969 9970 9772
4 9772 9970 9971 9773
4 9773 9971 9972 9774
4 9774 9972 9973 9775
4 9775 9973 9974 9776
4 9776 9974 9975 9777
4 9777 9975 9976 9778
4 9778 9976 9977 9779
4 9779 9977 9978 9780
4 9780 9978 9979 9781
4 9781 9979 9980 9782
4 9782 9980 9981 9783
4 9783 9981 9982 9784
4 9784 9982 9983 9785
4 9785 9983 9984 9786
4 9786 9984 9985 9787
4 9787 9985 9986 9788
4 9788 9986 9987 9789
4 9789 9987 9988 9790
4 9790 9988 9989 9791
4 9791 9989 9990 9792
4 9792 9990 9991 9793
4 9793 9991 9992 9794
4 9794 9992 9993 9795
4 9795 9993 9994 9796
4 9796 9994 9995 9797
4 9797 9995 9996 9798
4 9798 9996 9997 9799
4 9799 9997 9998 9898
4 9801 9800 9999 10000
4 9800 9802 10001 9999
4 9802 9803 10002 10001
4 9803 9804 10003 10002
4 9804 9805 10004 10003
4 9805 9806 10005 10004
4 9806 9807 10006 10005
4 9807 9808 10007 10006
4 9808 9809 10008 10007
4 9809 9810 10009 10008
4 9810 9811 10010 10009
4 9811 9812 10011 10010
4 9812 9813 10012 10011
4 9813 9814 10013 10012
4 9814 9815 10014 10013
4 9815 9816 10015 10014
4 9816 9817 10016 10015
4 9817 9818 10017 10016
4 9818 9819 10018 10017
4 9819 9820 10019 10018
4 9820 9821 10020 10019
4 9821 9822 10021 10020
4 9822 9823 10022 10021
4 9823 9824 10023 10022
4 9824 9825 10024 10023
4 9825 9826 10025 10024
4 9826 9827 10026 10025
4 9827 9828 10027 10026
4 9828 9829 10028 10027
4 9829 9830 10029 10028
4 9830 9831 10030 10029
4 9831 9832 10031 10030
4 9832 9833 10032 10031
4 9833 9834 10033 10032
4 9834 9835 10034 10033
4 9835 9836 10035 10034
4 9836 9837 10036 10035
4 9837 9838 10037 10036
4 9838 9839 10038 10037
4 9839 9840 10039 10038
4 9840 9841 10040 10039
4 9841 9842 10041 10040
4 9842 9843 10042 10041
4 9843 9844 10043 10042
4 9844 9845 10044 10043
4 9845 9846 10045 10044
4 9846 9847 10046 10045
4 9847 9848 10047 10046
4 9848 9849 10048 10047
4 9849 9850 10049 10048
4 9850 9851 10050 10049
4 9851 9852 10051 10050
4 9852 9853 10052 10051
4 9853 9854 10053 10052
4 9854 9855 10054 10053
4 9855 9856 10055 10054
4 9856 9857 10056 10055
4 9857 9858 10057 10056
4 9858 9859 10058 10057
4 9859 9860 10059 10058
4 9860 9861 10060 10059
4 9861 9862 10061 10060
4 9862 9863 10062 10061
4 9863 9864 10063 10062
4 9864 9865 10064 10063
4 9865 9866 10065 10064
4 9866 9867 10066 10065
4 9867 9868 10067 10066
4 9868 9869 10068 10067
4 9869 9870 10069 10068
4 9870 9871 10070 10069
4 9871 9872 10071 10070
4 9872 9873 10072 10071
4 9873 9874 10073 10072
4 9874 9875 10074 10073
4 9875 9876 10075 10074
4 9876 9877 10076 10075
4 9877 9878 10077 10076
4 9878 9879 10078 10077
4 9879 9880 10079 10078
4 9880 9881 10080 10079
4 9881 9882 10081 10080
4 9882 9883 10082 10081
4 9883 9884 10083 10082
4 9884 9885 10084 10083
4 9885 9886 10085 10084
4 9886 9887 10086 10085
4 9887 9888 10087 10086
4 9888 9889 10088 10087
4 9889 9890 10089 10088
4 9890 9891 10090 10089
4 9891 9892 10091 10090
4 9892 9893 10092 10091
4 9893 9894 10093 10092
4 9894 9895 10094 10093
4 9895 9896 10095 10094
4 9896 9897 10096 10095
4 9897 9899 10097 10096
4 9898 9998 10098 9899
4 9899 10098 10099 10097
4 9900 10100 10101 9901
4 9901 10101 10102 9902
4 9902 10102 10103 9903
4 9903 10103 10104 9904
4 9904 10104 10105 9905
4 9905 10105 10106 9906
4 9906 10106 10107 9907
4 9907 10107 10108 9908
4 9908 10108 10109 9909
4 9909 10109 10110 9910
4 9910 10110 10111 9911
4 9911 10111 10112 9912
4 9912 10112 10113 9913
4 9913 10113 10114 9914
4 9914 10114 10115 9915
4 9915 10115 10116 9916
4 9916 10116 10117 9917
4 9917 10117 10118 9918
4 9918 10118 10119 9919
4 9919 10119 10120 9920
4 9920 10120 10121 9921
4 9921 10121 10122 9922
4 9922 10122 10123 9923
4 9923 10123 10124 9924
4 9924 10124 10125 9925
4 9925 10125 10126 9926
4 9926 10126 10127 9927
4 9927 10127 10128 9928
4 9928 10128 10129 9929
4 9929 10129 10130 9930
4 9930 10130 10131 9931
4 9931 10131 10132 9932
4 9932 10132 10133 9933
4 9933 10133 10134 9934
4 9934 10134 10135 9935
4 9935 10135 10136 9936
4 9936 10136 10137 9937
4 9937 10137 10138 9938
4 9938 10138 10139 9939
4 9939 10139 10140 9940
4 9940 10140 10141 9941
4 9941 10141 10142 9942
4 9942 10142 10143 9943
4 9943 10143 10144 9944
4 9944 10144 10145 9945
4 9945 10145 10146 9946
4 9946 10146 10147 9947
4 9947 10147 10148 9948
4 9948 10148 10149 9949
4 9949 10149 10150 9950
4 9950 10150 10151 9951
4 9951 10151 10152 9952
4 9952 10152 10153 9953
4 9953 10153 10154 9954
4 9954 10154 10155 9955
4 9955 10155 10156 9956
4 9956 10156 10157 9957
4 9957 10157 10158 9958
4 9958 10158 10159 9959
4 9959 10159 10160 9960
4 9960 10160 10161 9961
4 9961 10161 10162 9962
4 9962 10162 10163 9963
4 9963 10163 10164 9964
4 9964 10164 10165 9965
4 9965 10165 10166 9966
4 9966 10166 10167 9967
4 9967 10167 10168 9968
4 9968 10168 10169 9969
4 9969 10169 10170 9970
4 9970 10170 10171 9971
4 9971 10171 10172 9972
4 9972 10172 10173 9973
4 9973 10173 10174 9974
4 9974 10174 10175 9975
4 9975 10175 10176 9976
4 9976 10176 10177 9977
4 9977 10177 10178 9978
4 9978 10178 10179 9979
4 9979 10179 10180 9980
4 9980 10180 10181 9981
4 9981 10181 10182 9982
4 9982 10182 10183 9983
4 9983 10183 10184 9984
4 9984 10184 10185 9985
4 9985 10185 10186 9986
4 9986 10186 10187 9987
4 9987 10187 10188 9988
4 9988 10188 10189 9989
4 9989 10189 10190 9990
4 9990 10190 10191 9991
4 9991 10191 10192 9992
4 9992 10192 10193 9993
4 9993 10193 10194 9994
4 9994 10194 10195 9995
4 9995 10195 10196 9996
4 9996 10196 10197 9997
4 9997 10197 10198 9998
4 9998 10198 10199 10098
4 10098 10199 10200 10099
4 10201 10202 10203 10204
4 10205 10206 10202 10201
4 10206 10207 10208 10202
4 10204 10203 10209 10210
4 10202 10208 10211 10203
4 10203 10211 10212 10209
4 10207 10213 10214 10208
4 10208 10214 10215 10211
4 10210 10209 10216 10217
4 10209 10212 10218 10216
4 10211 10215 10219 10212
4 10212 10219 10220 10218
4 10213 10221 10222 10214
4 10214 10222 10223 10215
4 10215 10223 10224 10219
4 10217 10216 10225 10226
4 10216 10218 10227 10225
4 10218 10220 10228 10227
4 10219 10224 10229 10220
4 10220 10229 10230 10228
4 10221 10231 10232 10222
4 10222 10232 10233 10223
4 10223 10233 10234 10224
4 10224 10234 10235 10229
4 10229 10235 10236 10230

CELL_TYPES 10061
3
3
3
3
3
3
3
3
3
3
3
3
3
3
3
3
3
3
3
3
3
3
3
3
3
3
3
3
3
3
3
3
3
3
3
3
9
9
9
9
9
9
9
9
9
9
9
9
9
9
9
9
9
9
9
9
9
9
9
9
9
9
9
9
9
9
9
9
9
9
9
9
9
9
9
9
9
9
9
9
9
9
9
9
9
9
9
9
9
9
9
9
9
9
9
9
9
9
9
9
9
9
9
9
9
9
9
9
9
9
9
9
9
9
9
9
9
9
9
9
9
9
9
9
9
9
9
9
9
9
9
9
9
9
9
9
9
9
9
9
9
9
9
9
9
9
9
9
9
9
9
9
9
9
9
9
9
9
9
9
9
9
9
9
9
9
9
9
9
9
9
9
9
9
9
9
9
9
9
9
9
9
9
9
9
9
9
9
9
9
9
9
9
9
9
9
9
9
9
9
9
9
9
9
9
9
9
9
9
9
9
9
9
9
9
9
9
9
9
9
9
9
9
9
9
9
9
9
9
9
9
9
9
9
9
9
9
9
9
9
9
9
9
9
9
9
9
9
9
9
9
9
9
9
9
9
9
9
9
9
9
9
9
9
9
9
9
9
9
9
9
9
9
9
9
9
9
9
9
9
9
9
9
9
9
9
9
9
9
9
9
9
9
9
9
9
9
9
9
9
9
9
9
9
9
9
9
9
9
9
9
9
9
9
9
9
9
9
9
9
9
9
9
9
9
9
9
9
9
9
9
9
9
9
9
9
9
9
9
9
9
9
9
9
9
9
9
9
9
9
9
9
9
9
9
9
9
9
9
9
9
9
9
9
9
9
9
9
9
9
9
9
9
9
9
9
9
9
9
9
9
9
9
9
9
9
9
9
9
9
9
9
9
9
9
9
9
9
9
9
9
9
9
9
9
9
9
9
9
9
9
9
9
9
9
9
9
9
9
9
9
9
9
9
9
9
9
9
9
9
9
9
9
9
9
9
9
9
9
9
9
9
9
9
9
9
9
9
9
9
9
9
9
9
9
9
9
9
9
9
9
9
9
9
9
9
9
9
9
9
9
9
9
9
9
9
9
9
9
9
9
9
9
9
9
9
9
9
9
9
9
9
9
9
9
9
9
9
9
9
9
9
9
9
9
9
9
9
9
9
9
9
9
9
9
9
9
9
9
9
9
9
9
9
9
9
9
9
9
9
9
9
9
9
9
9
9
9
9
9
9
9
9
9
9
9
9
9
9
9
9
9
9
9
9
9
9
9
9
9
9
9
9
9
9
9
9
9
9
9
9
9
9
9
9
9
9
9
9
9
9
9
9
9
9
9
9
9
9
9
9
9
9
9
9
9
9
9
9
9
9
9
9
9
9
9
9
9
9
9
9
9
9
9
9
9
9
9
9
9
9
9
9
9
9
9
9
9
9
9
9
9
9
9
9
9
9
9
9
9
9
9
9
9
9
9
9
9
9
9
9
9
9
9
9
9
9
9
9
9
9
9
9
9
9
9
9
9
9
9
9
9
9
9
9
9
9
9
9
9
9
9
9
9
9
9
9
9
9
9
9
9
9
9
9
9
9
9
9
9
9
9
9
9
9
9
9
9
9
9
9
9
9
9
9
9
9
9
9
9
9
9
9
9
9
9
9
9
9
9
9
9
9
9
9
9
9
9
9
9
9
9
9
9
9
9
9
9
9
9
9
9
9
9
9
9
9
9
9
9
9
9
9
9
9
9
9
9
9
9
9
9
9
9
9
9
9
9
9
9
9
9
9
9
9
9
9
9
9
9
9
9
9
9
9
9
9
9
9
9
9
9
9
9
9
9
9
9
9
9
9
9
9
9
9
9
9
9
9
9
9
9
9
9
9
9
9
9
9
9
9
9
9
9
9
9
9
9
9
9
9
9
9
9
9
9
9
9
9
9
9
9
9
9
9
9
9
9
9
9
9
9
9
9
9
9
9
9
9
9
9
9
9
9
9
9
9
9
9
9
9
9
9
9
9
9
9
9
9
9
9
9
9
9
9
9
9
9
9
9
9
9
9
9
9
9
9
9
9
9
9
9
9
9
9
9
9
9
9
9
9
9
9
9
9
9
9
9
9
9
9
9
9
9
9
9
9
9
9
9
9
9
9
9
9
9
9
9
9
9
9
9
9
9
9
9
9
9
9
9
9
9
9
9
9
9
9
9
9
9
9
9
9
9
9
9
9
9
9
9
9
9
9
9
9
9
9
9
9
9
9
9
9
9
9
9
9
9
9
9
9
9
9
9
9
9
9
9
9
9
9
9
9
9
9
9
9
9
9
9
9
9
9
9
9
9
9
9
9
9
9
9
9
9
9
9
9
9
9
9
9
9
9
9
9
9
9
9
9
9
9
9
9
9
9
9
9
9
9
9
9
9
9
9
9
9
9
9
9
9
9
9
9
9
9
9
9
9
9
9
9
9
9
9
9
9
9
9
9
9
9
9
9
9
9
9
9
9
9
9
9
9
9
9
9
9
9
9
9
9
9
9
9
9
9
9
9
9
9
9
9
9
9
9
9
9
9
9
9
9
9
9
9
9
9
9
9
9
9
9
9
9
9
9
9
9
9
9
9
9
9
9
9
9
9
9
9
9
9
9
9
9
9
9
9
9
9
9
9
9
9
9
9
9
9
9
9
9
9
9
9
9
9
9
9
9
9
9
9
9
9
9
9
9
9
9
9
9
9
9
9
9
9
9
9
9
9
9
9
9
9
9
9
9
9
9
9
9
9
9
9
9
9
9
9
9
9
9
9
9
9
9
9
9
9
9
9
9
9
9
9
9
9
9
9
9
9
9
9
9
9
9
9
9
9
9
9
9
9
9
9
9
9
9
9
9
9
9
9
9
9
9
9
9
9
9
9
9
9
9
9
9
9
9
9
9
9
9
9
9
9
9
9
9
9
9
9
9
9
9
9
9
9
9
9
9
9
9
9
9
9
9
9
9
9
9
9
9
9
9
9
9
9
9
9
9
9
9
9
9
9
9
9
9
9
9
9
9
9
9
9
9
9
9
9
9
9
9
9
9
9
9
9
9
9
9
9
9
9
9
9
9
9
9
9
9
9
9
9
9
9
9
9
9
9
9
9
9
9
9
9
9
9
9
9
9
9
9
9
9
9
9
9
9
9
9
9
9
9
9
9
9
9
9
9
9
9
9
9
9
9
9
9
9
9
9
9
9
9
9
9
9
9
9
9
9
9
9
9
9
9
9
9
9
9
9
9
9
9
9
9
9
9
9
9
9
9
9
9
9
9
9
9
9
9
9
9
9
9
9
9
9
9
9
9
9
9
9
9
9
9
9
9
9
9
9
9
9
9
9
9
9
9
9
9
9
9
9
9
9
9
9
9
9
9
9
9
9
9
9
9
9
9
9
9
9
9
9
9
9
9
9
9
9
9
9
9
9
9
9
9
9
9
9
9
9
9
9
9
9
9
9
9
9
9
9
9
9
9
9
9
9
9
9
9
9
9
9
9
9
9
9
9
9
9
9
9
9
9
9
9
9
9
9
9
9
9
9
9
9
9
9
9
9
9
9
9
9
9
9
9
9
9
9
9
9
9
9
9
9
9
9
9
9
9
9
9
9
9
9
9
9
9
9
9
9
9
9
9
9
9
9
9
9
9
9
9
9
9
9
9
9
9
9
9
9
9
9
9
9
9
9
9
9
9
9
9
9
9
9
9
9
9
9
9
9
9
9
9
9
9
9
9
9
9
9
9
9
9
9
9
9
9
9
9
9
9
9
9
9
9
9
9
9
9
9
9
9
9
9
9
9
9
9
9
9
9
9
9
9
9
9
9
9
9
9
9
9
9
9
9
9
9
9
9
9
9
9
9
9
9
9
9
9
9
9
9
9
9
9
9
9
9
9
9
9
9
9
9
9
9
9
9
9
9
9
9
9
9
9
9
9
9
9
9
9
9
9
9
9
9
9
9
9
9
9
9
9
9
9
9
9
9
9
9
9
9
9
9
9
9
9
9
9
9
9
9
9
9
9
9
9
9
9
9
9
9
9
9
9
9
9
9
9
9
9
9
9
9
9
9
9
9
9
9
9
9
9
9
9
9
9
9
9
9
9
9
9
9
9
9
9
9
9
9
9
9
9
9
9
9
9
9
9
9
9
9
9
9
9
9
9
9
9
9
9
9
9
9
9
9
9
9
9
9
9
9
9
9
9
9
9
9
9
9
9
9
9
9
9
9
9
9
9
9
9
9
9
9
9
9
9
9
9
9
9
9
9
9
9
9
9
9
9
9
9
9
9
9
9
9
9
9
9
9
9
9
9
9
9
9
9
9
9
9
9
9
9
9
9
9
9
9
9
9
9
9
9
9
9
9
9
9
9
9
9
9
9
9
9
9
9
9
9
9
9
9
9
9
9
9
9
9
9
9
9
9
9
9
9
9
9
9
9
9
9
9
9
9
9
9
9
9
9
9
9
9
9
9
9
9
9
9
9
9
9
9
9
9
9
9
9
9
9
9
9
9
9
9
9
9
9
9
9
9
9
9
9
9
9
9
9
9
9
9
9
9
9
9
9
9
9
9
9
9
9
9
9
9
9
9
9
9
9
9
9
9
9
9
9
9
9
9
9
9
9
9
9
9
9
9
9
9
9
9
9
9
9
9
9
9
9
9
9
9
9
9
9
9
9
9
9
9
9
9
9
9
9
9
9
9
9
9
9
9
9
9
9
9
9
9
9
9
9
9
9
9
9
9
9
9
9
9
9
9
9
9
9
9
9
9
9
9
9
9
9
9
9
9
9
9
9
9
9
9
9
9
9
9
9
9
9
9
9
9
9
9
9
9
9
9
9
9
9
9
9
9
9
9
9
9
9
9
9
9
9
9
9
9
9
9
9
9
9
9
9
9
9
9
9
9
9
9
9
9
9
9
9
9
9
9
9
9
9
9
9
9
9
9
9
9
9
9
9
9
9
9
9
9
9
9
9
9
9
9
9
9
9
9
9
9
9
9
9
9
9
9
9
9
9
9
9
9
9
9
9
9
9
9
9
9
9
9
9
9
9
9
9
9
9
9
9
9
9
9
9
9
9
9
9
9
9
9
9
9
9
9
9
9
9
9
9
9
9
9
9
9
9
9
9
9
9
9
9
9
9
9
9
9
9
9
9
9
9
9
9
9
9
9
9
9
9
9
9
9
9
9
9
9
9
9
9
9
9
9
9
9
9
9
9
9
9
9
9
9
9
9
9
9
9
9
9
9
9
9
9
9
9
9
9
9
9
9
9
9
9
9
9
9
9
9
9
9
9
9
9
9
9
9
9
9
9
9
9
9
9
9
9
9
9
9
9
9
9
9
9
9
9
9
9
9
9
9
9
9
9
9
9
9
9
9
9
9
9
9
9
9
9
9
9
9
9
9
9
9
9
9
9
9
9
9
9
9
9
9
9
9
9
9
9
9
9
9
9
9
9
9
9
9
9
9
9
9
9
9
9
9
9
9
9
9
9
9
9
9
9
9
9
9
9
9
9
9
9
9
9
9
9
9
9
9
9
9
9
9
9
9
9
9
9
9
9
9
9
9
9
9
9
9
9
9
9
9
9
9
9
9
9
9
9
9
9
9
9
9
9
9
9
9
9
9
9
9
9
9
9
9
9
9
9
9
9
9
9
9
9
9
9
9
9
9
9
9
9
9
9
9
9
9
9
9
9
9
9
9
9
9
9
9
9
9
9
9
9
9
9
9
9
9
9
9
9
9
9
9
9
9
9
9
9
9
9
9
9
9
9
9
9
9
9
9
9
9
9
9
9
9
9
9
9
9
9
9
9
9
9
9
9
9
9
9
9
9
9
9
9
9
9
9
9
9
9
9
9
9
9
9
9
9
9
9
9
9
9
9
9
9
9
9
9
9
9
9
9
9
9
9
9
9
9
9
9
9
9
9
9
9
9
9
9
9
9
9
9
9
9
9
9
9
9
9
9
9
9
9
9
9
9
9
9
9
9
9
9
9
9
9
9
9
9
9
9
9
9
9
9
9
9
9
9
9
9
9
9
9
9
9
9
9
9
9
9
9
9
9
9
9
9
9
9
9
9
9
9
9
9
9
9
9
9
9
9
9
9
9
9
9
9
9
9
9
9
9
9
9
9
9
9
9
9
9
9
9
9
9
9
9
9
9
9
9
9
9
9
9
9
9
9
9
9
9
9
9
9
9
9
9
9
9
9
9
9
9
9
9
9
9
9
9
9
9
9
9
9
9
9
9
9
9
9
9
9
9
9
9
9
9
9
9
9
9
9
9
9
9
9
9
9
9
9
9
9
9
9
9
9
9
9
9
9
9
9
9
9
9
9
9
9
9
9
9
9
9
9
9
9
9
9
9
9
9
9
9
9
9
9
9
9
9
9
9
9
9
9
9
9
9
9
9
9
9
9
9
9
9
9
9
9
9
9
9
9
9
9
9
9
9
9
9
9
9
9
9
9
9
9
9
9
9
9
9
9
9
9
9
9
9
9
9
9
9
9
9
9
9
9
9
9
9
9
9
9
9
9
9
9
9
9
9
9
9
9
9
9
9
9
9
9
9
9
9
9
9
9
9
9
9
9
9
9
9
9
9
9
9
9
9
9
9
9
9
9
9
9
9
9
9
9
9
9
9
9
9
9
9
9
9
9
9
9
9
9
9
9
9
9
9
9
9
9
9
9
9
9
9
9
9
9
9
9
9
9
9
9
9
9
9
9
9
9
9
9
9
9
9
9
9
9
9
9
9
9
9
9
9
9
9
9
9
9
9
9
9
9
9
9
9
9
9
9
9
9
9
9
9
9
9
9
9
9
9
9
9
9
9
9
9
9
9
9
9
9
9
9
9
9
9
9
9
9
9
9
9
9
9
9
9
9
9
9
9
9
9
9
9
9
9
9
9
9
9
9
9
9
9
9
9
9
9
9
9
9
9
9
9
9
9
9
9
9
9
9
9
9
9
9
9
9
9
9
9
9
9
9
9
9
9
9
9
9
9
9
9
9
9
9
9
9
9
9
9
9
9
9
9
9
9
9
9
9
9
9
9
9
9
9
9
9
9
9
9
9
9
9
9
9
9
9
9
9
9
9
9
9
9
9
9
9
9
9
9
9
9
9
9
9
9
9
9
9
9
9
9
9
9
9
9
9
9
9
9
9
9
9
9
9
9
9
9
9
9
9
9
9
9
9
9
9
9
9
9
9
9
9
9
9
9
9
9
9
9
9
9
9
9
9
9
9
9
9
9
9
9
9
9
9
9
9
9
9
9
9
9
9
9
9
9
9
9
9
9
9
9
9
9
9
9
9
9
9
9
9
9
9
9
9
9
9
9
9
9
9
9
9
9
9
9
9
9
9
9
9
9
9
9
9
9
9
9
9
9
9
9
9
9
9
9
9
9
9
9
9
9
9
9
9
9
9
9
9
9
9
9
9
9
9
9
9
9
9
9
9
9
9
9
9
9
9
9
9
9
9
9
9
9
9
9
9
9
9
9
9
9
9
9
9
9
9
9
9
9
9
9
9
9
9
9
9
9
9
9
9
9
9
9
9
9
9
9
9
9
9
9
9
9
9
9
9
9
9
9
9
9
9
9
9
9
9
9
9
9
9
9
9
9
9
9
9
9
9
9
9
9
9
9
9
9
9
9
9
9
9
9
9
9
9
9
9
9
9
9
9
9
9
9
9
9
9
9
9
9
9
9
9
9
9
9
9
9
9
9
9
9
9
9
9
9
9
9
9
9
9
9
9
9
9
9
9
9
9
9
9
9
9
9
9
9
9
9
9
9
9
9
9
9
9
9
9
9
9
9
9
9
9
9
9
9
9
9
9
9
9
9
9
9
9
9
9
9
9
9
9
9
9
9
9
9
9
9
9
9
9
9
9
9
9
9
9
9
9
9
9
9
9
9
9
9
9
9
9
9
9
9
9
9
9
9
9
9
9
9
9
9
9
9
9
9
9
9
9
9
9
9
9
9
9
9
9
9
9
9
9
9
9
9
9
9
9
9
9
9
9
9
9
9
9
9
9
9
9
9
9
9
9
9
9
9
9
9
9
9
9
9
9
9
9
9
9
9
9
9
9
9
9
9
9
9
9
9
9
9
9
9
9
9
9
9
9
9
9
9
9
9
9
9
9
9
9
9
9
9
9
9
9
9
9
9
9
9
9
9
9
9
9
9
9
9
9
9
9
9
9
9
9
9
9
9
9
9
9
9
9
9
9
9
9
9
9
9
9
9
9
9
9
9
9
9
9
9
9
9
9
9
9
9
9
9
9
9
9
9
9
9
9
9
9
9
9
9
9
9
9
9
9
9
9
9
9
9
9
9
9
9
9
9
9
9
9
9
9
9
9
9
9
9
9
9
9
9
9
9
9
9
9
9
9
9
9
9
9
9
9
9
9
9
9
9
9
9
9
9
9
9
9
9
9
9
9
9
9
9
9
9
9
9
9
9
9
9
9
9
9
9
9
9
9
9
9
9
9
9
9
9
9
9
9
9
9
9
9
9
9
9
9
9
9
9
9
9
9
9
9
9
9
9
9
9
9
9
9
9
9
9
9
9
9
9
9
9
9
9
9
9
9
9
9
9
9
9
9
9
9
9
9
9
9
9
9
9
9
9
9
9
9
9
9
9
9
9
9
9
9
9
9
9
9
9
9
9
9
9
9
9
9
9
9
9
9
9
9
9
9
9
9
9
9
9
9
9
9
9
9
9
9
9
9
9
9
9
9
9
9
9
9
9
9
9
9
9
9
9
9
9
9
9
9
9
9
9
9
9
9
9
9
9
9
9
9
9
9
9
9
9
9
9
9
9
9
9
9
9
9
9
9
9
9
9
9
9
9
9
9
9
9
9
9
9
9
9
9
9
9
9
9
9
9
9
9
9
9
9
9
9
9
9
9
9
9
9
9
9
9
9
9
9
9
9
9
9
9
9
9
9
9
9
9
9
9
9
9
9
9
9
9
9
9
9
9
9
9
9
9
9
9
9
9
9
9
9
9
9
9
9
9
9
9
9
9
9
9
9
9
9
9
9
9
9
9
9
9
9
9
9
9
9
9
9
9
9
9
9
9
9
9
9
9
9
9
9
9
9
9
9
9
9
9
9
9
9
9
9
9
9
9
9
9
9
9
9
9
9
9
9
9
9
9
9
9
9
9
9
9
9
9
9
9
9
9
9
9
9
9
9
9
9
9
9
9
9
9
9
9
9
9
9
9
9
9
9
9
9
9
9
9
9
9
9
9
9
9
9
9
9
9
9
9
9
9
9
9
9
9
9
9
9
9
9
9
9
9
9
9
9
9
9
9
9
9
9
9
9
9
9
9
9
9
9
9
9
9
9
9
9
9
9
9
9
9
9
9
9
9
9
9
9
9
9
9
9
9
9
9
9
9
9
9
9
9
9
9
9
9
9
9
9
9
9
9
9
9
9
9
9
9
9
9
9
9
9
9
9
9
9
9
9
9
9
9
9
9
9
9
9
9
9
9
9
9
9
9
9
9
9
9
9
9
9
9
9
9
9
9
9
9
9
9
9
9
9
9
9
9
9
9
9
9
9
9
9
9
9
9
9
9
9
9
9
9
9
9
9
9
9
9
9
9
9
9
9
9
9
9
9
9
9
9
9
9
9
9
9
9
9
9
9
9
9
9
9
9
9
9
9
9
9
9
9
9
9
9
9
9
9
9
9
9
9
9
9
9
9
9
9
9
9
9
9
9
9
9
9
9
9
9
9
9
9
9
9
9
9
9
9
9
9
9
9
9
9
9
9
9
9
9
9
9
9
9
9
9
9
9
9
9
9
9
9
9
9
9
9
9
9
9
9
9
9
9
9
9
9
9
9
9
9
9
9
9
9
9
9
9
9
9
9
9
9
9
9
9
9
9
9
9
9
9
9
9
9
9
9
9
9
9
9
9
9
9
9
9
9
9
9
9
9
9
9
9
9
9
9
9
9
9
9
9
9
9
9
9
9
9
9
9
9
9
9
9
9
9
9
9
9
9
9
9
9
9
9
9
9
9
9
9
9
9
9
9
9
9
9
9
9
9
9
9
9
9
9
9
9
9
9
9
9
9
9
9
9
9
9
9
9
9
9
9
9
9
9
9
9
9
9
9
9
9
9
9
9
9
9
9
9
9
9
9
9
9
9
9
9
9
9
9
9
9
9
9
9
9
9
9
9
9
9
9
9
9
9
9
9
9
9
9
9
9
9
9
9
9
9
9
9
9
9
9
9
9
9
9
9
9
9
9
9
9
9
9
9
9
9
9
9
9
9
9
9
9
9
9
9
9
9
9
9
9
9
9
9
9
9
9
9
9
9
9
9
9
9
9
9
9
9
9
9
9
9
9
9
9
9
9
9
9
9
9
9
9
9
9
9
9
9
9
9
9
9
9
9
9
9
9
9
9
9
9
9
9
9
9
9
9
9
9
9
9
9
9
9
9
9
9
9
9
9
9
9
9
9
9
9
9
9
9
9
9
9
9
9
9
9
9
9
9
9
9
9
9
9
9
9
9
9
9
9
9
9
9
9
9
9
9
9
9
9
9
9
9
9
9
9
9
9
9
9
9
9
9
9
9
9
9
9
9
9
9
9
9
9
9
9
9
9
9
9
9
9
9
9
9
9
9
9
9
9
9
9
9
9
9
9
9
9
9
9
9
9
9
9
9
9
9
9
9
9
9
9
9
9
9
9
9
9
9
9
9
9
9
9
9
9
9
9
9
9
9
9
9
9
9
9
9
9
9
9
9
9
9
9
9
9
9
9
9
9
9
9
9
9
9
9
9
9
9
9
9
9
9
9
9
9
9
9
9
9
9
9
9
9
9
9
9
9
9
9
9
9
9
9
9
9
9
9
9
9
9
9
9
9
9
9
9
9
9
9
9
9
9
9
9
9
9
9
9
9
9
9
9
9
9
9
9
9
9
9
9
9
9
9
9
9
9
9
9
9
9
9
9
9
9
9
9
9
9
9
9
9
9
9
9
9
9
9
9
9
9
9
9
9
9
9
9
9
9
9
9
9
9
9
9
9
9
9
9
9
9
9
9
9
9
9
9
9
9
9
9
9
9
9
9
9
9
9
9
9
9
9
9
9
9
9
9
9
9
9
9
9
9
9
9
9
9
9
9
9
9
9
9
9
9
9
9
9
9
9
9
9
9
9
9
9
9
9
9
9
9
9
9
9
9
9
9
9
9
9
9
9
9
9
9
9
9
9
9
9
9
9
9
9
9
9
9
9
9
9
9
9
9
9
9
9
9
9
9
9
9
9
9
9
9
9
9
9
9
9
9
9
9
9
9
9
9
9
9
9
9
9
9
9
9
9
9
9
9
9
9
9
9
9
9
9
9
9
9
9
9
9
9
9
9
9
9
9
9
9
9
9
9
9
9
9
9
9
9
9
9
9
9
9
9
9
9
9
9
9
9
9
9
9
9
9
9
9
9
9
9
9
9
9
9
9
9
9
9
9
9
9
9
9
9
9
9
9
9
9
9
9
9
9
9
9
9
9
9
9
9
9
9
9
9
9
9
9
9
9
9
9
9
9
9
9
9
9
9
9
9
9
9
9
9
9
9
9
9
9
9
9
9
9
9
9
9
9
9
9
9
9
9
9
9
9
9
9
9
9
9
9
9
9
9
9
9
9
9
9
9
9
9
9
9
9
9
9
9
9
9
9
9
9
9
9
9
9
9
9
9
9
9
9
9
9
9
9
9
9
9
9
9
9
9
9
9
9
9
9
9
9
9
9
9
9
9
9
9
9
9
9
9
9
9
9
9
9
9
9
9
9
9
9
9
9
9
9
9
9
9
9
9
9
9
9
9
9
9
9
9
9
9
9
9
9
9
9
9
9
9
9
9
9
9
9
9
9
9
9
9
9
9
9
9
9
9
9
9
9
9
9
9
9
9
9
9
9
9
9
9
9
9
9
9
9
9
9
9
9
9
9
9
9
9
9
9
9
9
9
9
9
9
9
9
9
9
9
9
9
9
9
9
9
9
9
9
9
9
9
9
9
9
9
9
9
9
9
9
9
9
9
9
9
9
9
9
9
9
9
9
9
9
9
9
9
9
9
9
9
9
9
9
9
9
9
9
9
9
9
9
9
9
9
9
9
9
9
9
9
9
9
9
9
9
9
9
9
9
9
9
9
9
9
9
9
9
9
9
9
9
9
9
9
9
9
9
9
9
9
9
9
9
9
9
9
9
9
9
9
9
9
9
9
9
9
9
9
9
9
9
9
9
9
9
9
9
9
9
9
9
9
9
9
9
9
9
9
9
9
9
9
9
9
9
9
9
9
9
9
9
9
9
9
9
9
9
9
9
9
9
9
9
9
9
9
9
9
9
9
9
9
9
9
9
9
9
9
9
9
9
9
9
9
9
9
9
9
9
9
9
9
9
9
9
9
9
9
9
9
9
9
9
9
9
9
9
9
9
9
9
9
9
9
9
9
9
9
9
9
9
9
9
9
9
9
9
9
9
9
9
9
9
9
9
9
9
9
9
9
9
9
9
9
9
9
9
9
9
9
9
9
9
9
9
9
9
9
9
9
9
9
9
9
9
9
9
9
9
9
9
9
9
9
9
9
9
9
9
9
9
9
9
9
9
9
9
9
9
9
9
9
9
9
9
9
9
9
9
9
9
9
9
9
9
9
9
9
9
9
9
9
9
9
9
9
9
9
9
9
9
9
9
9
9
9
9
9
9
9
9
9
9
9
9
9
9
9
9
9
9
9
9
9
9
9
9
9
9
9
9
9
9
9
9
9
9
9
9
9
9
9
9
9
9
9
9
9
9
9
9
9
9
9
9
9
9
9
9
9
9
9
9
9
9
9
9
9
9
9
9
9
9
9
9
9
9
9
9
9
9
9
9
9
9
9
9
9
9
9
9
9
9
9
9
9
9
9
9
9
9
9
9
9
9
9
9
9
9
9
9
9
9
9
9
9
9
9
9
9
9
9
9
9
9
9
9
9
9
9
9
9
9
9
9
9
9
9
9
9
9
9
9
9
9
9
9
9
9
9
9
9
9
9
9
9
9
9
9
9
9
9
9
9
9
9
9
9
9
9
9
9
9
9
9
9
9
9
9
9
9
9
9
9
9
9
9
9
9
9
9
9
9
9
9
9
9
9
9
9
9
9
9
9
9
9
9
9
9
9
9
9
9
9
9
9
9
9
9
9
9
9
9
9
9
9
9
9
9
9
9
9
9
9
9
9
9
9
9
9
9
9
9
9
9
9
9
9
9
9
9
9
9
9
9
9
9
9
9
9
9
9
9
9
9
9
9
9
9
9
9
9
9
9
9
9
9
9
9
9
9
9
9
9
9
9
9
9
9
9
9
9
9
9
9
9
9
9
9
9
9
9
9
9
9
9
9
9
9
9
9
9
9
9
9
9
9
9
9
9
9
9
9
9
9
9
9
9
9
9
9
9
9
9
9
9
9
9
9
9
9
9
9
9
9
9
9
9
9
9
9
9
9
9
9
9
9
9
9
9
9
9
9
9
9
9
9
9
9
9
9
9
9
9
9
9
9
9
9
9
9
9
9
9
9
9
9
9
9
9
9
9
9
9
9
9
9
9
9
9
9
9
9
9
9
9
9
9
9
9
9
9
9
9
9
9
9
9
9
9
9
9
9
9
9
9
9
9
9
9
9
9
9
9
9
9
9
9
9
9
9
9
9
9
9
9
9
9
9
9
9
9
9
9
9
9
9
9
9
9
9
9
9
9
9
9
9
9
9
9
9
9
9
9
9
9
9
9
9
9
9
9
9
9
9
9
9
9
9
9
9
9
9
9
9
9
9
9
9
9
9
9
9
9
9
9
9
9
9
9
9
9
9
9
9
9
9
9
9
9
9
9
9
9
9
9
9
9
9
9
9
9
9
9
9
9
9
9
9
9
9
9
9
9
9
9
9
9
9
9
9
9
9
9
9
9
9
9
9
9
9
9
9
9
9
9
9
9
9
9
9
9
9
9
9
9
9
9
9
9
9
9
9
9
9
9
9
9
9
9
9
9
9
9
9
9
9
9
9
9
9
9
9
9
9
9
9
9
9
9
9
9
9
9
9
9
9
9
9
9
9
9
9
9
9
9
9
9
9
9
9
9
9
9
9
9
9
9
9
9
9
9
9
9
9
9
9
9
9
9
9
9
9
9
9
9
9
9
9
9
9
9
9
9
9
9
9
9
9
9
9
9
9
9
9
9
9
9
9
9
9
9
9
9
9
9
9
9
9
9
9
9
9
9
9
9
9
9
9
9
9
9
9
9
9
9
9
9
9
9
9
9
9
9
9
9
9
9
9
9
9
9
9
9
9
9
9
9
9
9
9
9
9
9
9
9
9
9
9
9
9
9
9
9
9
9
9
9
9
9
9
9
9
9
9
9
9
9
9
9
9
9
9
9
9
9
9
9
9
9
9
9
9
9
9
9
9
9
9
9
9
9
9
9
9
9
9
9
9
9
9
9
9
9
9
9
9
9
9
9
9
9
9
9
9
9
9
9
9
9
9
9
9
9
9
9
9
9
9
9
9
9
9
9
9
9
9
9
9
9
9
9
9
9
9
9
9
9
9
9
9
9
9
9
9
9
9
9
9
9
9
9
9
9
9
9
9
9
9
9
9
9
9
9
9
9
9
9
9
9
9
9
9
9
9
9
9
9
9
9
9
9
9
9
9
9
9
9
9
9
9
9
9
9
9
9
9
9
9
9
9
9
9
9
9
9
9
9
9
9
9
9
9
9
9
9
9
9
9
9
9
9
9
9
9
9
9
9
9
9
9
9
9
9
9
9
9
9
9
9
9
9
9
9
9
9
9
9
9
9
9
9
9
9
9
9
9
9
9
9
9
9
9
9
9
9
9
9
9
9
9
9
9
9
9
9
9
9
9
9
9
9
9
9
9
9
9
9
9
9
9
9
9
9
9
9
9
9
9
9
9
9
9
9
9
9
9
9
9
9
9
9
9
9
9
9
9
9
9
9
9
9
9
9
9
9
9
9
9
9
9
9
9
9
9
9
9
9
9
9
9
9
9
9
9
9
9
9
9
9
9
9
9
9
9
9
9
9
9
9
9
9
9
9
9
9
9
9
9
9
9
9
9
9
9
9
9
9
9
9
9
9
9
9
9
9
9
9
9
9
9
9
9
9
9
9
9
9
9
9
9
9
9
9
9
9
9
9
9
9
9
9
9
9
9
9
9
9
9
9
9
9
9
9
9
9
9
9
9
9
9
9
9
9
9
9
9
9
9
9
9
9
9
9
9
9
9
9
9
9
9
9
9
9
9
9
9
9
9
9
9
9
9
9
9
9
9
9
9
9
9
9
9
9
9
9
9
9
9
9
9
9
9
9
9
9
9
9
9
9
9
9
9
9
9
9
9
9
9
9
9
9
9
9
9
9
9
9
9
9
9
9
9
9
9
9
9
9
9
9
9
9
9
9
9
9
9
9
9
9
9
9
9
9
9
9
9
9
9
9
9
9
9
9
9
9
9
9
9
9
9
9
9
9
9
9
9
9
9
9
9
9
9
9
9
9
9
9
9
9
9
9
9
9
9
9
9
9
9
9
9
9
9
9
9
9
9
9
9
9
9
9
9
9
9
9
9
9
9
9
9
9
9
9
9
9
9
9
9
9
9
9
9
9
9
9
9
9
9
9
9
9
9
9
9
9
9
9
9
9
9
9
9
9
9
9
9
9
9
9
9
9
9
9
9
9
9
9
9
9
9
9
9
9
9
9
9
9
9
9
9
9
9
9
9
9
9
9
9
9
9
9
9
9
9
9
9
9
9
9
9
9
9
9
9
9
9
9
9
9
9
9
9
9
9
9
9
9
9
9
9
9
9
9
9
9
9
9
9
9
9
9
9
9
9
9
9
9
9
9
9
9
9
9
9
9
9
9
9
9
9
9
9
9
9
9
9
9
9
9
9
9
9
9
9
9
9
9
9
9
9
9
9
9
9
9
9
9
9
9
9
9
9
9
9
9
9
9
9
9
9
9
9
9
9
9
9
9
9
9
9
9
9
9
9
9
9
9
9
9
9
9
9
9
9
9
9
9
9
9
9
9
9
9
9
9
9
9
9
9
9
9
9
9
9
9
9
9
9
9
9
9
9
9
9
9
9
9
9
9
9
9
9
9
9
9
9
9
9
9
9
9
9
9
9
9
9
9
9
9
9
9
9
9
9
9
9
9
9
9
9
9
9
9
9
9
9
9
9
9
9
9
9
9
9
9
9
9
9
9
9
9
9
9
9
9
9
9
9
9
9
9
9
9
9
9
9
9
9
9
9
9
9
9
9
9
9
9
9
9
9
9
9
9
9
9
9
9
9
9
9
9
9
9
9
9
9
9
9
9
9
9
9
9
9
9
9
9
9
9
9
9
9
9
9
9
9
9
9
9
9
9
9
9
9
9
9
9
9
9
9
9
9
9
9
9
9
9
9
9
9
9
9
9
9
9
9
9
9
9
9
9
9
9
9
9
9
9
9
9
9
9
9
9
9
9
9
9
9
9
9
9
9
9
9
9
9
9
9
9
9
9
9
9
9
9
9
9
9
9
9
9
9
9
9
9
9
9
9
9
9
9
9
9
9
9
9
9
9
9
9
9
9
9
9
9
9
9
9
9
9
9
9
9
9
9
9
9
9
9
9
9
9
9
9
9
9
9
9
9
9
9
9
9
9
9
9
9
9
9
9
9
9
9
9
9
9
9
9
9
9
9
9
9
9
9
9
9
9
9
9
9
9
9
9
9
9
9
9
9
9
9
9
9
9
9
9
9
9
9
9
9
9
9
9
9
9
9
9
9
9
9
9
9
9
9
9
9
9
9
9
9
9
9
9
9
9
9
9
9
9
9
9
9
9
9
9
9
9
9
9
9
9
9
9
9
9
9
9
9
9
9
9
9
9
9
9
9
9
9
9
9
9
9
9
9
9
9
9
9
9
9
9
9
9
9
9
9
9
9
9
9
9
9
9
9
9
9
9
9
9
9
9
9
9
9
9
9
9
9
9
9
9
9
9
9
9
9
9
9
9
9
9
9
9
9
9
9
9
9
9
9
9
9
9
9
9
9
9
9
9
9
9
9
9
9
9
9
9
9
9
9
9
9
9
9
9
9
9
9
9
9
9
9
9
9
9
9
9
9
9
9
9
9
9
9
9
9
9
9
9
9
9
9
9
9
9
9
9
9
9
9
9
9
9
9
9
9
9
9
9
9
9
9
9
9
9
9
9
9
9
9
9
9
9
9
9
9
9
9
9
9
9
9
9
9
9
9
9
9
9
9
9
9
9
9
9
9
9
9
9
9
9
9
9
9
9
9
9
9
9
9
9
9
9
9
9
9
9
9
9
9
9
9
9
9
9
9
9
9
9
9
9
9
9
9
9
9
9
9
9
9
9
9
9
9
9
9
9
9
9
9
9
9
9
9
9
9
9
9
9
9
9
9
9
9
9
9
9
9
9
9
9
9
9
9
9
9
9
9
9
9
9
9
9
9
9
9
9
9
9
9
9
9
9
9
9
9
9
9
9
9
9
9
9
9
9
9
9
9
9
9
9
9
9
9
9
9
9
9
9
9
9
9
9
9
9
9
9
9
9
9
9
9
9
9
9
9
9
9
9
9
9
9
9
9
9
9
9
9
9
9
9
9
9
9
9
9
9
9
9
9
9
9
9
9
9
9
9
9
9
9
9
9
9
9
9
9
9
9
9
9
9
9
9
9
9
9
9
9
9
9
9
9
9
9
9
9
9
9
9
9
9
9
9
9
9
9
9
9
9
9
9
9
9
9
9
9
9
9
9
9
9
9
9
9
9
9
9
9
9
9
9
9
9
9
9
9
9
9
9
9
9
9
9
9
9
9
9
9
9
9
9
9
9
9
9
9
9
9
9
9
9
9
9
9
9
9
9
9
9
9
9
9
9
9
9
9
9
9
9
9
9
9
9
9
9
9
9
9
9
9
9
9
9
9
9
9
9
9
9
9
9
9
9
9
9
9
9
9
9
9
9
9
9
9
9
9
9
9
9
9
9
9
9
9
9
9
9
9
9
9
9
9
9
9
9
9
9
9
9
9
9
9
9
9
9
9
9
9
9
9
9
9
9
9
9
9
9
9
9
9
9
9
9
9
9
9
9
9
9
9
9
9
9
9
9
9
9
9
9
9
9
9
9
9
9
9
9
9
9
9
9
9
9
9
9
9
9
9
9
9
9
9
9
9
9
9
9
9
9
9
9
9
9
9
9
9
9
9
9
9
9
9
9
9
9
9
9
9
9
9
9
9
9
9
9
9
9
9
9
9
9
9
9
9
9
9
9
9
9
9
9
9
9
9
9
9
9
9
9
9
9
9
9
9
9
9
9
9
9
9
9
9
9
9
9
9
9
9
9
9
9
9
9
9
9
9
9
9
9
9
9
9
9
9
9
9
9
9
9
9
9
9
9
9
9
9
9
9
9
9
9
9
9
9
9
9
9
9
9
9
9
9
9
9
9
9
9
9
9
9
9
9
9
9
9
9
9
9
9
9
9
9
9
9
9
9
9
9
9
9
9
9
9
9
9
9
9
9
9
9
9
9
9
9
9
9
9
9
9
9
9
9
9
9
9
9
9
9
9
9
9
9
9
9
9
9
9
9
9
9
9
9
9
9
9
9
9
9
9
9
9
9
9
9
9
9
9
9
9
9
9
9
9
9
9
9
9
9
9
9
9
9
9
9
9
9
9
9
9
9
9
9
9
9
9
9
9
9
9
9
9
9
9
9
9
9
9
9
9
9
9
9
9
9
9
9
9
9
9
9
9
9
9
9
9
9
9
9
9
9
9
9
9
9
9
9
9
9
9
9
9
9
9
9
9
9
9
9
9
9
9
9
9
9
9
9
9
9
9
9
9
9
9
9
9
9
9
9
9
9
9
9
9
9
9
9
9
9
9
9
9
9
9
9
9
9
9
9
9
9
9
9
9
9
9
9
9
9
9
9
9
9
9
9
9
9
9
9
9
9
9
9
9
9
9
9
9
9
9
9
9
9
9
9
9
9
9
9
9
9
9
9
9
9
9
9
9
9
9
9
9
9
9
9
9
9
9
9
9
9
9
9
9
9
9
9
9
9
9
9
9
9
9
9
9
9
9
9
9
9
9
9
9
9
9
9
9
9
9
9
9
9
9
9
9
9
9
9
9
9
9
9
9
9
9
9
9
9
9
9
9
9
9
9
9
9
9
9
9
9
9
9
9
9
9
9
9
9
9
9
9
9
9
9
9
9
9
9
9
9
9
9
9
9
9
9
9
9
9
9
9
9
9
9
9
9
9
9
9
9
9
9
9
9
9
9
9
9
9
9
9
9
9
9
9
9
9
9
9
9
9
9
9
9
9
9
9
9
9
9
9
9
9
9
9
9
9
9
9
9
9
9
9
9
9
9
9
9
9
9
9
9
9
9
9
9
9
9
9
9
9
9
9
9
9
9
9
9
9
9
9
9
9
9
9
9
9
9
9
9
9
9
9
9
9
9
9
9
9
9
9
9
9
9
9
9
9
9
9
9
9
9
9
9
9
9
9
9
9
9
9
9
9
9
9
9
9
9
9
9
9
9
9
9
9
9
9
9
9
9
9
9
9
9
9
9
9
9
9
9
9
9
9
9
9
9
9
9
9
9
9
9
9
9
9
9
9
9
9
9
9
9
9
9
9
9
9
9
9
9
9
9
9
9
9
9
9
9
9
9
9
9
9
9
9
9
9
9
9
9
9
9
9
9
9
9
9
9
9
9
9
9
9
9
9
9
9
9
9
9
9
9
9
9
9
9
9
9
9
9
9
9
9
9
9
9
9
9
9
9
9
9
9
9
9
9
9
9
9
9
9
9
9
9
9
9
9
9
9
9
9
9
9
9
9
9
9
9
9
9
9
9
9
9
9
9
9
9
9
9
9
9
9
9
9
9
9
9
9
9
9
9
9
9
9
9
9
9
9
9
9
9
9
9
9
9
9
9
9
9
9
9
9
9
9
9
9
9
9
9
9
9
9
9
9
9
9
9
9
9
9
9
9
9
9
9
9
9
9
9
9
9
9
9
9
9
9
9
9
9
9
9
9
9
9
9
9
9
9
9
9
9
9
9
9
9
9
9
9
9
9
9
9
9
9
9
9
9
9
9
9
9
9
9
9
9
9
9
9
9
9
9
9
9
9
9
9
9
9
9
9
9
9
9
9
9
9
9
9
9
9
9
9
9
9
9
9
9
9
9
9
9
9
9
9
9
9
9
9
9
9
9
9
9
9
9
9
9
9
9
9
9
9
9
9
9
9
9
9
9
9
9
9
9
9
9
9
9
9
9
9
9
9
9
9
9
9
9
9
9
9
9
9
9
9
9
9
9
9
9
9
9
9
9
9
9
9
9
9
9
9
9
9
9
9
9
9
9
9
9
9
9
9
9
9
9
9
9
9
9
9
9
9
9
9
9
9
9
9
9
9
9
9
9
9
9
9
9
9
9
9
9
9
9
9
9
9
9
9
9
9
9
9
9
9
9
9
9
9
9
9
9
9
9
9
9
9
9
9
9
9
9
9
9
9
9
9
9
9
9
9
9
9
9
9
9
9
9
9
9
9
9
9
9
9
9
9
9
9
9
9
9
9
9
9
9
9
9
9
9
9
9
9
9
9
9
9
9
9
9
9
9
9
9
9
9
9
9
9
9
9
9
9
9
9
9
9
9
9
9
9
9
9
9
9
9
9
9
9
9
9
9
9
9
9
9
9
9
9
9
9
9
9
9
9
9
9
9
9
9
9
9
9
9
9
9
9
9
9
9
9
9
9
9
9
9
9
9
9
9
9
9
9
9
9
9
9
9
9
9
9
9
9
9
9
9
9
9
9
9
9
9
9
9
9
9
9
9
9
9
9
9
9
9
9
9
9
9
9
9
9
9
9
9
9
9
9
9
9
9
9
9
9
9
9
9
9
9
9
9
9
9
9
9
9
9
9
9
9
9
9
9
9
9
9
9
9
9
9
9
9
9
9
9
9
9
9
9
9
9
9
9
9
9
9
9
9
9
9
9
9
9
9
9
9
9
9
9
9
9
9
9
9
9
9
9
9
9
9
9
9
9
9
9
9
9
9
9
9
9
9
9
9
9
9
9
9
9
9
9
9
9
9
9
9
9
9
9
9
9
9
9
9
9
9
9
9
9
9
9
9
9
9
9
9
9
9
9
9
9
9
9
9
9
9
9
9
9
9
9
9
9
9
9
9
9
9
9
9
9
9
9
9
9
9
9
9
9
9
9
9
9
9
9
9
9
9
9
9
9
9
9
9
9
9
9
9
9
9
9
9
9
9
9
9
9
9
9
9
9
9
9
9
9
9
9
9
9
9
9
9
9
9
9
9
9
9
9
9
9
9
9
9
9
9
9
9
9
9
9
9
9
9
9
9
9
9
9
9
9
9
9
9
9
9
9
9
9
9
9
9
9
9
9
9
9
9
9
9
9
9
9
9
9
9
9
9
9
9
9
9
9
9
9
9
9
9
9
9
9
9
9
9
9
9
9
9
9
9
9
9
9
9
9
9
9
9
9
9
9
9
9
9
9
9
9
9
9
9
9
9
9
9
9
9
9
9
9
9
9
9
9
9
9
9
9
9
9
9
9
9
9
9
9
9
9
9
9
9
9
9
9
9
9
9
9
9
9
9
9
9
9
9
9
9
9
9
9
9
9
9
9
9
9
9
9
9
9
9
9
9
9
9
9
9
9
9
9
9
9
9
9
9
9
9
9
9
9
9
9
9
9
9
9
9
9
9
9
9
9
9
9
9
9
9
9
9
9
9
9
9
9
9
9
9
9
9
9
9
9
9
9
9
9
9
9
9
9
9
9
9
9
9
9
9
9
9
9
9
9
9
9
9
9
9
9
9
9
9
9
9
9
9
9
9
9
9
9
9
9
9
9
9
9
9
9
9
9
9
9
9
9
9
9
9
9
9
9
9
9
9
9
9
9
9
9
9
9
9
9
9
9
9
9
9
9
9
9
9
9
9
9
9
9
9
9
9
9
9
9
9
9
9
9
9
9
9
9
9
9
9
9
9
9
9
9
9
9
9
9
9
9
9
9
9
9
9
9
9
9
9
9
9
9
9
9
9
9
9
9
9
9
9
9
9
9
9
9
9
9
9
9
9
9
9
9
9
9
9
9
9
9
9
9
9
9
9
9
9
9
9
9
9
9
9
9
9
9
9
9
9
9
9
9
9
9
9
9
9
9
9
9
9
9
9
9
9
9
9
9
9
9
9
9
9
9
9
9
9
9
9
9
9
9
9
9
9
9
9
9
9
9
9
9
9
9
9
9
9
9
9
9
9
9
9
9
9
9
9
9
9
9
9
9
9
9
9
9
9
9
9
9
9
9
9
9
9
9
9
9
9
9
9
9
9
9
9
9
9
9
9
9
9
9
9
9
9
9
9
9
9
9
9
9
9
9
9
9
9
9
9
9
9
9
9
9
9
9
9
9
9
9
9
9
9
9
9
9
9
9
9
9
9
9
9
9
9
9
9
9
9
9
9
9
9
9
9
9
9
9
9
9
9
9
9
9
9
9
9
9
9
9
9
9
9
9
9
9
9
9
9
9
9
9
9
9
9
9
9
9
9
9
9
9
9
9
9
9
9
9
9
9
9
9
9
9
9
9
9
9
9
9
9
9

POINT_DATA 10238
SCALARS NODE_ID int 1
LOOKUP_TABLE default
102
103
204
203
1
2
3
104
305
304
205
306
4
105
206
406
405
407
307
408
5
106
207
308
507
506
508
509
409
510
6
107
208
309
410
608
607
609
610
611
511
612
7
108
209
310
411
512
709
708
710
711
712
713
613
714
8
109
210
311
412
513
614
810
809
811
812
813
814
815
715
816
9
110
211
312
413
514
615
716
911
910
912
913
914
915
916
917
817
918
10
111
212
313
414
515
616
717
818
1012
1011
1013
1014
1015
1016
1017
1018
1019
919
1020
11
112
213
314
415
516
617
718
819
920
1113
1112
1114
1115
1116
1117
1118
1119
1120
1121
1021
1122
12
113
214
315
416
517
618
719
820
921
1022
1214
1213
1215
1216
1217
1218
1219
1220
1221
1222
1223
1123
1224
13
114
215
316
417
518
619
720
821
922
1023
1124
1315
1314
1316
1317
1318
1319
1320
1321
1322
1323
1324
1325
1225
1326
14
115
216
317
418
519
620
721
822
923
1024
1125
1226
1416
1415
1417
1418
1419
1420
1421
1422
1423
1424
1425
1426
1427
1327
1428
15
116
217
318
419
520
621
722
823
924
1025
1126
1227
1328
1517
1516
1518
1519
1520
1521
1522
1523
1524
1525
1526
1527
1528
1529
1429
1530
16
117
218
319
420
521
622
723
824
925
1026
1127
1228
1329
1430
1618
1617
1619
1620
1621
1622
1623
1624
1625
1626
1627
1628
1629
1630
1631
1531
1632
17
118
219
320
421
522
623
724
825
926
1027
1128
1229
1330
1431
1532
1719
1718
1720
1721
1722
1723
1724
1725
1726
1727
1728
1729
1730
1731
1732
1733
1633
1734
18
119
220
321
422
523
624
725
826
927
1028
1129
1230
1331
1432
1533
1634
1820
1819
1821
1822
1823
1824
1825
1826
1827
1828
1829
1830
1831
1832
1833
1834
1835
1735
1836
19
120
221
322
423
524
625
726
827
928
1029
1130
1231
1332
1433
1534
1635
1736
1921
1920
1922
1923
1924
1925
1926
1927
1928
1929
1930
1931
1932
1933
1934
1935
1936
1937
1837
1938
20
121
222
323
424
525
626
727
828
929
1030
1131
1232
1333
1434
1535
1636
1737
1838
2022
2021
2023
2024
2025
2026
2027
2028
2029
2030
2031
2032
2033
2034
2035
2036
2037
2038
2039
1939
2040
21
122
223
324
425
526
627
728
829
930
1031
1132
1233
1334
1435
1536
1637
1738
1839
1940
2123
2122
2124
2125
2126
2127
2128
2129
2130
2131
2132
2133
2134
2135
2136
2137
2138
2139
2140
2141
2041
2142
22
123
224
325
426
527
628
729
830
931
1032
1133
1234
1335
1436
1537
1638
1739
1840
1941
2042
2224
2223
2225
2226
2227
2228
2229
2230
2231
2232
2233
2234
2235
2236
2237
2238
2239
2240
2241
2242
2243
2143
2244
23
124
225
326
427
528
629
730
831
932
1033
1134
1235
1336
1437
1538
1639
1740
1841
1942
2043
2144
2325
2324
2326
2327
2328
2329
2330
2331
2332
2333
2334
2335
2336
2337
2338
2339
2340
2341
2342
2343
2344
2345
2245
2346
24
125
226
327
428
529
630
731
832
933
1034
1135
1236
1337
1438
1539
1640
1741
1842
1943
2044
2145
2246
2426
2425
2427
2428
2429
2430
2431
2432
2433
2434
2435
2436
2437
2438
2439
2440
2441
2442
2443
2444
2445
2446
2447
2347
2448
25
126
227
328
429
530
631
732
833
934
1035
1136
1237
1338
1439
1540
1641
1742
1843
1944
2045
2146
2247
2348
2527
2526
2528
2529
2530
2531
2532
2533
2534
2535
2536
2537
2538
2539
2540
2541
2542
2543
2544
2545
2546
2547
2548
2549
2449
2550
26
127
228
329
430
531
632
733
834
935
1036
1137
1238
1339
1440
1541
1642
1743
1844
1945
2046
2147
2248
2349
2450
2628
2627
2629
2630
2631
2632
2633
2634
2635
2636
2637
2638
2639
2640
2641
2642
2643
2644
2645
2646
2647
2648
2649
2650
2651
2551
2652
27
128
229
330
431
532
633
734
835
936
1037
1138
1239
1340
1441
1542
1643
1744
1845
1946
2047
2148
2249
2350
2451
2552
2729
2728
2730
2731
2732
2733
2734
2735
2736
2737
2738
2739
2740
2741
2742
2743
2744
2745
2746
2747
2748
2749
2750
2751
2752
2753
2653
2754
28
129
230
331
432
533
634
735
836
937
1038
1139
1240
1341
1442
1543
1644
1745
1846
1947
2048
2149
2250
2351
2452
2553
2654
2830
2829
2831
2832
2833
2834
2835
2836
2837
2838
2839
2840
2841
2842
2843
2844
2845
2846
2847
2848
2849
2850
2851
2852
2853
2854
2855
2755
2856
29
130
231
332
433
534
635
736
837
938
1039
1140
1241
1342
1443
1544
1645
1746
1847
1948
2049
2150
2251
2352
2453
2554
2655
2756
2931
2930
2932
2933
2934
2935
2936
2937
2938
2939
2940
2941
2942
2943
2944
2945
2946
2947
2948
2949
2950
2951
2952
2953
2954
2955
2956
2957
2857
2958
30
131
232
333
434
535
636
737
838
939
1040
1141
1242
1343
1444
1545
1646
1747
1848
1949
2050
2151
2252
2353
2454
2555
2656
2757
2858
3032
3031
3033
3034
3035
3036
3037
3038
3039
3040
3041
3042
3043
3044
3045
3046
3047
3048
3049
3050
3051
3052
3053
3054
3055
3056
3057
3058
3059
2959
3060
31
132
233
334
435
536
637
738
839
940
1041
1142
1243
1344
1445
1546
1647
1748
1849
1950
2051
2152
2253
2354
2455
2556
2657
2758
2859
2960
3133
3132
3134
3135
3136
3137
3138
3139
3140
3141
3142
3143
3144
3145
3146
3147
3148
3149
3150
3151
3152
3153
3154
3155
3156
3157
3158
3159
3160
3161
3061
3162
32
133
234
335
436
537
638
739
840
941
1042
1143
1244
1345
1446
1547
1648
1749
1850
1951
2052
2153
2254
2355
2456
2557
2658
2759
2860
2961
3062
3234
3233
3235
3236
3237
3238
3239
3240
3241
3242
3243
3244
3245
3246
3247
3248
3249
3250
3251
3252
3253
3254
3255
3256
3257
3258
3259
3260
3261
3262
3263
3163
3264
33
134
235
336
437
538
639
740
841
942
1043
1144
1245
1346
1447
1548
1649
1750
1851
1952
2053
2154
2255
2356
2457
2558
2659
2760
2861
2962
3063
3164
3335
3334
3336
3337
3338
3339
3340
3341
3342
3343
3344
3345
3346
3347
3348
3349
3350
3351
3352
3353
3354
3355
3356
3357
3358
3359
3360
3361
3362
3363
3364
3365
3265
3366
34
135
236
337
438
539
640
741
842
943
1044
1145
1246
1347
1448
1549
1650
1751
1852
1953
2054
2155
2256
2357
2458
2559
2660
2761
2862
2963
3064
3165
3266
3436
3435
3437
3438
3439
3440
3441
3442
3443
3444
3445
3446
3447
3448
3449
3450
3451
3452
3453
3454
3455
3456
3457
3458
3459
3460
3461
3462
3463
3464
3465
3466
3467
3367
3468
35
136
237
338
439
540
641
742
843
944
1045
1146
1247
1348
1449
1550
1651
1752
1853
1954
2055
2156
2257
2358
2459
2560
2661
2762
2863
2964
3065
3166
3267
3368
3537
3536
3538
3539
3540
3541
3542
3543
3544
3545
3546
3547
3548
3549
3550
3551
3552
3553
3554
3555
3556
3557
3558
3559
3560
3561
3562
3563
3564
3565
3566
3567
3568
3569
3469
3570
36
137
238
339
440
541
642
743
844
945
1046
1147
1248
1349
1450
1551
1652
1753
1854
1955
2056
2157
2258
2359
2460
2561
2662
2763
2864
2965
3066
3167
3268
3369
3470
3638
3637
3639
3640
3641
3642
3643
3644
3645
3646
3647
3648
3649
3650
3651
3652
3653
3654
3655
3656
3657
3658
3659
3660
3661
3662
3663
3664
3665
3666
3667
3668
3669
3670
3671
3571
3672
37
138
239
340
441
542
643
744
845
946
1047
1148
1249
1350
1451
1552
1653
1754
1855
1956
2057
2158
2259
2360
2461
2562
2663
2764
2865
2966
3067
3168
3269
3370
3471
3572
3739
3738
3740
3741
3742
3743
3744
3745
3746
3747
3748
3749
3750
3751
3752
3753
3754
3755
3756
3757
3758
3759
3760
3761
3762
3763
3764
3765
3766
3767
3768
3769
3770
3771
3772
3773
3673
3774
38
139
240
341
442
543
644
745
846
947
1048
1149
1250
1351
1452
1553
1654
1755
1856
1957
2058
2159
2260
2361
2462
2563
2664
2765
2866
2967
3068
3169
3270
3371
3472
3573
3674
3840
3839
3841
3842
3843
3844
3845
3846
3847
3848
3849
3850
3851
3852
3853
3854
3855
3856
3857
3858
3859
3860
3861
3862
3863
3864
3865
3866
3867
3868
3869
3870
3871
3872
3873
3874
3875
3775
3876
39
140
241
342
443
544
645
746
847
948
1049
1150
1251
1352
1453
1554
1655
1756
1857
1958
2059
2160
2261
2362
2463
2564
2665
2766
2867
2968
3069
3170
3271
3372
3473
3574
3675
3776
3941
3940
3942
3943
3944
3945
3946
3947
3948
3949
3950
3951
3952
3953
3954
3955
3956
3957
3958
3959
3960
3961
3962
3963
3964
3965
3966
3967
3968
3969
3970
3971
3972
3973
3974
3975
3976
3977
3877
3978
40
141
242
343
444
545
646
747
848
949
1050
1151
1252
1353
1454
1555
1656
1757
1858
1959
2060
2161
2262
2363
2464
2565
2666
2767
2868
2969
3070
3171
3272
3373
3474
3575
3676
3777
3878
4042
4041
4043
4044
4045
4046
4047
4048
4049
4050
4051
4052
4053
4054
4055
4056
4057
4058
4059
4060
4061
4062
4063
4064
4065
4066
4067
4068
4069
4070
4071
4072
4073
4074
4075
4076
4077
4078
4079
3979
4080
41
142
243
344
445
546
647
748
849
950
1051
1152
1253
1354
1455
1556
1657
1758
1859
1960
2061
2162
2263
2364
2465
2566
2667
2768
2869
2970
3071
3172
3273
3374
3475
3576
3677
3778
3879
3980
4143
4142
4144
4145
4146
4147
4148
4149
4150
4151
4152
4153
4154
4155
4156
4157
4158
4159
4160
4161
4162
4163
4164
4165
4166
4167
4168
4169
4170
4171
4172
4173
4174
4175
4176
4177
4178
4179
4180
4181
4081
4182
42
143
244
345
446
547
648
749
850
951
1052
1153
1254
1355
1456
1557
1658
1759
1860
1961
2062
2163
2264
2365
2466
2567
2668
2769
2870
2971
3072
3173
3274
3375
3476
3577
3678
3779
3880
3981
4082
4244
4243
4245
4246
4247
4248
4249
4250
4251
4252
4253
4254
4255
4256
4257
4258
4259
4260
4261
4262
4263
4264
4265
4266
4267
4268
4269
4270
4271
4272
4273
4274
4275
4276
4277
4278
4279
4280
4281
4282
4283
4183
4284
43
144
245
346
447
548
649
750
851
952
1053
1154
1255
1356
1457
1558
1659
1760
1861
1962
2063
2164
2265
2366
2467
2568
2669
2770
2871
2972
3073
3174
3275
3376
3477
3578
3679
3780
3881
3982
4083
4184
4345
4344
4346
4347
4348
4349
4350
4351
4352
4353
4354
4355
4356
4357
4358
4359
4360
4361
4362
4363
4364
4365
4366
4367
4368
4369
4370
4371
4372
4373
4374
4375
4376
4377
4378
4379
4380
4381
4382
4383
4384
4385
4285
4386
44
145
246
347
448
549
650
751
852
953
1054
1155
1256
1357
1458
1559
1660
1761
1862
1963
2064
2165
2266
2367
2468
2569
2670
2771
2872
2973
3074
3175
3276
3377
3478
3579
3680
3781
3882
3983
4084
4185
4286
4446
4445
4447
4448
4449
4450
4451
4452
4453
4454
4455
4456
4457
4458
4459
4460
4461
4462
4463
4464
4465
4466
4467
4468
4469
4470
4471
4472
4473
4474
4475
4476
4477
4478
4479
4480
4481
4482
4483
4484
4485
4486
4487
4387
4488
45
146
247
348
449
550
651
752
853
954
1055
1156
1257
1358
1459
1560
1661
1762
1863
1964
2065
2166
2267
2368
2469
2570
2671
2772
2873
2974
3075
3176
3277
3378
3479
3580
3681
3782
3883
3984
4085
4186
4287
4388
4547
4546
4548
4549
4550
4551
4552
4553
4554
4555
4556
4557
4558
4559
4560
4561
4562
4563
4564
4565
4566
4567
4568
4569
4570
4571
4572
4573
4574
4575
4576
4577
4578
4579
4580
4581
4582
4583
4584
4585
4586
4587
4588
4589
4489
4590
46
147
248
349
450
551
652
753
854
955
1056
1157
1258
1359
1460
1561
1662
1763
1864
1965
2066
2167
2268
2369
2470
2571
2672
2773
2874
2975
3076
3177
3278
3379
3480
3581
3682
3783
3884
3985
4086
4187
4288
4389
4490
4648
4647
4649
4650
4651
4652
4653
4654
4655
4656
4657
4658
4659
4660
4661
4662
4663
4664
4665
4666
4667
4668
4669
4670
4671
4672
4673
4674
4675
4676
4677
4678
4679
4680
4681
4682
4683
4684
4685
4686
4687
4688
4689
4690
4691
4591
4692
47
148
249
350
451
552
653
754
855
956
1057
1158
1259
1360
1461
1562
1663
1764
1865
1966
2067
2168
2269
2370
2471
2572
2673
2774
2875
2976
3077
3178
3279
3380
3481
3582
3683
3784
3885
3986
4087
4188
4289
4390
4491
4592
4749
4748
4750
4751
4752
4753
4754
4755
4756
4757
4758
4759
4760
4761
4762
4763
4764
4765
4766
4767
4768
4769
4770
4771
4772
4773
4774
4775
4776
4777
4778
4779
4780
4781
4782
4783
4784
4785
4786
4787
4788
4789
4790
4791
4792
4793
4693
4794
48
149
250
351
452
553
654
755
856
957
1058
1159
1260
1361
1462
1563
1664
1765
1866
1967
2068
2169
2270
2371
2472
2573
2674
2775
2876
2977
3078
3179
3280
3381
3482
3583
3684
3785
3886
3987
4088
4189
4290
4391
4492
4593
4694
4850
4849
4851
4852
4853
4854
4855
4856
4857
4858
4859
4860
4861
4862
4863
4864
4865
4866
4867
4868
4869
4870
4871
4872
4873
4874
4875
4876
4877
4878
4879
4880
4881
4882
4883
4884
4885
4886
4887
4888
4889
4890
4891
4892
4893
4894
4895
4795
4896
49
150
251
352
453
554
655
756
857
958
1059
1160
1261
1362
1463
1564
1665
1766
1867
1968
2069
2170
2271
2372
2473
2574
2675
2776
2877
2978
3079
3180
3281
3382
3483
3584
3685
3786
3887
3988
4089
4190
4291
4392
4493
4594
4695
4796
4951
4950
4952
4953
4954
4955
4956
4957
4958
4959
4960
4961
4962
4963
4964
4965
4966
4967
4968
4969
4970
4971
4972
4973
4974
4975
4976
4977
4978
4979
4980
4981
4982
4983
4984
4985
4986
4987
4988
4989
4990
4991
4992
4993
4994
4995
4996
4997
4897
4998
50
151
252
353
454
555
656
757
858
959
1060
1161
1262
1363
1464
1565
1666
1767
1868
1969
2070
2171
2272
2373
2474
2575
2676
2777
2878
2979
3080
3181
3282
3383
3484
3585
3686
3787
3888
3989
4090
4191
4292
4393
4494
4595
4696
4797
4898
5052
5051
5053
5054
5055
5056
5057
5058
5059
5060
5061
5062
5063
5064
5065
5066
5067
5068
5069
5070
5071
5072
5073
5074
5075
5076
5077
5078
5079
5080
5081
5082
5083
5084
5085
5086
5087
5088
5089
5090
5091
5092
5093
5094
5095
5096
5097
5098
5099
4999
5100
51
152
253
354
455
556
657
758
859
960
1061
1162
1263
1364
1465
1566
1667
1768
1869
1970
2071
2172
2273
2374
2475
2576
2677
2778
2879
2980
3081
3182
3283
3384
3485
3586
3687
3788
3889
3990
4091
4192
4293
4394
4495
4596
4697
4798
4899
5000
5153
5152
5154
5155
5156
5157
5158
5159
5160
5161
5162
5163
5164
5165
5166
5167
5168
5169
5170
5171
5172
5173
5174
5175
5176
5177
5178
5179
5180
5181
5182
5183
5184
5185
5186
5187
5188
5189
5190
5191
5192
5193
5194
5195
5196
5197
5198
5199
5200
5201
5101
5202
52
153
254
355
456
557
658
759
860
961
1062
1163
1264
1365
1466
1567
1668
1769
1870
1971
2072
2173
2274
2375
2476
2577
2678
2779
2880
2981
3082
3183
3284
3385
3486
3587
3688
3789
3890
3991
4092
4193
4294
4395
4496
4597
4698
4799
4900
5001
5102
5254
5253
5255
5256
5257
5258
5259
5260
5261
5262
5263
5264
5265
5266
5267
5268
5269
5270
5271
5272
5273
5274
5275
5276
5277
5278
5279
5280
5281
5282
5283
5284
5285
5286
5287
5288
5289
5290
5291
5292
5293
5294
5295
5296
5297
5298
5299
5300
5301
5302
5303
5203
5304
53
154
255
356
457
558
659
760
861
962
1063
1164
1265
1366
1467
1568
1669
1770
1871
1972
2073
2174
2275
2376
2477
2578
2679
2780
2881
2982
3083
3184
3285
3386
3487
3588
3689
3790
3891
3992
4093
4194
4295
4396
4497
4598
4699
4800
4901
5002
5103
5204
5355
5354
5356
5357
5358
5359
5360
5361
5362
5363
5364
5365
5366
5367
5368
5369
5370
5371
5372
5373
5374
5375
5376
5377
5378
5379
5380
5381
5382
5383
5384
5385
5386
5387
5388
5389
5390
5391
5392
5393
5394
5395
5396
5397
5398
5399
5400
5401
5402
5403
5404
5405
5305
5406
54
155
256
357
458
559
660
761
862
963
1064
1165
1266
1367
1468
1569
1670
1771
1872
1973
2074
2175
2276
2377
2478
2579
2680
2781
2882
2983
3084
3185
3286
3387
3488
3589
3690
3791
3892
3993
4094
4195
4296
4397
4498
4599
4700
4801
4902
5003
5104
5205
5306
5456
5455
5457
5458
5459
5460
5461
5462
5463
5464
5465
5466
5467
5468
5469
5470
5471
5472
5473
5474
5475
5476
5477
5478
5479
5480
5481
5482
5483
5484
5485
5486
5487
5488
5489
5490
5491
5492
5493
5494
5495
5496
5497
5498
5499
5500
5501
5502
5503
5504
5505
5506
5507
5407
5508
55
156
257
358
459
560
661
762
863
964
1065
1166
1267
1368
1469
1570
1671
1772
1873
1974
2075
2176
2277
2378
2479
2580
2681
2782
2883
2984
3085
3186
3287
3388
3489
3590
3691
3792
3893
3994
4095
4196
4297
4398
4499
4600
4701
4802
4903
5004
5105
5206
5307
5408
5557
5556
5558
5559
5560
5561
5562
5563
5564
5565
5566
5567
5568
5569
5570
5571
5572
5573
5574
5575
5576
5577
5578
5579
5580
5581
5582
5583
5584
5585
5586
5587
5588
5589
5590
5591
5592
5593
5594
5595
5596
5597
5598
5599
5600
5601
5602
5603
5604
5605
5606
5607
5608
5609
5509
5610
56
157
258
359
460
561
662
763
864
965
1066
1167
1268
1369
1470
1571
1672
1773
1874
1975
2076
2177
2278
2379
2480
2581
2682
2783
2884
2985
3086
3187
3288
3389
3490
3591
3692
3793
3894
3995
4096
4197
4298
4399
4500
4601
4702
4803
4904
5005
5106
5207
5308
5409
5510
5658
5657
5659
5660
5661
5662
5663
5664
5665
5666
5667
5668
5669
5670
5671
5672
5673
5674
5675
5676
5677
5678
5679
5680
5681
5682
5683
5684
5685
5686
5687
5688
5689
5690
5691
5692
5693
5694
5695
5696
5697
5698
5699
5700
5701
5702
5703
5704
5705
5706
5707
5708
5709
5710
5711
5611
5712
57
158
259
360
461
562
663
764
865
966
1067
1168
1269
1370
1471
1572
1673
1774
1875
1976
2077
2178
2279
2380
2481
2582
2683
2784
2885
2986
3087
3188
3289
3390
3491
3592
3693
3794
3895
3996
4097
4198
4299
4400
4501
4602
4703
4804
4905
5006
5107
5208
5309
5410
5511
5612
5759
5758
5760
5761
5762
5763
5764
5765
5766
5767
5768
5769
5770
5771
5772
5773
5774
5775
5776
5777
5778
5779
5780
5781
5782
5783
5784
5785
5786
5787
5788
5789
5790
5791
5792
5793
5794
5795
5796
5797
5798
5799
5800
5801
5802
5803
5804
5805
5806
5807
5808
5809
5810
5811
5812
5813
5713
5814
58
159
260
361
462
563
664
765
866
967
1068
1169
1270
1371
1472
1573
1674
1775
1876
1977
2078
2179
2280
2381
2482
2583
2684
2785
2886
2987
3088
3189
3290
3391
3492
3593
3694
3795
3896
3997
4098
4199
4300
4401
4502
4603
4704
4805
4906
5007
5108
5209
5310
5411
5512
5613
5714
5860
5859
5861
5862
5863
5864
5865
5866
5867
5868
5869
5870
5871
5872
5873
5874
5875
5876
5877
5878
5879
5880
5881
5882
5883
5884
5885
5886
5887
5888
5889
5890
5891
5892
5893
5894
5895
5896
5897
5898
5899
5900
5901
5902
5903
5904
5905
5906
5907
5908
5909
5910
5911
5912
5913
5914
5915
5815
5916
59
160
261
362
463
564
665
766
867
968
1069
1170
1271
1372
1473
1574
1675
1776
1877
1978
2079
2180
2281
2382
2483
2584
2685
2786
2887
2988
3089
3190
3291
3392
3493
3594
3695
3796
3897
3998
4099
4200
4301
4402
4503
4604
4705
4806
4907
5008
5109
5210
5311
5412
5513
5614
5715
5816
5961
5960
5962
5963
5964
5965
5966
5967
5968
5969
5970
5971
5972
5973
5974
5975
5976
5977
5978
5979
5980
5981
5982
5983
5984
5985
5986
5987
5988
5989
5990
5991
5992
5993
5994
5995
5996
5997
5998
5999
6000
6001
6002
6003
6004
6005
6006
6007
6008
6009
6010
6011
6012
6013
6014
6015
6016
6017
5917
6018
60
161
262
363
464
565
666
767
868
969
1070
1171
1272
1373
1474
1575
1676
1777
1878
1979
2080
2181
2282
2383
2484
2585
2686
2787
2888
2989
3090
3191
3292
3393
3494
3595
3696
3797
3898
3999
4100
4201
4302
4403
4504
4605
4706
4807
4908
5009
5110
5211
5312
5413
5514
5615
5716
5817
5918
6062
6061
6063
6064
6065
6066
6067
6068
6069
6070
6071
6072
6073
6074
6075
6076
6077
6078
6079
6080
6081
6082
6083
6084
6085
6086
6087
6088
6089
6090
6091
6092
6093
6094
6095
6096
6097
6098
6099
6100
6101
6102
6103
6104
6105
6106
6107
6108
6109
6110
6111
6112
6113
6114
6115
6116
6117
6118
6119
6019
6120
61
162
263
364
465
566
667
768
869
970
1071
1172
1273
1374
1475
1576
1677
1778
1879
1980
2081
2182
2283
2384
2485
2586
2687
2788
2889
2990
3091
3192
3293
3394
3495
3596
3697
3798
3899
4000
4101
4202
4303
4404
4505
4606
4707
4808
4909
5010
5111
5212
5313
5414
5515
5616
5717
5818
5919
6020
6163
6162
6164
6165
6166
6167
6168
6169
6170
6171
6172
6173
6174
6175
6176
6177
6178
6179
6180
6181
6182
6183
6184
6185
6186
6187
6188
6189
6190
6191
6192
6193
6194
6195
6196
6197
6198
6199
6200
6201
6202
6203
6204
6205
6206
6207
6208
6209
6210
6211
6212
6213
6214
6215
6216
6217
6218
6219
6220
6221
6121
6222
62
163
264
365
466
567
668
769
870
971
1072
1173
1274
1375
1476
1577
1678
1779
1880
1981
2082
2183
2284
2385
2486
2587
2688
2789
2890
2991
3092
3193
3294
3395
3496
3597
3698
3799
3900
4001
4102
4203
4304
4405
4506
4607
4708
4809
4910
5011
5112
5213
5314
5415
5516
5617
5718
5819
5920
6021
6122
6264
6263
6265
6266
6267
6268
6269
6270
6271
6272
6273
6274
6275
6276
6277
6278
6279
6280
6281
6282
6283
6284
6285
6286
6287
6288
6289
6290
6291
6292
6293
6294
6295
6296
6297
6298
6299
6300
6301
6302
6303
6304
6305
6306
6307
6308
6309
6310
6311
6312
6313
6314
6315
6316
6317
6318
6319
6320
6321
6322
6323
6223
6324
63
164
265
366
467
568
669
770
871
972
1073
1174
1275
1376
1477
1578
1679
1780
1881
1982
2083
2184
2285
2386
2487
2588
2689
2790
2891
2992
3093
3194
3295
3396
3497
3598
3699
3800
3901
4002
4103
4204
4305
4406
4507
4608
4709
4810
4911
5012
5113
5214
5315
5416
5517
5618
5719
5820
5921
6022
6123
6224
6365
6364
6366
6367
6368
6369
6370
6371
6372
6373
6374
6375
6376
6377
6378
6379
6380
6381
6382
6383
6384
6385
6386
6387
6388
6389
6390
6391
6392
6393
6394
6395
6396
6397
6398
6399
6400
6401
6402
6403
6404
6405
6406
6407
6408
6409
6410
6411
6412
6413
6414
6415
6416
6417
6418
6419
6420
6421
6422
6423
6424
6425
6325
6426
64
165
266
367
468
569
670
771
872
973
1074
1175
1276
1377
1478
1579
1680
1781
1882
1983
2084
2185
2286
2387
2488
2589
2690
2791
2892
2993
3094
3195
3296
3397
3498
3599
3700
3801
3902
4003
4104
4205
4306
4407
4508
4609
4710
4811
4912
5013
5114
5215
5316
5417
5518
5619
5720
5821
5922
6023
6124
6225
6326
6466
6465
6467
6468
6469
6470
6471
6472
6473
6474
6475
6476
6477
6478
6479
6480
6481
6482
6483
6484
6485
6486
6487
6488
6489
6490
6491
6492
6493
6494
6495
6496
6497
6498
6499
6500
6501
6502
6503
6504
6505
6506
6507
6508
6509
6510
6511
6512
6513
6514
6515
6516
6517
6518
6519
6520
6521
6522
6523
6524
6525
6526
6527
6427
6528
65
166
267
368
469
570
671
772
873
974
1075
1176
1277
1378
1479
1580
1681
1782
1883
1984
2085
2186
2287
2388
2489
2590
2691
2792
2893
2994
3095
3196
3297
3398
3499
3600
3701
3802
3903
4004
4105
4206
4307
4408
4509
4610
4711
4812
4913
5014
5115
5216
5317
5418
5519
5620
5721
5822
5923
6024
6125
6226
6327
6428
6567
6566
6568
6569
6570
6571
6572
6573
6574
6575
6576
6577
6578
6579
6580
6581
6582
6583
6584
6585
6586
6587
6588
6589
6590
6591
6592
6593
6594
6595
6596
6597
6598
6599
6600
6601
6602
6603
6604
6605
6606
6607
6608
6609
6610
6611
6612
6613
6614
6615
6616
6617
6618
6619
6620
6621
6622
6623
6624
6625
6626
6627
6628
6629
6529
6630
66
167
268
369
470
571
672
773
874
975
1076
1177
1278
1379
1480
1581
1682
1783
1884
1985
2086
2187
2288
2389
2490
2591
2692
2793
2894
2995
3096
3197
3298
3399
3500
3601
3702
3803
3904
4005
4106
4207
4308
4409
4510
4611
4712
4813
4914
5015
5116
5217
5318
5419
5520
5621
5722
5823
5924
6025
6126
6227
6328
6429
6530
6668
6667
6669
6670
6671
6672
6673
6674
6675
6676
6677
6678
6679
6680
6681
6682
6683
6684
6685
6686
6687
6688
6689
6690
6691
6692
6693
6694
6695
6696
6697
6698
6699
6700
6701
6702
6703
6704
6705
6706
6707
6708
6709
6710
6711
6712
6713
6714
6715
6716
6717
6718
6719
6720
6721
6722
6723
6724
6725
6726
6727
6728
6729
6730
6731
6631
6732
67
168
269
370
471
572
673
774
875
976
1077
1178
1279
1380
1481
1582
1683
1784
1885
1986
2087
2188
2289
2390
2491
2592
2693
2794
2895
2996
3097
3198
3299
3400
3501
3602
3703
3804
3905
4006
4107
4208
4309
4410
4511
4612
4713
4814
4915
5016
5117
5218
5319
5420
5521
5622
5723
5824
5925
6026
6127
6228
6329
6430
6531
6632
6769
6768
6770
6771
6772
6773
6774
6775
6776
6777
6778
6779
6780
6781
6782
6783
6784
6785
6786
6787
6788
6789
6790
6791
6792
6793
6794
6795
6796
6797
6798
6799
6800
6801
6802
6803
6804
6805
6806
6807
6808
6809
6810
6811
6812
6813
6814
6815
6816
6817
6818
6819
6820
6821
6822
6823
6824
6825
6826
6827
6828
6829
6830
6831
6832
6833
6733
6834
68
169
270
371
472
573
674
775
876
977
1078
1179
1280
1381
1482
1583
1684
1785
1886
1987
2088
2189
2290
2391
2492
2593
2694
2795
2896
2997
3098
3199
3300
3401
3502
3603
3704
3805
3906
4007
4108
4209
4310
4411
4512
4613
4714
4815
4916
5017
5118
5219
5320
5421
5522
5623
5724
5825
5926
6027
6128
6229
6330
6431
6532
6633
6734
6870
6869
6871
6872
6873
6874
6875
6876
6877
6878
6879
6880
6881
6882
6883
6884
6885
6886
6887
6888
6889
6890
6891
6892
6893
6894
6895
6896
6897
6898
6899
6900
6901
6902
6903
6904
6905
6906
6907
6908
6909
6910
6911
6912
6913
6914
6915
6916
6917
6918
6919
6920
6921
6922
6923
6924
6925
6926
6927
6928
6929
6930
6931
6932
6933
6934
6935
6835
6936
69
170
271
372
473
574
675
776
877
978
1079
1180
1281
1382
1483
1584
1685
1786
1887
1988
2089
2190
2291
2392
2493
2594
2695
2796
2897
2998
3099
3200
3301
3402
3503
3604
3705
3806
3907
4008
4109
4210
4311
4412
4513
4614
4715
4816
4917
5018
5119
5220
5321
5422
5523
5624
5725
5826
5927
6028
6129
6230
6331
6432
6533
6634
6735
6836
6971
6970
6972
6973
6974
6975
6976
6977
6978
6979
6980
6981
6982
6983
6984
6985
6986
6987
6988
6989
6990
6991
6992
6993
6994
6995
6996
6997
6998
6999
7000
7001
7002
7003
7004
7005
7006
7007
7008
7009
7010
7011
7012
7013
7014
7015
7016
7017
7018
7019
7020
7021
7022
7023
7024
7025
7026
7027
7028
7029
7030
7031
7032
7033
7034
7035
7036
7037
6937
7038
70
171
272
373
474
575
676
777
878
979
1080
1181
1282
1383
1484
1585
1686
1787
1888
1989
2090
2191
2292
2393
2494
2595
2696
2797
2898
2999
3100
3201
3302
3403
3504
3605
3706
3807
3908
4009
4110
4211
4312
4413
4514
4615
4716
4817
4918
5019
5120
5221
5322
5423
5524
5625
5726
5827
5928
6029
6130
6231
6332
6433
6534
6635
6736
6837
6938
7072
7071
7073
7074
7075
7076
7077
7078
7079
7080
7081
7082
7083
7084
7085
7086
7087
7088
7089
7090
7091
7092
7093
7094
7095
7096
7097
7098
7099
7100
7101
7102
7103
7104
7105
7106
7107
7108
7109
7110
7111
7112
7113
7114
7115
7116
7117
7118
7119
7120
7121
7122
7123
7124
7125
7126
7127
7128
7129
7130
7131
7132
7133
7134
7135
7136
7137
7138
7139
7039
7140
71
172
273
374
475
576
677
778
879
980
1081
1182
1283
1384
1485
1586
1687
1788
1889
1990
2091
2192
2293
2394
2495
2596
2697
2798
2899
3000
3101
3202
3303
3404
3505
3606
3707
3808
3909
4010
4111
4212
4313
4414
4515
4616
4717
4818
4919
5020
5121
5222
5323
5424
5525
5626
5727
5828
5929
6030
6131
6232
6333
6434
6535
6636
6737
6838
6939
7040
7173
7172
7174
7175
7176
7177
7178
7179
7180
7181
7182
7183
7184
7185
7186
7187
7188
7189
7190
7191
7192
7193
7194
7195
7196
7197
7198
7199
7200
7201
7202
7203
7204
7205
7206
7207
7208
7209
7210
7211
7212
7213
7214
7215
7216
7217
7218
7219
7220
7221
7222
7223
7224
7225
7226
7227
7228
7229
7230
7231
7232
7233
7234
7235
7236
7237
7238
7239
7240
7241
7141
7242
72
173
274
375
476
577
678
779
880
981
1082
1183
1284
1385
1486
1587
1688
1789
1890
1991
2092
2193
2294
2395
2496
2597
2698
2799
2900
3001
3102
3203
3304
3405
3506
3607
3708
3809
3910
4011
4112
4213
4314
4415
4516
4617
4718
4819
4920
5021
5122
5223
5324
5425
5526
5627
5728
5829
5930
6031
6132
6233
6334
6435
6536
6637
6738
6839
6940
7041
7142
7274
7273
7275
7276
7277
7278
7279
7280
7281
7282
7283
7284
7285
7286
7287
7288
7289
7290
7291
7292
7293
7294
7295
7296
7297
7298
7299
7300
7301
7302
7303
7304
7305
7306
7307
7308
7309
7310
7311
7312
7313
7314
7315
7316
7317
7318
7319
7320
7321
7322
7323
7324
7325
7326
7327
7328
7329
7330
7331
7332
7333
7334
7335
7336
7337
7338
7339
7340
7341
7342
7343
7243
7344
73
174
275
376
477
578
679
780
881
982
1083
1184
1285
1386
1487
1588
1689
1790
1891
1992
2093
2194
2295
2396
2497
2598
2699
2800
2901
3002
3103
3204
3305
3406
3507
3608
3709
3810
3911
4012
4113
4214
4315
4416
4517
4618
4719
4820
4921
5022
5123
5224
5325
5426
5527
5628
5729
5830
5931
6032
6133
6234
6335
6436
6537
6638
6739
6840
6941
7042
7143
7244
7375
7374
7376
7377
7378
7379
7380
7381
7382
7383
7384
7385
7386
7387
7388
7389
7390
7391
7392
7393
7394
7395
7396
7397
7398
7399
7400
7401
7402
7403
7404
7405
7406
7407
7408
7409
7410
7411
7412
7413
7414
7415
7416
7417
7418
7419
7420
7421
7422
7423
7424
7425
7426
7427
7428
7429
7430
7431
7432
7433
7434
7435
7436
7437
7438
7439
7440
7441
7442
7443
7444
7445
7345
7446
74
175
276
377
478
579
680
781
882
983
1084
1185
1286
1387
1488
1589
1690
1791
1892
1993
2094
2195
2296
2397
2498
2599
2700
2801
2902
3003
3104
3205
3306
3407
3508
3609
3710
3811
3912
4013
4114
4215
4316
4417
4518
4619
4720
4821
4922
5023
5124
5225
5326
5427
5528
5629
5730
5831
5932
6033
6134
6235
6336
6437
6538
6639
6740
6841
6942
7043
7144
7245
7346
7476
7475
7477
7478
7479
7480
7481
7482
7483
7484
7485
7486
7487
7488
7489
7490
7491
7492
7493
7494
7495
7496
7497
7498
7499
7500
7501
7502
7503
7504
7505
7506
7507
7508
7509
7510
7511
7512
7513
7514
7515
7516
7517
7518
7519
7520
7521
7522
7523
7524
7525
7526
7527
7528
7529
7530
7531
7532
7533
7534
7535
7536
7537
7538
7539
7540
7541
7542
7543
7544
7545
7546
7547
7447
7548
75
176
277
378
479
580
681
782
883
984
1085
1186
1287
1388
1489
1590
1691
1792
1893
1994
2095
2196
2297
2398
2499
2600
2701
2802
2903
3004
3105
3206
3307
3408
3509
3610
3711
3812
3913
4014
4115
4216
4317
4418
4519
4620
4721
4822
4923
5024
5125
5226
5327
5428
5529
5630
5731
5832
5933
6034
6135
6236
6337
6438
6539
6640
6741
6842
6943
7044
7145
7246
7347
7448
7577
7576
7578
7579
7580
7581
7582
7583
7584
7585
7586
7587
7588
7589
7590
7591
7592
7593
7594
7595
7596
7597
7598
7599
7600
7601
7602
7603
7604
7605
7606
7607
7608
7609
7610
7611
7612
7613
7614
7615
7616
7617
7618
7619
7620
7621
7622
7623
7624
7625
7626
7627
7628
7629
7630
7631
7632
7633
7634
7635
7636
7637
7638
7639
7640
7641
7642
7643
7644
7645
7646
7647
7648
7649
7549
7650
76
177
278
379
480
581
682
783
884
985
1086
1187
1288
1389
1490
1591
1692
1793
1894
1995
2096
2197
2298
2399
2500
2601
2702
2803
2904
3005
3106
3207
3308
3409
3510
3611
3712
3813
3914
4015
4116
4217
4318
4419
4520
4621
4722
4823
4924
5025
5126
5227
5328
5429
5530
5631
5732
5833
5934
6035
6136
6237
6338
6439
6540
6641
6742
6843
6944
7045
7146
7247
7348
7449
7550
7678
7677
7679
7680
7681
7682
7683
7684
7685
7686
7687
7688
7689
7690
7691
7692
7693
7694
7695
7696
7697
7698
7699
7700
7701
7702
7703
7704
7705
7706
7707
7708
7709
7710
7711
7712
7713
7714
7715
7716
7717
7718
7719
7720
7721
7722
7723
7724
7725
7726
7727
7728
7729
7730
7731
7732
7733
7734
7735
7736
7737
7738
7739
7740
7741
7742
7743
7744
7745
7746
7747
7748
7749
7750
7751
7651
7752
77
178
279
380
481
582
683
784
885
986
1087
1188
1289
1390
1491
1592
1693
1794
1895
1996
2097
2198
2299
2400
2501
2602
2703
2804
2905
3006
3107
3208
3309
3410
3511
3612
3713
3814
3915
4016
4117
4218
4319
4420
4521
4622
4723
4824
4925
5026
5127
5228
5329
5430
5531
5632
5733
5834
5935
6036
6137
6238
6339
6440
6541
6642
6743
6844
6945
7046
7147
7248
7349
7450
7551
7652
7779
7778
7780
7781
7782
7783
7784
7785
7786
7787
7788
7789
7790
7791
7792
7793
7794
7795
7796
7797
7798
7799
7800
7801
7802
7803
7804
7805
7806
7807
7808
7809
7810
7811
7812
7813
7814
7815
7816
7817
7818
7819
7820
7821
7822
7823
7824
7825
7826
7827
7828
7829
7830
7831
7832
7833
7834
7835
7836
7837
7838
7839
7840
7841
7842
7843
7844
7845
7846
7847
7848
7849
7850
7851
7852
7853
7753
7854
78
179
280
381
482
583
684
785
886
987
1088
1189
1290
1391
1492
1593
1694
1795
1896
1997
2098
2199
2300
2401
2502
2603
2704
2805
2906
3007
3108
3209
3310
3411
3512
3613
3714
3815
3916
4017
4118
4219
4320
4421
4522
4623
4724
4825
4926
5027
5128
5229
5330
5431
5532
5633
5734
5835
5936
6037
6138
6239
6340
6441
6542
6643
6744
6845
6946
7047
7148
7249
7350
7451
7552
7653
7754
7880
7879
7881
7882
7883
7884
7885
7886
7887
7888
7889
7890
7891
7892
7893
7894
7895
7896
7897
7898
7899
7900
7901
7902
7903
7904
7905
7906
7907
7908
7909
7910
7911
7912
7913
7914
7915
7916
7917
7918
7919
7920
7921
7922
7923
7924
7925
7926
7927
7928
7929
7930
7931
7932
7933
7934
7935
7936
7937
7938
7939
7940
7941
7942
7943
7944
7945
7946
7947
7948
7949
7950
7951
7952
7953
7954
7955
7855
7956
79
180
281
382
483
584
685
786
887
988
1089
1190
1291
1392
1493
1594
1695
1796
1897
1998
2099
2200
2301
2402
2503
2604
2705
2806
2907
3008
3109
3210
3311
3412
3513
3614
3715
3816
3917
4018
4119
4220
4321
4422
4523
4624
4725
4826
4927
5028
5129
5230
5331
5432
5533
5634
5735
5836
5937
6038
6139
6240
6341
6442
6543
6644
6745
6846
6947
7048
7149
7250
7351
7452
7553
7654
7755
7856
7981
7980
7982
7983
7984
7985
7986
7987
7988
7989
7990
7991
7992
7993
7994
7995
7996
7997
7998
7999
8000
8001
8002
8003
8004
8005
8006
8007
8008
8009
8010
8011
8012
8013
8014
8015
8016
8017
8018
8019
8020
8021
8022
8023
8024
8025
8026
8027
8028
8029
8030
8031
8032
8033
8034
8035
8036
8037
8038
8039
8040
8041
8042
8043
8044
8045
8046
8047
8048
8049
8050
8051
8052
8053
8054
8055
8056
8057
7957
8058
80
181
282
383
484
585
686
787
888
989
1090
1191
1292
1393
1494
1595
1696
1797
1898
1999
2100
2201
2302
2403
2504
2605
2706
2807
2908
3009
3110
3211
3312
3413
3514
3615
3716
3817
3918
4019
4120
4221
4322
4423
4524
4625
4726
4827
4928
5029
5130
5231
5332
5433
5534
5635
5736
5837
5938
6039
6140
6241
6342
6443
6544
6645
6746
6847
6948
7049
7150
7251
7352
7453
7554
7655
7756
7857
7958
8082
8081
8083
8084
8085
8086
8087
8088
8089
8090
8091
8092
8093
8094
8095
8096
8097
8098
8099
8100
8101
8102
8103
8104
8105
8106
8107
8108
8109
8110
8111
8112
8113
8114
8115
8116
8117
8118
8119
8120
8121
8122
8123
8124
8125
8126
8127
8128
8129
8130
8131
8132
8133
8134
8135
8136
8137
8138
8139
8140
8141
8142
8143
8144
8145
8146
8147
8148
8149
8150
8151
8152
8153
8154
8155
8156
8157
8158
8159
8059
8160
81
182
283
384
485
586
687
788
889
990
1091
1192
1293
1394
1495
1596
1697
1798
1899
2000
2101
2202
2303
2404
2505
2606
2707
2808
2909
3010
3111
3212
3313
3414
3515
3616
3717
3818
3919
4020
4121
4222
4323
4424
4525
4626
4727
4828
4929
5030
5131
5232
5333
5434
5535
5636
5737
5838
5939
6040
6141
6242
6343
6444
6545
6646
6747
6848
6949
7050
7151
7252
7353
7454
7555
7656
7757
7858
7959
8060
8183
8182
8184
8185
8186
8187
8188
8189
8190
8191
8192
8193
8194
8195
8196
8197
8198
8199
8200
8201
8202
8203
8204
8205
8206
8207
8208
8209
8210
8211
8212
8213
8214
8215
8216
8217
8218
8219
8220
8221
8222
8223
8224
8225
8226
8227
8228
8229
8230
8231
8232
8233
8234
8235
8236
8237
8238
8239
8240
8241
8242
8243
8244
8245
8246
8247
8248
8249
8250
8251
8252
8253
8254
8255
8256
8257
8258
8259
8260
8261
8161
8262
82
183
284
385
486
587
688
789
890
991
1092
1193
1294
1395
1496
1597
1698
1799
1900
2001
2102
2203
2304
2405
2506
2607
2708
2809
2910
3011
3112
3213
3314
3415
3516
3617
3718
3819
3920
4021
4122
4223
4324
4425
4526
4627
4728
4829
4930
5031
5132
5233
5334
5435
5536
5637
5738
5839
5940
6041
6142
6243
6344
6445
6546
6647
6748
6849
6950
7051
7152
7253
7354
7455
7556
7657
7758
7859
7960
8061
8162
8284
8283
8285
8286
8287
8288
8289
8290
8291
8292
8293
8294
8295
8296
8297
8298
8299
8300
8301
8302
8303
8304
8305
8306
8307
8308
8309
8310
8311
8312
8313
8314
8315
8316
8317
8318
8319
8320
8321
8322
8323
8324
8325
8326
8327
8328
8329
8330
8331
8332
8333
8334
8335
8336
8337
8338
8339
8340
8341
8342
8343
8344
8345
8346
8347
8348
8349
8350
8351
8352
8353
8354
8355
8356
8357
8358
8359
8360
8361
8362
8363
8263
8364
83
184
285
386
487
588
689
790
891
992
1093
1194
1295
1396
1497
1598
1699
1800
1901
2002
2103
2204
2305
2406
2507
2608
2709
2810
2911
3012
3113
3214
3315
3416
3517
3618
3719
3820
3921
4022
4123
4224
4325
4426
4527
4628
4729
4830
4931
5032
5133
5234
5335
5436
5537
5638
5739
5840
5941
6042
6143
6244
6345
6446
6547
6648
6749
6850
6951
7052
7153
7254
7355
7456
7557
7658
7759
7860
7961
8062
8163
8264
8385
8384
8386
8387
8388
8389
8390
8391
8392
8393
8394
8395
8396
8397
8398
8399
8400
8401
8402
8403
8404
8405
8406
8407
8408
8409
8410
8411
8412
8413
8414
8415
8416
8417
8418
8419
8420
8421
8422
8423
8424
8425
8426
8427
8428
8429
8430
8431
8432
8433
8434
8435
8436
8437
8438
8439
8440
8441
8442
8443
8444
8445
8446
8447
8448
8449
8450
8451
8452
8453
8454
8455
8456
8457
8458
8459
8460
8461
8462
8463
8464
8465
8365
8466
84
185
286
387
488
589
690
791
892
993
1094
1195
1296
1397
1498
1599
1700
1801
1902
2003
2104
2205
2306
2407
2508
2609
2710
2811
2912
3013
3114
3215
3316
3417
3518
3619
3720
3821
3922
4023
4124
4225
4326
4427
4528
4629
4730
4831
4932
5033
5134
5235
5336
5437
5538
5639
5740
5841
5942
6043
6144
6245
6346
6447
6548
6649
6750
6851
6952
7053
7154
7255
7356
7457
7558
7659
7760
7861
7962
8063
8164
8265
8366
8486
8485
8487
8488
8489
8490
8491
8492
8493
8494
8495
8496
8497
8498
8499
8500
8501
8502
8503
8504
8505
8506
8507
8508
8509
8510
8511
8512
8513
8514
8515
8516
8517
8518
8519
8520
8521
8522
8523
8524
8525
8526
8527
8528
8529
8530
8531
8532
8533
8534
8535
8536
8537
8538
8539
8540
8541
8542
8543
8544
8545
8546
8547
8548
8549
8550
8551
8552
8553
8554
8555
8556
8557
8558
8559
8560
8561
8562
8563
8564
8565
8566
8567
8467
8568
85
186
287
388
489
590
691
792
893
994
1095
1196
1297
1398
1499
1600
1701
1802
1903
2004
2105
2206
2307
2408
2509
2610
2711
2812
2913
3014
3115
3216
3317
3418
3519
3620
3721
3822
3923
4024
4125
4226
4327
4428
4529
4630
4731
4832
4933
5034
5135
5236
5337
5438
5539
5640
5741
5842
5943
6044
6145
6246
6347
6448
6549
6650
6751
6852
6953
7054
7155
7256
7357
7458
7559
7660
7761
7862
7963
8064
8165
8266
8367
8468
8587
8586
8588
8589
8590
8591
8592
8593
8594
8595
8596
8597
8598
8599
8600
8601
8602
8603
8604
8605
8606
8607
8608
8609
8610
8611
8612
8613
8614
8615
8616
8617
8618
8619
8620
8621
8622
8623
8624
8625
8626
8627
8628
8629
8630
8631
8632
8633
8634
8635
8636
8637
8638
8639
8640
8641
8642
8643
8644
8645
8646
8647
8648
8649
8650
8651
8652
8653
8654
8655
8656
8657
8658
8659
8660
8661
8662
8663
8664
8665
8666
8667
8668
8669
8569
8670
86
187
288
389
490
591
692
793
894
995
1096
1197
1298
1399
1500
1601
1702
1803
1904
2005
2106
2207
2308
2409
2510
2611
2712
2813
2914
3015
3116
3217
3318
3419
3520
3621
3722
3823
3924
4025
4126
4227
4328
4429
4530
4631
4732
4833
4934
5035
5136
5237
5338
5439
5540
5641
5742
5843
5944
6045
6146
6247
6348
6449
6550
6651
6752
6853
6954
7055
7156
7257
7358
7459
7560
7661
7762
7863
7964
8065
8166
8267
8368
8469
8570
8688
8687
8689
8690
8691
8692
8693
8694
8695
8696
8697
8698
8699
8700
8701
8702
8703
8704
8705
8706
8707
8708
8709
8710
8711
8712
8713
8714
8715
8716
8717
8718
8719
8720
8721
8722
8723
8724
8725
8726
8727
8728
8729
8730
8731
8732
8733
8734
8735
8736
8737
8738
8739
8740
8741
8742
8743
8744
8745
8746
8747
8748
8749
8750
8751
8752
8753
8754
8755
8756
8757
8758
8759
8760
8761
8762
8763
8764
8765
8766
8767
8768
8769
8770
8771
8671
8772
87
188
289
390
491
592
693
794
895
996
1097
1198
1299
1400
1501
1602
1703
1804
1905
2006
2107
2208
2309
2410
2511
2612
2713
2814
2915
3016
3117
3218
3319
3420
3521
3622
3723
3824
3925
4026
4127
4228
4329
4430
4531
4632
4733
4834
4935
5036
5137
5238
5339
5440
5541
5642
5743
5844
5945
6046
6147
6248
6349
6450
6551
6652
6753
6854
6955
7056
7157
7258
7359
7460
7561
7662
7763
7864
7965
8066
8167
8268
8369
8470
8571
8672
8789
8788
8790
8791
8792
8793
8794
8795
8796
8797
8798
8799
8800
8801
8802
8803
8804
8805
8806
8807
8808
8809
8810
8811
8812
8813
8814
8815
8816
8817
8818
8819
8820
8821
8822
8823
8824
8825
8826
8827
8828
8829
8830
8831
8832
8833
8834
8835
8836
8837
8838
8839
8840
8841
8842
8843
8844
8845
8846
8847
8848
8849
8850
8851
8852
8853
8854
8855
8856
8857
8858
8859
8860
8861
8862
8863
8864
8865
8866
8867
8868
8869
8870
8871
8872
8873
8773
8874
88
189
290
391
492
593
694
795
896
997
1098
1199
1300
1401
1502
1603
1704
1805
1906
2007
2108
2209
2310
2411
2512
2613
2714
2815
2916
3017
3118
3219
3320
3421
3522
3623
3724
3825
3926
4027
4128
4229
4330
4431
4532
4633
4734
4835
4936
5037
5138
5239
5340
5441
5542
5643
5744
5845
5946
6047
6148
6249
6350
6451
6552
6653
6754
6855
6956
7057
7158
7259
7360
7461
7562
7663
7764
7865
7966
8067
8168
8269
8370
8471
8572
8673
8774
8890
8889
8891
8892
8893
8894
8895
8896
8897
8898
8899
8900
8901
8902
8903
8904
8905
8906
8907
8908
8909
8910
8911
8912
8913
8914
8915
8916
8917
8918
8919
8920
8921
8922
8923
8924
8925
8926
8927
8928
8929
8930
8931
8932
8933
8934
8935
8936
8937
8938
8939
8940
8941
8942
8943
8944
8945
8946
8947
8948
8949
8950
8951
8952
8953
8954
8955
8956
8957
8958
8959
8960
8961
8962
8963
8964
8965
8966
8967
8968
8969
8970
8971
8972
8973
8974
8975
8875
8976
89
190
291
392
493
594
695
796
897
998
1099
1200
1301
1402
1503
1604
1705
1806
1907
2008
2109
2210
2311
2412
2513
2614
2715
2816
2917
3018
3119
3220
3321
3422
3523
3624
3725
3826
3927
4028
4129
4230
4331
4432
4533
4634
4735
4836
4937
5038
5139
5240
5341
5442
5543
5644
5745
5846
5947
6048
6149
6250
6351
6452
6553
6654
6755
6856
6957
7058
7159
7260
7361
7462
7563
7664
7765
7866
7967
8068
8169
8270
8371
8472
8573
8674
8775
8876
8991
8990
8992
8993
8994
8995
8996
8997
8998
8999
9000
9001
9002
9003
9004
9005
9006
9007
9008
9009
9010
9011
9012
9013
9014
9015
9016
9017
9018
9019
9020
9021
9022
9023
9024
9025
9026
9027
9028
9029
9030
9031
9032
9033
9034
9035
9036
9037
9038
9039
9040
9041
9042
9043
9044
9045
9046
9047
9048
9049
9050
9051
9052
9053
9054
9055
9056
9057
9058
9059
9060
9061
9062
9063
9064
9065
9066
9067
9068
9069
9070
9071
9072
9073
9074
9075
9076
9077
8977
9078
90
191
292
393
494
595
696
797
898
999
1100
1201
1302
1403
1504
1605
1706
1807
1908
2009
2110
2211
2312
2413
2514
2615
2716
2817
2918
3019
3120
3221
3322
3423
3524
3625
3726
3827
3928
4029
4130
4231
4332
4433
4534
4635
4736
4837
4938
5039
5140
5241
5342
5443
5544
5645
5746
5847
5948
6049
6150
6251
6352
6453
6554
6655
6756
6857
6958
7059
7160
7261
7362
7463
7564
7665
7766
7867
7968
8069
8170
8271
8372
8473
8574
8675
8776
8877
8978
9092
9091
9093
9094
9095
9096
9097
9098
9099
9100
9101
9102
9103
9104
9105
9106
9107
9108
9109
9110
9111
9112
9113
9114
9115
9116
9117
9118
9119
9120
9121
9122
9123
9124
9125
9126
9127
9128
9129
9130
9131
9132
9133
9134
9135
9136
9137
9138
9139
9140
9141
9142
9143
9144
9145
9146
9147
9148
9149
9150
9151
9152
9153
9154
9155
9156
9157
9158
9159
9160
9161
9162
9163
9164
9165
9166
9167
9168
9169
9170
9171
9172
9173
9174
9175
9176
9177
9178
9179
9079
9180
91
192
293
394
495
596
697
798
899
1000
1101
1202
1303
1404
1505
1606
1707
1808
1909
2010
2111
2212
2313
2414
2515
2616
2717
2818
2919
3020
3121
3222
3323
3424
3525
3626
3727
3828
3929
4030
4131
4232
4333
4434
4535
4636
4737
4838
4939
5040
5141
5242
5343
5444
5545
5646
5747
5848
5949
6050
6151
6252
6353
6454
6555
6656
6757
6858
6959
7060
7161
7262
7363
7464
7565
7666
7767
7868
7969
8070
8171
8272
8373
8474
8575
8676
8777
8878
8979
9080
9193
9192
9194
9195
9196
9197
9198
9199
9200
9201
9202
9203
9204
9205
9206
9207
9208
9209
9210
9211
9212
9213
9214
9215
9216
9217
9218
9219
9220
9221
9222
9223
9224
9225
9226
9227
9228
9229
9230
9231
9232
9233
9234
9235
9236
9237
9238
9239
9240
9241
9242
9243
9244
9245
9246
9247
9248
9249
9250
9251
9252
9253
9254
9255
9256
9257
9258
9259
9260
9261
9262
9263
9264
9265
9266
9267
9268
9269
9270
9271
9272
9273
9274
9275
9276
9277
9278
9279
9280
9281
9181
9282
92
193
294
395
496
597
698
799
900
1001
1102
1203
1304
1405
1506
1607
1708
1809
1910
2011
2112
2213
2314
2415
2516
2617
2718
2819
2920
3021
3122
3223
3324
3425
3526
3627
3728
3829
3930
4031
4132
4233
4334
4435
4536
4637
4738
4839
4940
5041
5142
5243
5344
5445
5546
5647
5748
5849
5950
6051
6152
6253
6354
6455
6556
6657
6758
6859
6960
7061
7162
7263
7364
7465
7566
7667
7768
7869
7970
8071
8172
8273
8374
8475
8576
8677
8778
8879
8980
9081
9182
9294
9293
9295
9296
9297
9298
9299
9300
9301
9302
9303
9304
9305
9306
9307
9308
9309
9310
9311
9312
9313
9314
9315
9316
9317
9318
9319
9320
9321
9322
9323
9324
9325
9326
9327
9328
9329
9330
9331
9332
9333
9334
9335
9336
9337
9338
9339
9340
9341
9342
9343
9344
9345
9346
9347
9348
9349
9350
9351
9352
9353
9354
9355
9356
9357
9358
9359
9360
9361
9362
9363
9364
9365
9366
9367
9368
9369
9370
9371
9372
9373
9374
9375
9376
9377
9378
9379
9380
9381
9382
9383
9283
9384
93
194
295
396
497
598
699
800
901
1002
1103
1204
1305
1406
1507
1608
1709
1810
1911
2012
2113
2214
2315
2416
2517
2618
2719
2820
2921
3022
3123
3224
3325
3426
3527
3628
3729
3830
3931
4032
4133
4234
4335
4436
4537
4638
4739
4840
4941
5042
5143
5244
5345
5446
5547
5648
5749
5850
5951
6052
6153
6254
6355
6456
6557
6658
6759
6860
6961
7062
7163
7264
7365
7466
7567
7668
7769
7870
7971
8072
8173
8274
8375
8476
8577
8678
8779
8880
8981
9082
9183
9284
9395
9394
9396
9397
9398
9399
9400
9401
9402
9403
9404
9405
9406
9407
9408
9409
9410
9411
9412
9413
9414
9415
9416
9417
9418
9419
9420
9421
9422
9423
9424
9425
9426
9427
9428
9429
9430
9431
9432
9433
9434
9435
9436
9437
9438
9439
9440
9441
9442
9443
9444
9445
9446
9447
9448
9449
9450
9451
9452
9453
9454
9455
9456
9457
9458
9459
9460
9461
9462
9463
9464
9465
9466
9467
9468
9469
9470
9471
9472
9473
9474
9475
9476
9477
9478
9479
9480
9481
9482
9483
9484
9485
9385
9486
94
195
296
397
498
599
700
801
902
1003
1104
1205
1306
1407
1508
1609
1710
1811
1912
2013
2114
2215
2316
2417
2518
2619
2720
2821
2922
3023
3124
3225
3326
3427
3528
3629
3730
3831
3932
4033
4134
4235
4336
4437
4538
4639
4740
4841
4942
5043
5144
5245
5346
5447
5548
5649
5750
5851
5952
6053
6154
6255
6356
6457
6558
6659
6760
6861
6962
7063
7164
7265
7366
7467
7568
7669
7770
7871
7972
8073
8174
8275
8376
8477
8578
8679
8780
8881
8982
9083
9184
9285
9386
9496
9495
9497
9498
9499
9500
9501
9502
9503
9504
9505
9506
9507
9508
9509
9510
9511
9512
9513
9514
9515
9516
9517
9518
9519
9520
9521
9522
9523
9524
9525
9526
9527
9528
9529
9530
9531
9532
9533
9534
9535
9536
9537
9538
9539
9540
9541
9542
9543
9544
9545
9546
9547
9548
9549
9550
9551
9552
9553
9554
9555
9556
9557
9558
9559
9560
9561
9562
9563
9564
9565
9566
9567
9568
9569
9570
9571
9572
9573
9574
9575
9576
9577
9578
9579
9580
9581
9582
9583
9584
9585
9586
9587
9487
9588
95
196
297
398
499
600
701
802
903
1004
1105
1206
1307
1408
1509
1610
1711
1812
1913
2014
2115
2216
2317
2418
2519
2620
2721
2822
2923
3024
3125
3226
3327
3428
3529
3630
3731
3832
3933
4034
4135
4236
4337
4438
4539
4640
4741
4842
4943
5044
5145
5246
5347
5448
5549
5650
5751
5852
5953
6054
6155
6256
6357
6458
6559
6660
6761
6862
6963
7064
7165
7266
7367
7468
7569
7670
7771
7872
7973
8074
8175
8276
8377
8478
8579
8680
8781
8882
8983
9084
9185
9286
9387
9488
9597
9596
9598
9599
9600
9601
9602
9603
9604
9605
9606
9607
9608
9609
9610
9611
9612
9613
9614
9615
9616
9617
9618
9619
9620
9621
9622
9623
9624
9625
9626
9627
9628
9629
9630
9631
9632
9633
9634
9635
9636
9637
9638
9639
9640
9641
9642
9643
9644
9645
9646
9647
9648
9649
9650
9651
9652
9653
9654
9655
9656
9657
9658
9659
9660
9661
9662
9663
9664
9665
9666
9667
9668
9669
9670
9671
9672
9673
9674
9675
9676
9677
9678
9679
9680
9681
9682
9683
9684
9685
9686
9687
9688
9689
9589
9690
96
197
298
399
500
601
702
803
904
1005
1106
1207
1308
1409
1510
1611
1712
1813
1914
2015
2116
2217
2318
2419
2520
2621
2722
2823
2924
3025
3126
3227
3328
3429
3530
3631
3732
3833
3934
4035
4136
4237
4338
4439
4540
4641
4742
4843
4944
5045
5146
5247
5348
5449
5550
5651
5752
5853
5954
6055
6156
6257
6358
6459
6560
6661
6762
6863
6964
7065
7166
7267
7368
7469
7570
7671
7772
7873
7974
8075
8176
8277
8378
8479
8580
8681
8782
8883
8984
9085
9186
9287
9388
9489
9590
9698
9697
9699
9700
9701
9702
9703
9704
9705
9706
9707
9708
9709
9710
9711
9712
9713
9714
9715
9716
9717
9718
9719
9720
9721
9722
9723
9724
9725
9726
9727
9728
9729
9730
9731
9732
9733
9734
9735
9736
9737
9738
9739
9740
9741
9742
9743
9744
9745
9746
9747
9748
9749
9750
9751
9752
9753
9754
9755
9756
9757
9758
9759
9760
9761
9762
9763
9764
9765
9766
9767
9768
9769
9770
9771
9772
9773
9774
9775
9776
9777
9778
9779
9780
9781
9782
9783
9784
9785
9786
9787
9788
9789
9790
9791
9691
9792
97
198
299
400
501
602
703
804
905
1006
1107
1208
1309
1410
1511
1612
1713
1814
1915
2016
2117
2218
2319
2420
2521
2622
2723
2824
2925
3026
3127
3228
3329
3430
3531
3632
3733
3834
3935
4036
4137
4238
4339
4440
4541
4642
4743
4844
4945
5046
5147
5248
5349
5450
5551
5652
5753
5854
5955
6056
6157
6258
6359
6460
6561
6662
6763
6864
6965
7066
7167
7268
7369
7470
7571
7672
7773
7874
7975
8076
8177
8278
8379
8480
8581
8682
8783
8884
8985
9086
9187
9288
9389
9490
9591
9692
9799
9798
9800
9801
9802
9803
9804
9805
9806
9807
9808
9809
9810
9811
9812
9813
9814
9815
9816
9817
9818
9819
9820
9821
9822
9823
9824
9825
9826
9827
9828
9829
9830
9831
9832
9833
9834
9835
9836
9837
9838
9839
9840
9841
9842
9843
9844
9845
9846
9847
9848
9849
9850
9851
9852
9853
9854
9855
9856
9857
9858
9859
9860
9861
9862
9863
9864
9865
9866
9867
9868
9869
9870
9871
9872
9873
9874
9875
9876
9877
9878
9879
9880
9881
9882
9883
9884
9885
9886
9887
9888
9889
9890
9891
9892
9893
9793
9894
98
199
300
401
502
603
704
805
906
1007
1108
1209
1310
1411
1512
1613
1714
1815
1916
2017
2118
2219
2320
2421
2522
2623
2724
2825
2926
3027
3128
3229
3330
3431
3532
3633
3734
3835
3936
4037
4138
4239
4340
4441
4542
4643
4744
4845
4946
5047
5148
5249
5350
5451
5552
5653
5754
5855
5956
6057
6158
6259
6360
6461
6562
6663
6764
6865
6966
7067
7168
7269
7370
7471
7572
7673
7774
7875
7976
8077
8178
8279
8380
8481
8582
8683
8784
8885
8986
9087
9188
9289
9390
9491
9592
9693
9794
9900
9899
9901
9902
9903
9904
9905
9906
9907
9908
9909
9910
9911
9912
9913
9914
9915
9916
9917
9918
9919
9920
9921
9922
9923
9924
9925
9926
9927
9928
9929
9930
9931
9932
9933
9934
9935
9936
9937
9938
9939
9940
9941
9942
9943
9944
9945
9946
9947
9948
9949
9950
9951
9952
9953
9954
9955
9956
9957
9958
9959
9960
9961
9962
9963
9964
9965
9966
9967
9968
9969
9970
9971
9972
9973
9974
9975
9976
9977
9978
9979
9980
9981
9982
9983
9984
9985
9986
9987
9988
9989
9990
9991
9992
9993
9994
9995
9895
9996
99
200
301
402
503
604
705
806
907
1008
1109
1210
1311
1412
1513
1614
1715
1816
1917
2018
2119
2220
2321
2422
2523
2624
2725
2826
2927
3028
3129
3230
3331
3432
3533
3634
3735
3836
3937
4038
4139
4240
4341
4442
4543
4644
4745
4846
4947
5048
5149
5250
5351
5452
5553
5654
5755
5856
5957
6058
6159
6260
6361
6462
6563
6664
6765
6866
6967
7068
7169
7270
7371
7472
7573
7674
7775
7876
7977
8078
8179
8280
8381
8482
8583
8684
8785
8886
8987
9088
9189
9290
9391
9492
9593
9694
9795
9896
10001
10000
10002
10003
10004
10005
10006
10007
10008
10009
10010
10011
10012
10013
10014
10015
10016
10017
10018
10019
10020
10021
10022
10023
10024
10025
10026
10027
10028
10029
10030
10031
10032
10033
10034
10035
10036
10037
10038
10039
10040
10041
10042
10043
10044
10045
10046
10047
10048
10049
10050
10051
10052
10053
10054
10055
10056
10057
10058
10059
10060
10061
10062
10063
10064
10065
10066
10067
10068
10069
10070
10071
10072
10073
10074
10075
10076
10077
10078
10079
10080
10081
10082
10083
10084
10085
10086
10087
10088
10089
10090
10091
10092
10093
10094
10095
10096
10097
9997
10098
100
201
302
403
504
605
706
807
908
1009
1110
1211
1312
1413
1514
1615
1716
1817
1918
2019
2120
2221
2322
2423
2524
2625
2726
2827
2928
3029
3130
3231
3332
3433
3534
3635
3736
3837
3938
4039
4140
4241
4342
4443
4544
4645
4746
4847
4948
5049
5150
5251
5352
5453
5554
5655
5756
5857
5958
6059
6160
6261
6362
6463
6564
6665
6766
6867
6968
7069
7170
7271
7372
7473
7574
7675
7776
7877
7978
8079
8180
8281
8382
8483
8584
8685
8786
8887
8988
9089
9190
9291
9392
9493
9594
9695
9796
9897
9998
10102
10101
10103
10104
10105
10106
10107
10108
10109
10110
10111
10112
10113
10114
10115
10116
10117
10118
10119
10120
10121
10122
10123
10124
10125
10126
10127
10128
10129
10130
10131
10132
10133
10134
10135
10136
10137
10138
10139
10140
10141
10142
10143
10144
10145
10146
10147
10148
10149
10150
10151
10152
10153
10154
10155
10156
10157
10158
10159
10160
10161
10162
10163
10164
10165
10166
10167
10168
10169
10170
10171
10172
10173
10174
10175
10176
10177
10178
10179
10180
10181
10182
10183
10184
10185
10186
10187
10188
10189
10190
10191
10192
10193
10194
10195
10196
10197
10198
10199
10099
10200
101
202
303
404
505
606
707
808
909
1010
1111
1212
1313
1414
1515
1616
1717
1818
1919
2020
2121
2222
2323
2424
2525
2626
2727
2828
2929
3030
3131
3232
3333
3434
3535
3636
3737
3838
3939
4040
4141
4242
4343
4444
4545
4646
4747
4848
4949
5050
5151
5252
5353
5454
5555
5656
5757
5858
5959
6060
6161
6262
6363
6464
6565
6666
6767
6868
6969
7070
7171
7272
7373
7474
7575
7676
7777
7878
7979
8080
8181
8282
8383
8484
8585
8686
8787
8888
8989
9090
9191
9292
9393
9494
9595
9696
9797
9898
9999
10100
10201
10208
10209
10215
10214
10202
10203
10204
10210
10221
10220
10216
10222
10205
10211
10217
10227
10226
10228
10223
10229
10206
10212
10218
10224
10233
10232
10234
10235
10230
10236
10207
10213
10219
10225
10231
10237
10238

SCALARS Nodal_Temperature float 1
LOOKUP_TABLE default
20
20.0001
20.0001
20
20
20
20
20.0001
20.0003
20
20.0005
20.0013
20
20.0001
20.0008
20.0004
20
20.0019
20.0022
20.0027
20
20.0002
20.0008
20.0017
20.0004
20
20.0017
20.0023
20.0019
20.0015
20
20.0003
20.0009
20.0014
20.0018
20.0004
20
20.0014
20.002
20.0014
20.002
20.0018
20
20.0003
20.0013
20.0021
20.0034
20.0044
20.0005
20
20.0016
20.0019
20.0012
20.0012
20.0034
20.002
20
20.0004
20.0014
20.002
20.0032
20.0047
20.0036
20.0006
20
20.0018
20.0026
20.0017
20.0013
20.002
20.0024
20.003
20
20.0005
20.0015
20.0017
20.0023
20.0035
20.0033
20.0042
20.0008
20
20.0022
20.0036
20.0026
20.0017
20.0024
20.0031
20.0061
20.0057
20
20.0005
20.0015
20.0017
20.0019
20.0025
20.0026
20.0043
20.0061
20.0008
20
20.002
20.0034
20.0029
20.0023
20.0027
20.0029
20.004
20.0056
20.004
20
20.0005
20.0014
20.0018
20.0014
20.0016
20.0018
20.0031
20.0051
20.0052
20.0004
20
20.0013
20.0025
20.0031
20.0037
20.0036
20.0031
20.0034
20.0029
20.0045
20.0033
20
20.0004
20.001
20.0013
20.0014
20.0021
20.0021
20.0029
20.0052
20.0064
20.0062
20.0006
20
20.0015
20.0024
20.003
20.0045
20.0045
20.0035
20.0037
20.0029
20.0029
20.0045
20.0026
20
20.0002
20.0005
20.0007
20.0011
20.0022
20.0021
20.0015
20.0024
20.0037
20.0043
20.0037
20.0012
20
20.0021
20.0024
20.0033
20.0052
20.0056
20.004
20.0038
20.0041
20.0038
20.0025
20.0026
20.0026
20
20.0004
20.001
20.0014
20.0019
20.0023
20.0025
20.0024
20.0025
20.0029
20.0027
20.0032
20.0042
20.0017
20
20.0025
20.0027
20.0045
20.0066
20.0063
20.0032
20.0026
20.0034
20.0032
20.0026
20.0029
20.0044
20.0044
20
20.0004
20.0016
20.0027
20.0033
20.003
20.0029
20.004
20.0056
20.0057
20.005
20.0047
20.0045
20.0041
20.002
20
20.0026
20.004
20.0056
20.0063
20.0056
20.0023
20.0019
20.0027
20.0028
20.0033
20.0035
20.0048
20.0038
20.0063
20
20.0004
20.0016
20.0025
20.0027
20.0025
20.0026
20.0043
20.0054
20.0048
20.0048
20.0051
20.005
20.0044
20.003
20.0019
20.0001
20.0025
20.005
20.0065
20.0052
20.0041
20.0016
20.0019
20.0028
20.0036
20.0043
20.0038
20.0055
20.0083
20.0058
20.0081
20
20.0004
20.0015
20.0021
20.0022
20.0022
20.0026
20.0034
20.0028
20.0021
20.0027
20.0036
20.0045
20.0041
20.0029
20.0045
20.0011
20.0001
20.0022
20.0043
20.0057
20.0047
20.0028
20.001
20.0013
20.0022
20.0032
20.0045
20.005
20.006
20.0088
20.01
20.0056
20.0068
20
20.0005
20.0018
20.0026
20.0024
20.0022
20.0022
20.0022
20.0016
20.0015
20.0019
20.0023
20.0031
20.0026
20.0024
20.0037
20.0037
20.0005
20.0001
20.0021
20.0034
20.0038
20.004
20.0025
20.0013
20.0016
20.0021
20.0025
20.0045
20.0063
20.0062
20.0091
20.0117
20.0078
20.0031
20.0028
20
20.0006
20.0018
20.0022
20.0018
20.0013
20.0013
20.002
20.0017
20.0015
20.0019
20.0027
20.0038
20.0031
20.003
20.0038
20.0034
20.0025
20.0005
20.0001
20.0027
20.0041
20.004
20.004
20.0028
20.002
20.0024
20.0024
20.0019
20.0033
20.0042
20.0045
20.0071
20.0095
20.0067
20.0026
20.0022
20.0024
20
20.0006
20.0012
20.001
20.0009
20.001
20.0009
20.0017
20.002
20.0024
20.0026
20.0033
20.0045
20.0039
20.0041
20.005
20.0041
20.0033
20.004
20.0006
20.0001
20.0027
20.0036
20.0038
20.0039
20.0041
20.004
20.0041
20.0041
20.0022
20.0024
20.0021
20.0026
20.0051
20.0078
20.0069
20.0039
20.0034
20.0039
20.0043
20
20.0007
20.0012
20.0013
20.0012
20.0013
20.0011
20.0013
20.0017
20.0027
20.0031
20.0026
20.003
20.0029
20.0033
20.0039
20.003
20.0031
20.0041
20.0037
20.0006
20.0001
20.0018
20.0024
20.0044
20.0046
20.0047
20.0057
20.0069
20.0069
20.0029
20.0019
20.0021
20.0028
20.0048
20.0073
20.0072
20.0049
20.0052
20.0061
20.0035
20.0044
20
20.0007
20.0014
20.002
20.002
20.0011
20.0009
20.0012
20.0017
20.0025
20.0029
20.002
20.0015
20.0017
20.002
20.0033
20.0038
20.0037
20.0044
20.0042
20.0036
20.0008
20.0001
20.0023
20.0033
20.0067
20.0061
20.0045
20.0057
20.0075
20.0071
20.0027
20.0018
20.002
20.0035
20.006
20.0078
20.0083
20.007
20.0065
20.0075
20.0055
20.0043
20.0048
20
20.0006
20.0011
20.0017
20.0017
20.0008
20.0007
20.0012
20.0018
20.0025
20.0028
20.0023
20.0018
20.0025
20.0036
20.005
20.0053
20.0045
20.0052
20.0058
20.0051
20.0046
20.0009
20.0001
20.0026
20.0056
20.0101
20.0074
20.0042
20.0053
20.0055
20.0049
20.0026
20.0021
20.0018
20.0036
20.0069
20.0085
20.0082
20.0067
20.0059
20.0074
20.0061
20.0046
20.0043
20.0044
20
20.0003
20.0011
20.0015
20.0018
20.0016
20.0013
20.0017
20.0018
20.0019
20.0019
20.0015
20.0018
20.0029
20.0043
20.0045
20.0032
20.0026
20.0029
20.0032
20.0035
20.0031
20.0026
20.0011
20.0001
20.003
20.0063
20.0112
20.0078
20.0035
20.0043
20.004
20.0035
20.0031
20.0024
20.0016
20.0037
20.0067
20.008
20.0064
20.0043
20.0046
20.0063
20.0052
20.0045
20.005
20.0033
20.0034
20
20.0002
20.0011
20.0016
20.0024
20.0031
20.0027
20.0036
20.0036
20.0033
20.0028
20.0023
20.0035
20.0044
20.0051
20.0041
20.0024
20.0022
20.0021
20.0024
20.0027
20.0024
20.0024
20.003
20.0016
20.0001
20.0036
20.0051
20.009
20.0078
20.0037
20.0036
20.0035
20.0029
20.0028
20.0025
20.0016
20.0028
20.0067
20.0103
20.0079
20.0042
20.0043
20.0052
20.004
20.0042
20.0045
20.0021
20.0031
20.0024
20
20.0002
20.001
20.0016
20.002
20.003
20.0035
20.0039
20.0041
20.0039
20.0034
20.0034
20.0047
20.0055
20.0051
20.0042
20.0038
20.0034
20.003
20.0032
20.0027
20.0017
20.0017
20.0026
20.004
20.0015
20.0001
20.0027
20.0041
20.0085
20.008
20.0036
20.0035
20.0036
20.0023
20.002
20.0023
20.002
20.0021
20.0058
20.0109
20.009
20.0042
20.0042
20.0058
20.0045
20.0042
20.0038
20.0014
20.0022
20.0043
20.0031
20
20.0004
20.0015
20.002
20.0018
20.0025
20.0028
20.0025
20.003
20.0029
20.0025
20.0033
20.0039
20.0043
20.0047
20.0045
20.0038
20.0028
20.0022
20.0023
20.002
20.0025
20.0042
20.0056
20.0076
20.0083
20.0017
20.0001
20.0023
20.0029
20.0072
20.0066
20.0033
20.0036
20.0034
20.0022
20.0014
20.0023
20.0026
20.0022
20.0044
20.0085
20.0083
20.0046
20.005
20.0067
20.0055
20.0045
20.0034
20.0024
20.0027
20.0023
20.0056
20.0033
20
20.0005
20.002
20.0032
20.0028
20.0024
20.0022
20.002
20.0022
20.0024
20.0029
20.0035
20.0033
20.0028
20.0033
20.0028
20.0019
20.0017
20.002
20.0022
20.002
20.0031
20.0048
20.0059
20.0094
20.0106
20.0075
20.0015
20.0001
20.0027
20.0027
20.005
20.0051
20.0035
20.0036
20.0038
20.0031
20.0017
20.0034
20.0045
20.0033
20.0054
20.0089
20.0076
20.0043
20.0047
20.0068
20.0062
20.0039
20.0028
20.0036
20.0033
20.0021
20.0026
20.0055
20.0041
20
20.0006
20.0024
20.0039
20.0037
20.0031
20.0027
20.0031
20.0028
20.0022
20.003
20.0039
20.0038
20.003
20.002
20.0014
20.0015
20.0015
20.0017
20.0018
20.0017
20.0019
20.0025
20.0042
20.0078
20.0087
20.007
20.0064
20.0008
20.0001
20.0028
20.0035
20.0036
20.0044
20.0037
20.0028
20.0036
20.0035
20.0028
20.0054
20.0072
20.0058
20.0064
20.0077
20.0064
20.0042
20.0039
20.0065
20.0061
20.0031
20.0023
20.0028
20.0028
20.0021
20.0019
20.0037
20.0054
20.0052
20.0001
20.0008
20.0028
20.0038
20.0039
20.0041
20.0043
20.0048
20.0038
20.0024
20.0025
20.0034
20.0037
20.0031
20.0023
20.0019
20.0023
20.0025
20.0024
20.0019
20.0018
20.0019
20.0021
20.0043
20.0068
20.0076
20.0076
20.0066
20.0052
20.0007
20
20.003
20.0037
20.0026
20.0032
20.0034
20.0027
20.0036
20.0033
20.0035
20.007
20.0079
20.0058
20.006
20.0064
20.0053
20.0041
20.0039
20.0056
20.0054
20.0039
20.0024
20.0016
20.002
20.0017
20.0017
20.0043
20.0061
20.005
20.005
20.0001
20.0012
20.0029
20.0038
20.0038
20.0036
20.0038
20.0037
20.0032
20.0031
20.003
20.0029
20.0028
20.0022
20.0017
20.0021
20.0029
20.003
20.0027
20.0026
20.0025
20.0019
20.0019
20.003
20.0047
20.0061
20.0065
20.0056
20.005
20.0053
20.0005
20
20.0028
20.0035
20.0024
20.0027
20.0034
20.0034
20.0031
20.0026
20.0045
20.0068
20.0056
20.0046
20.006
20.0066
20.005
20.0036
20.0038
20.0054
20.0047
20.0037
20.0032
20.0023
20.0025
20.0022
20.0017
20.0047
20.0065
20.0048
20.0047
20.0042
20.0001
20.0012
20.0026
20.0032
20.003
20.002
20.0025
20.0034
20.0044
20.0056
20.0057
20.0045
20.0033
20.0022
20.002
20.0028
20.0024
20.0017
20.0021
20.0031
20.0033
20.002
20.0013
20.0016
20.0019
20.0033
20.0041
20.0033
20.0031
20.0038
20.0037
20.0003
20
20.0031
20.004
20.0021
20.0025
20.0041
20.0038
20.0018
20.0022
20.006
20.0065
20.0037
20.0038
20.0056
20.0055
20.005
20.0041
20.0034
20.0045
20.0035
20.0027
20.0037
20.0035
20.0038
20.0036
20.0017
20.0032
20.0045
20.0034
20.0029
20.0038
20.0038
20.0001
20.001
20.0021
20.0022
20.0019
20.0016
20.0032
20.0046
20.0049
20.0051
20.0045
20.0031
20.0021
20.0016
20.0018
20.0025
20.0022
20.0018
20.0022
20.0033
20.0038
20.0028
20.0018
20.0016
20.0013
20.0021
20.0028
20.0019
20.0016
20.0021
20.0025
20.0032
20.0003
20
20.0029
20.0034
20.0014
20.002
20.0043
20.0046
20.0032
20.0032
20.0058
20.0055
20.0029
20.0028
20.0038
20.0032
20.0027
20.0035
20.0035
20.004
20.0034
20.0034
20.0043
20.0044
20.0047
20.004
20.0021
20.003
20.0036
20.0031
20.0026
20.0035
20.0039
20.004
20.0001
20.0009
20.0018
20.0016
20.0017
20.0024
20.0037
20.0036
20.0032
20.0037
20.0034
20.0028
20.0027
20.0025
20.002
20.0019
20.0024
20.0027
20.0027
20.0032
20.003
20.0026
20.0021
20.002
20.0021
20.0032
20.004
20.0027
20.0022
20.0022
20.0033
20.0039
20.0029
20.0004
20
20.0019
20.0023
20.0014
20.0019
20.0032
20.0039
20.0043
20.0048
20.0054
20.0043
20.0023
20.0025
20.0034
20.0026
20.0014
20.002
20.0035
20.0044
20.0043
20.004
20.0041
20.004
20.0037
20.0035
20.0026
20.0033
20.0038
20.0031
20.0027
20.0034
20.0034
20.0031
20.0033
20.0001
20.0008
20.0021
20.0018
20.0017
20.0024
20.0031
20.0032
20.0037
20.0047
20.0044
20.0038
20.004
20.004
20.0029
20.0023
20.0031
20.0032
20.003
20.0033
20.0033
20.0032
20.0026
20.0032
20.0036
20.0052
20.0071
20.0055
20.0037
20.0029
20.0034
20.0039
20.0034
20.0036
20.0003
20
20.0016
20.0022
20.0015
20.0014
20.0021
20.0024
20.0036
20.0056
20.0062
20.0049
20.0028
20.0021
20.0026
20.0024
20.0016
20.0013
20.0026
20.0047
20.0051
20.0037
20.0029
20.0036
20.0028
20.0022
20.0026
20.003
20.0031
20.0023
20.0023
20.0035
20.0036
20.0039
20.0046
20.0052
20.0001
20.001
20.0025
20.0024
20.0019
20.0022
20.0029
20.0031
20.0029
20.0032
20.0028
20.0027
20.0032
20.0031
20.0024
20.0031
20.005
20.0042
20.0024
20.0025
20.0034
20.0037
20.0043
20.0052
20.0051
20.0069
20.0094
20.0089
20.0068
20.0055
20.0045
20.0036
20.0029
20.0026
20.0047
20.0004
20
20.0015
20.0021
20.0015
20.0013
20.0025
20.0028
20.003
20.005
20.0059
20.0046
20.0037
20.0029
20.0024
20.0024
20.0015
20.0012
20.0021
20.0047
20.0058
20.0045
20.0031
20.0041
20.0036
20.0017
20.0027
20.0038
20.0028
20.0024
20.0032
20.0037
20.0035
20.0036
20.0055
20.006
20.007
20.0001
20.0012
20.0031
20.0031
20.0022
20.0022
20.0031
20.0034
20.003
20.0035
20.0038
20.004
20.0036
20.0027
20.002
20.0026
20.0041
20.0035
20.002
20.0015
20.0017
20.0022
20.0034
20.0043
20.0041
20.005
20.0071
20.0083
20.0079
20.0071
20.0067
20.0066
20.0057
20.0047
20.0058
20.0076
20.0006
20
20.0018
20.0024
20.002
20.0018
20.0026
20.0032
20.0036
20.005
20.005
20.0042
20.0055
20.0056
20.0046
20.0037
20.0023
20.0023
20.0027
20.0042
20.0052
20.0045
20.0033
20.0041
20.0045
20.0024
20.0036
20.0051
20.0029
20.0022
20.0028
20.0027
20.0029
20.0034
20.0059
20.0074
20.0072
20.0052
20.0001
20.0009
20.0027
20.0027
20.0021
20.0026
20.0042
20.0052
20.0065
20.0076
20.0068
20.0061
20.0039
20.0019
20.0024
20.0021
20.0017
20.0018
20.0021
20.0021
20.002
20.0025
20.0034
20.0053
20.0081
20.0104
20.0124
20.0133
20.012
20.0098
20.0081
20.0077
20.0076
20.0066
20.0075
20.0089
20.0076
20.0007
20
20.0022
20.0034
20.0031
20.0022
20.0025
20.0029
20.0029
20.0038
20.0047
20.0051
20.0067
20.0065
20.0046
20.0039
20.0034
20.0032
20.0026
20.0031
20.0042
20.0045
20.0034
20.0042
20.0049
20.0032
20.0043
20.0055
20.0033
20.0028
20.0034
20.0027
20.0028
20.0035
20.0047
20.005
20.003
20.0045
20.003
20.0001
20.0009
20.0022
20.0023
20.0022
20.0027
20.0047
20.0054
20.0065
20.0088
20.0083
20.0073
20.0042
20.0015
20.0023
20.0021
20.0019
20.0019
20.0018
20.0021
20.0022
20.0028
20.0039
20.0064
20.0108
20.0132
20.0132
20.0129
20.0113
20.0089
20.0059
20.0055
20.0054
20.005
20.0072
20.0087
20.0093
20.0082
20.0008
20
20.0021
20.0033
20.0034
20.0024
20.0025
20.0026
20.0021
20.0024
20.0042
20.0065
20.008
20.0071
20.005
20.004
20.0041
20.0035
20.0023
20.0031
20.0053
20.0057
20.0039
20.0042
20.0043
20.0028
20.0035
20.0044
20.0035
20.0033
20.0038
20.0027
20.0022
20.0024
20.0031
20.0039
20.0027
20.0032
20.0069
20.0068
20.0001
20.0011
20.0025
20.0028
20.0028
20.0035
20.0047
20.0045
20.0058
20.0073
20.0068
20.007
20.0043
20.0019
20.0019
20.0013
20.0017
20.0022
20.0022
20.0024
20.002
20.0021
20.003
20.0052
20.0087
20.0093
20.0083
20.008
20.0076
20.0062
20.0047
20.0054
20.0047
20.004
20.0057
20.0066
20.0083
20.0087
20.0078
20.0007
20
20.0018
20.0026
20.0031
20.0024
20.0024
20.0027
20.0024
20.0023
20.0033
20.0057
20.0079
20.0081
20.0059
20.0045
20.0044
20.0037
20.0033
20.0045
20.0056
20.005
20.0032
20.0036
20.0033
20.0024
20.0031
20.003
20.0027
20.0025
20.0028
20.002
20.0015
20.002
20.0025
20.0036
20.0034
20.0039
20.0061
20.0082
20.0057
20.0001
20.0009
20.0022
20.003
20.0028
20.003
20.0036
20.0038
20.0056
20.0071
20.006
20.0051
20.0035
20.002
20.0027
20.0026
20.0021
20.003
20.0038
20.0032
20.0027
20.003
20.0036
20.0047
20.0067
20.0076
20.008
20.0081
20.0085
20.0076
20.0054
20.0049
20.0049
20.0046
20.0055
20.0047
20.0054
20.0076
20.0071
20.0065
20.0007
20
20.0017
20.003
20.0038
20.0038
20.0036
20.0025
20.0016
20.002
20.0039
20.0044
20.0049
20.0057
20.0045
20.0051
20.0055
20.0034
20.0031
20.0045
20.0048
20.0038
20.0026
20.0023
20.0025
20.0034
20.0034
20.0022
20.0016
20.0016
20.0026
20.0028
20.0022
20.0022
20.0024
20.0038
20.0038
20.004
20.0048
20.0036
20.005
20.0049
20.0001
20.0007
20.0019
20.0028
20.0029
20.0022
20.0024
20.0032
20.0042
20.0057
20.0052
20.0044
20.0044
20.0041
20.004
20.0041
20.004
20.0042
20.0046
20.0039
20.0035
20.0047
20.0043
20.0031
20.0043
20.0051
20.0062
20.0073
20.0077
20.0068
20.004
20.0027
20.0034
20.0045
20.0047
20.004
20.0049
20.0069
20.0068
20.0054
20.0047
20.0006
20
20.0017
20.0034
20.0039
20.0038
20.0034
20.002
20.0016
20.0022
20.0038
20.0037
20.0026
20.0027
20.0026
20.0045
20.0052
20.0027
20.0026
20.0047
20.0051
20.0039
20.0031
20.0025
20.0031
20.0046
20.0038
20.0026
20.0017
20.0019
20.0025
20.0022
20.0023
20.002
20.0029
20.0048
20.0046
20.0044
20.005
20.0037
20.0043
20.0058
20.0053
20.0001
20.0009
20.0019
20.0026
20.0043
20.0037
20.0024
20.0026
20.003
20.0043
20.0052
20.006
20.0069
20.0077
20.0062
20.0047
20.0045
20.0041
20.0044
20.0039
20.0034
20.0039
20.0037
20.0028
20.0036
20.0051
20.0077
20.0094
20.008
20.0052
20.0036
20.0034
20.0034
20.0044
20.0042
20.0044
20.0054
20.0049
20.0047
20.0046
20.0037
20.0036
20.0007
20
20.0016
20.0026
20.0025
20.0022
20.0026
20.0028
20.003
20.0027
20.0026
20.0023
20.0016
20.0015
20.0025
20.0036
20.0034
20.0018
20.0018
20.0038
20.0043
20.004
20.0038
20.003
20.0031
20.0041
20.0039
20.0031
20.0023
20.0026
20.0023
20.0012
20.0014
20.0019
20.0025
20.0036
20.0038
20.0035
20.0046
20.0043
20.0033
20.0035
20.0033
20.0027
20.0001
20.0011
20.0025
20.0025
20.0037
20.0034
20.0021
20.0022
20.0025
20.0037
20.0048
20.006
20.0064
20.0076
20.0074
20.0053
20.0044
20.0045
20.0044
20.0028
20.0037
20.0051
20.0045
20.0038
20.004
20.0051
20.0084
20.011
20.0097
20.0052
20.003
20.0038
20.0039
20.0045
20.0044
20.0045
20.0053
20.0048
20.0042
20.0039
20.003
20.0026
20.0021
20.0007
20
20.0013
20.0016
20.0017
20.002
20.0027
20.0039
20.0043
20.0032
20.0028
20.0026
20.0019
20.0017
20.0037
20.0039
20.0024
20.0021
20.0014
20.0019
20.0026
20.003
20.003
20.002
20.0019
20.0023
20.0036
20.0037
20.0025
20.0019
20.0015
20.0012
20.0015
20.0024
20.0024
20.0018
20.0017
20.0017
20.0033
20.0041
20.0032
20.0025
20.0025
20.0017
20.0032
20.0001
20.0012
20.0028
20.0031
20.0026
20.0022
20.0023
20.0028
20.0035
20.0037
20.0041
20.005
20.0045
20.0044
20.0051
20.004
20.003
20.0042
20.0041
20.0024
20.0039
20.0231
20.0405
20.0226
20.0041
20.0041
20.0065
20.0093
20.0091
20.0061
20.004
20.0035
20.0035
20.0038
20.0036
20.0034
20.0038
20.004
20.0039
20.0035
20.0036
20.0034
20.002
20.0015
20.0005
20
20.0012
20.0015
20.0014
20.002
20.0027
20.0033
20.0033
20.0025
20.0029
20.003
20.0021
20.0016
20.0033
20.0032
20.0019
20.0021
20.0021
20.0022
20.0021
20.0021
20.0022
20.0022
20.0023
20.0021
20.004
20.0045
20.0029
20.0023
20.0022
20.0025
20.0025
20.0044
20.0055
20.0037
20.002
20.0018
20.0029
20.0029
20.0018
20.0016
20.0026
20.004
20.0027
20.0031
20.0001
20.0013
20.0035
20.0038
20.0025
20.0031
20.0035
20.0049
20.0066
20.0064
20.006
20.0052
20.005
20.0042
20.0047
20.0037
20.0022
20.0035
20.0033
20.0033
20.0053
20.0435
20.0738
20.0359
20.0035
20.0025
20.0035
20.0053
20.0066
20.0065
20.0049
20.0033
20.0041
20.0045
20.0032
20.0027
20.0026
20.0025
20.0021
20.0017
20.0025
20.0032
20.0029
20.0026
20.0028
20.0006
20
20.0014
20.0019
20.0015
20.0019
20.0027
20.0026
20.0019
20.0015
20.0022
20.0024
20.0021
20.0017
20.002
20.0022
20.0022
20.0024
20.0027
20.0028
20.0021
20.0018
20.002
20.0023
20.0029
20.0027
20.0039
20.004
20.0025
20.0025
20.0036
20.0037
20.0032
20.0051
20.0059
20.0046
20.0033
20.0024
20.0024
20.0019
20.0013
20.0013
20.0019
20.0027
20.0023
20.0029
20.0032
20.0001
20.0014
20.0032
20.0027
20.0024
20.0038
20.004
20.0057
20.0077
20.0071
20.0056
20.0043
20.0045
20.0042
20.0043
20.0032
20.002
20.003
20.0029
20.0056
20.0421
20.0978
20.0763
20.0187
20.0034
20.0024
20.0027
20.0035
20.0065
20.007
20.0052
20.0041
20.0047
20.0047
20.0026
20.0025
20.003
20.0029
20.0022
20.0013
20.0012
20.0022
20.0038
20.0034
20.003
20.0028
20.0005
20
20.0012
20.0019
20.002
20.0021
20.0024
20.0023
20.0017
20.0011
20.0015
20.0017
20.0019
20.0018
20.0015
20.0021
20.0023
20.0025
20.0024
20.002
20.0019
20.0019
20.0017
20.0015
20.0022
20.0024
20.0029
20.0032
20.0022
20.0019
20.0028
20.0029
20.0025
20.0037
20.004
20.0037
20.0038
20.0029
20.002
20.0016
20.0017
20.0017
20.0018
20.002
20.0022
20.0031
20.0032
20.0028
20.0002
20.0014
20.0022
20.0018
20.0035
20.0044
20.0037
20.004
20.0046
20.0043
20.0037
20.0039
20.0035
20.0033
20.0043
20.0038
20.0027
20.0041
20.0052
20.0089
20.0809
20.1474
20.0766
20.0057
20.0037
20.0041
20.0049
20.0049
20.0054
20.0052
20.0049
20.0052
20.0042
20.0033
20.0027
20.0029
20.0031
20.0032
20.003
20.0025
20.0021
20.0022
20.0032
20.0031
20.0025
20.0021
20.0022
20.0003
20
20.0007
20.0016
20.0021
20.0019
20.0018
20.0015
20.0011
20.0012
20.0014
20.0013
20.0015
20.0015
20.0013
20.0015
20.0015
20.002
20.0019
20.0016
20.0024
20.0027
20.0019
20.0014
20.0019
20.0023
20.0024
20.0028
20.0025
20.0021
20.0024
20.0023
20.0024
20.0033
20.0037
20.0047
20.0049
20.0034
20.0025
20.002
20.0018
20.0018
20.0018
20.0024
20.0029
20.0035
20.0027
20.0028
20.0023
20.0002
20.0013
20.0021
20.0019
20.0042
20.0061
20.005
20.0044
20.0043
20.0035
20.0034
20.0041
20.004
20.005
20.006
20.0045
20.0034
20.0044
20.0066
20.0095
20.0499
20.0826
20.0426
20.0066
20.0052
20.007
20.0083
20.0076
20.0062
20.0046
20.0046
20.0073
20.0073
20.0055
20.0055
20.0048
20.0033
20.0032
20.004
20.0037
20.004
20.0037
20.0026
20.0023
20.0023
20.0023
20.0021
20.0029
20.0004
20
20.0008
20.0012
20.0017
20.0014
20.0015
20.0017
20.0013
20.0012
20.0014
20.0016
20.0017
20.0016
20.0015
20.0016
20.0015
20.0015
20.0016
20.0019
20.0025
20.0026
20.0019
20.0013
20.002
20.0023
20.0016
20.0017
20.0017
20.0019
20.0023
20.0016
20.0023
20.0035
20.0042
20.006
20.0066
20.0051
20.0044
20.0031
20.0016
20.0013
20.0016
20.0028
20.0034
20.0041
20.0036
20.0026
20.0034
20.0033
20.0002
20.0011
20.0022
20.0022
20.0036
20.005
20.0041
20.0055
20.0066
20.0048
20.0043
20.0052
20.0048
20.0059
20.0073
20.0053
20.0034
20.004
20.0054
20.0071
20.0113
20.0124
20.0105
20.0089
20.0085
20.0097
20.0093
20.0083
20.0067
20.0062
20.0073
20.0108
20.0111
20.0087
20.0074
20.0052
20.0035
20.0044
20.0056
20.0046
20.0049
20.0042
20.0032
20.003
20.0031
20.0028
20.0016
20.0022
20.0036
20.0007
20
20.0013
20.0012
20.0017
20.0023
20.0021
20.0016
20.0009
20.0009
20.0012
20.0013
20.0018
20.0021
20.0018
20.0018
20.0021
20.0014
20.0013
20.0015
20.0015
20.0018
20.0017
20.0016
20.0022
20.0027
20.0025
20.0021
20.0015
20.0017
20.0019
20.0012
20.0017
20.0038
20.0053
20.0067
20.0071
20.0056
20.0043
20.0026
20.0016
20.0015
20.002
20.0033
20.0037
20.0042
20.0037
20.0027
20.0029
20.0041
20.0038
20.0002
20.0008
20.0024
20.003
20.0031
20.0029
20.002
20.0043
20.0064
20.0047
20.004
20.005
20.0042
20.0035
20.0054
20.0052
20.0038
20.004
20.0045
20.0058
20.0066
20.0055
20.0062
20.0066
20.0073
20.0074
20.0071
20.0071
20.005
20.0052
20.0065
20.0081
20.0074
20.0058
20.0049
20.0055
20.0063
20.006
20.006
20.0047
20.0044
20.0039
20.0042
20.0051
20.0056
20.0044
20.0023
20.0026
20.0029
20.0034
20.0009
20
20.0018
20.0022
20.0024
20.0023
20.002
20.0013
20.0007
20.001
20.0016
20.0016
20.0015
20.0018
20.0018
20.0021
20.003
20.0024
20.0017
20.0015
20.0009
20.0012
20.0014
20.0018
20.0027
20.0032
20.0032
20.0029
20.0019
20.0019
20.0028
20.0023
20.0017
20.0028
20.0041
20.0054
20.0053
20.004
20.0027
20.0016
20.0015
20.0017
20.0018
20.0036
20.0041
20.0038
20.0031
20.0016
20.0019
20.0027
20.0045
20.0038
20.0002
20.0007
20.0025
20.0037
20.0031
20.0022
20.0025
20.0049
20.0077
20.0068
20.0046
20.005
20.0046
20.0035
20.0047
20.0044
20.0033
20.003
20.0055
20.0123
20.011
20.0046
20.0043
20.005
20.0054
20.0051
20.0053
20.0057
20.0051
20.0045
20.0036
20.004
20.0042
20.0039
20.0035
20.005
20.006
20.0049
20.0055
20.0049
20.0038
20.0031
20.0036
20.0051
20.006
20.0044
20.0027
20.003
20.0027
20.0029
20.0045
20.0007
20
20.0014
20.0019
20.0022
20.0016
20.0015
20.0016
20.0017
20.0016
20.002
20.0027
20.0025
20.0017
20.0019
20.0026
20.0029
20.0026
20.0023
20.0024
20.0014
20.0009
20.0011
20.0011
20.002
20.0026
20.0026
20.0027
20.0019
20.0016
20.0031
20.003
20.0018
20.0016
20.0026
20.0033
20.0034
20.0036
20.0028
20.0015
20.0011
20.0013
20.0015
20.0028
20.0034
20.0029
20.0032
20.0029
20.0025
20.004
20.005
20.0049
20.0058
20.0002
20.0008
20.0027
20.0043
20.0037
20.0025
20.0035
20.0056
20.0072
20.0063
20.0047
20.0057
20.0052
20.0042
20.0055
20.0047
20.003
20.0032
20.012
20.022
20.0159
20.0069
20.0057
20.0062
20.0055
20.0056
20.0054
20.0053
20.0057
20.0056
20.0048
20.0044
20.0049
20.0047
20.004
20.0033
20.0025
20.0027
20.0041
20.0042
20.0044
20.0039
20.0036
20.0043
20.0052
20.0044
20.0032
20.0035
20.0033
20.0031
20.0033
20.0044
20.0004
20
20.0006
20.001
20.0015
20.0013
20.0013
20.0016
20.0021
20.0024
20.0027
20.0031
20.0039
20.0037
20.0029
20.0028
20.0027
20.003
20.0034
20.0034
20.0021
20.0016
20.0018
20.0013
20.0017
20.0026
20.0029
20.0024
20.0022
20.0028
20.0034
20.0027
20.0016
20.0015
20.003
20.0036
20.0035
20.0052
20.0056
20.0035
20.002
20.0014
20.0014
20.0026
20.0035
20.004
20.005
20.0047
20.0045
20.0076
20.008
20.0068
20.0052
20.0055
20.0002
20.0008
20.0033
20.0054
20.0046
20.0034
20.0038
20.0039
20.0032
20.0026
20.0025
20.0046
20.0041
20.0027
20.0036
20.003
20.0023
20.0039
20.0318
20.0518
20.0271
20.0073
20.0059
20.0049
20.003
20.0036
20.005
20.0056
20.0059
20.0061
20.0056
20.0051
20.005
20.0041
20.0044
20.0048
20.0036
20.0035
20.0038
20.003
20.0055
20.0069
20.0052
20.0039
20.005
20.0048
20.0034
20.0037
20.0032
20.0025
20.0021
20.0029
20.0028
20.0003
20
20.0005
20.0009
20.0014
20.0013
20.0015
20.0017
20.0023
20.0026
20.003
20.0029
20.0037
20.0046
20.0033
20.0031
20.0039
20.0051
20.0053
20.0042
20.0031
20.0026
20.0025
20.002
20.002
20.0023
20.0028
20.0026
20.003
20.0038
20.0038
20.0027
20.0015
20.0015
20.0036
20.0048
20.0043
20.0057
20.0073
20.0069
20.0047
20.0023
20.0017
20.0021
20.0031
20.0049
20.0053
20.0037
20.0046
20.0078
20.0077
20.0072
20.0067
20.0028
20.0046
20.0002
20.001
20.0043
20.0068
20.0047
20.0026
20.0032
20.0033
20.0033
20.0043
20.0035
20.0037
20.004
20.0038
20.0039
20.0028
20.003
20.0055
20.052
20.0943
20.0516
20.0093
20.008
20.0064
20.0037
20.0033
20.0049
20.0066
20.0066
20.0065
20.0051
20.004
20.0039
20.0043
20.0058
20.0053
20.0035
20.004
20.0049
20.0036
20.0046
20.0057
20.0049
20.0036
20.0035
20.0032
20.002
20.0031
20.0041
20.0031
20.0027
20.0031
20.0025
20.0023
20.0003
20
20.0007
20.001
20.0014
20.0016
20.0019
20.0018
20.0019
20.0021
20.0026
20.0037
20.0049
20.0043
20.0037
20.0046
20.0055
20.0062
20.0056
20.0044
20.0038
20.0031
20.0026
20.0029
20.0025
20.0019
20.0028
20.003
20.0033
20.0033
20.0028
20.0019
20.001
20.0012
20.0027
20.0037
20.0036
20.0039
20.0047
20.006
20.0059
20.0036
20.002
20.0014
20.0021
20.0041
20.0039
20.0027
20.0038
20.0055
20.0053
20.0057
20.0057
20.004
20.0035
20.0034
20.0002
20.0011
20.0055
20.0077
20.0042
20.0016
20.0026
20.0035
20.0039
20.0051
20.0049
20.0047
20.0041
20.0033
20.0034
20.0035
20.0034
20.0087
20.0843
20.1575
20.092
20.0154
20.0082
20.0065
20.0034
20.003
20.0039
20.0059
20.0068
20.0072
20.0058
20.0035
20.0035
20.0049
20.0066
20.0048
20.002
20.0031
20.0041
20.0033
20.0035
20.0029
20.0034
20.0038
20.0047
20.0049
20.0031
20.0044
20.0058
20.0039
20.0023
20.0032
20.003
20.0023
20.0026
20.0002
20
20.0006
20.001
20.0015
20.0023
20.0028
20.0028
20.0026
20.0022
20.0026
20.0035
20.0047
20.0044
20.0045
20.0055
20.0058
20.0051
20.0047
20.0044
20.0036
20.0036
20.0027
20.0025
20.0023
20.0015
20.0021
20.0022
20.0026
20.0024
20.0015
20.0012
20.001
20.0012
20.0013
20.0015
20.0018
20.0026
20.003
20.0033
20.0048
20.0049
20.0031
20.002
20.0033
20.0043
20.0039
20.0035
20.0038
20.0047
20.0037
20.0031
20.0028
20.0019
20.0019
20.0027
20.0018
20.0002
20.0012
20.0064
20.0077
20.0032
20.0017
20.0027
20.0035
20.0031
20.0038
20.0049
20.0052
20.0042
20.003
20.0036
20.005
20.0043
20.0157
20.1246
20.2208
20.1272
20.019
20.005
20.0041
20.0021
20.0029
20.005
20.0059
20.0075
20.0074
20.0047
20.0036
20.0047
20.0057
20.0071
20.0057
20.0029
20.004
20.0036
20.0024
20.0026
20.0027
20.0041
20.0041
20.0051
20.0051
20.0033
20.0044
20.0058
20.0041
20.002
20.0037
20.0035
20.0019
20.0022
20.0024
20.0002
20
20.0005
20.001
20.0014
20.0027
20.0033
20.0031
20.0029
20.0022
20.0023
20.0026
20.0032
20.0039
20.0044
20.0047
20.0045
20.0034
20.0046
20.0054
20.0043
20.004
20.0026
20.0018
20.002
20.0015
20.002
20.002
20.0019
20.0018
20.0012
20.0015
20.002
20.0024
20.0023
20.0017
20.0014
20.0021
20.0026
20.0022
20.0027
20.0038
20.0033
20.0023
20.0038
20.0053
20.0052
20.0044
20.0046
20.0064
20.0055
20.004
20.0026
20.0012
20.0015
20.0016
20.0017
20.0021
20.0002
20.0015
20.0061
20.0069
20.0032
20.0025
20.0042
20.0047
20.0038
20.0042
20.0044
20.0049
20.0046
20.0043
20.0045
20.0058
20.0073
20.0316
20.1259
20.1732
20.0864
20.0128
20.0045
20.0048
20.0033
20.0047
20.0063
20.006
20.0066
20.0059
20.0032
20.0031
20.0048
20.0054
20.0069
20.0059
20.0029
20.004
20.0039
20.0026
20.0021
20.0027
20.0038
20.0035
20.0038
20.003
20.0024
20.0042
20.0064
20.0051
20.003
20.0051
20.0048
20.0025
20.0023
20.0035
20.0034
20.0003
20
20.0006
20.0017
20.0021
20.0028
20.0031
20.0025
20.0024
20.0015
20.002
20.0028
20.0032
20.0042
20.004
20.0031
20.0026
20.0018
20.0031
20.0043
20.0038
20.0033
20.0022
20.0018
20.0018
20.0019
20.0024
20.0025
20.0026
20.0025
20.0018
20.0024
20.0031
20.0036
20.0036
20.0027
20.0019
20.0017
20.0018
20.002
20.0023
20.0034
20.0038
20.0028
20.0043
20.0061
20.0056
20.0056
20.0072
20.0086
20.0073
20.0053
20.0031
20.0017
20.0024
20.0025
20.003
20.0032
20.0039
20.0002
20.0017
20.0053
20.0059
20.0036
20.0048
20.007
20.0077
20.0066
20.0056
20.0061
20.0076
20.0068
20.0045
20.0041
20.0057
20.0255
20.1144
20.2329
20.1763
20.0408
20.0061
20.0055
20.006
20.0045
20.0069
20.007
20.0059
20.0061
20.0061
20.0054
20.0044
20.0055
20.0055
20.0054
20.0043
20.0017
20.0028
20.0039
20.0031
20.0025
20.0029
20.0029
20.003
20.0037
20.0032
20.0029
20.0044
20.0058
20.0043
20.0026
20.0046
20.0049
20.0038
20.0042
20.0046
20.0041
20.0032
20.0002
20
20.0008
20.0024
20.0029
20.0034
20.0035
20.0027
20.0033
20.0022
20.0019
20.0024
20.0023
20.0042
20.0037
20.0018
20.0012
20.0008
20.0019
20.0031
20.0036
20.0029
20.0021
20.0024
20.002
20.0015
20.0014
20.0017
20.0025
20.0025
20.0017
20.0021
20.0023
20.0023
20.0028
20.0032
20.0031
20.0026
20.0021
20.0024
20.0033
20.0037
20.0036
20.0037
20.0056
20.0073
20.0058
20.0063
20.0092
20.0083
20.0067
20.0057
20.0039
20.0027
20.0028
20.003
20.0029
20.0033
20.0033
20.0037
20.0002
20.0019
20.0053
20.0061
20.004
20.0047
20.0065
20.0082
20.008
20.0063
20.0067
20.0084
20.0072
20.0046
20.0046
20.008
20.0468
20.2005
20.3359
20.2157
20.0441
20.0073
20.0069
20.0074
20.0056
20.0077
20.008
20.0068
20.0071
20.0066
20.0053
20.0039
20.0053
20.0075
20.0068
20.0043
20.0023
20.0031
20.0039
20.0034
20.0029
20.0039
20.0039
20.0039
20.0038
20.0023
20.0021
20.0028
20.0047
20.0051
20.0034
20.0036
20.0034
20.0033
20.0061
20.006
20.0035
20.0034
20.0046
20.0002
20
20.0007
20.0018
20.0022
20.003
20.0036
20.0028
20.0033
20.0026
20.0016
20.0015
20.0014
20.003
20.003
20.0016
20.0014
20.0013
20.0024
20.003
20.0034
20.0029
20.0019
20.0031
20.0043
20.0032
20.0021
20.002
20.0022
20.0023
20.0012
20.0012
20.0014
20.0017
20.0029
20.0036
20.0038
20.0039
20.0028
20.0025
20.0029
20.0028
20.0031
20.0037
20.0044
20.0058
20.0052
20.0053
20.0082
20.0068
20.0054
20.0056
20.0042
20.0031
20.0031
20.0038
20.0041
20.0036
20.0038
20.0054
20.0042
20.0002
20.0019
20.0057
20.0067
20.0043
20.0037
20.0048
20.008
20.0095
20.008
20.0062
20.0053
20.0049
20.0045
20.0044
20.0071
20.0425
20.1535
20.2276
20.1344
20.0281
20.0088
20.0086
20.0088
20.0074
20.0088
20.0079
20.0055
20.0073
20.0072
20.0044
20.0033
20.0049
20.0081
20.0081
20.0047
20.0027
20.0038
20.0046
20.0041
20.0035
20.0058
20.0058
20.0046
20.0039
20.0011
20.0023
20.0042
20.0055
20.0068
20.0053
20.0035
20.0026
20.0029
20.0058
20.006
20.0041
20.004
20.0053
20.0055
20.0004
20
20.0008
20.0015
20.0016
20.0018
20.0036
20.0041
20.0035
20.0026
20.0018
20.0018
20.0023
20.0037
20.0038
20.0026
20.0021
20.0022
20.0023
20.0023
20.0032
20.0029
20.0018
20.0032
20.0051
20.0041
20.0023
20.0021
20.0028
20.0027
20.001
20.0013
20.0021
20.0022
20.0041
20.0044
20.0037
20.0043
20.0043
20.0041
20.0046
20.0045
20.0042
20.0037
20.0024
20.0027
20.0029
20.0029
20.0051
20.0066
20.0065
20.0057
20.0044
20.0043
20.0046
20.0046
20.005
20.0038
20.0026
20.0024
20.0036
20.0023
20.0002
20.0016
20.006
20.0075
20.0047
20.0045
20.0054
20.0081
20.0094
20.0081
20.0057
20.0041
20.0042
20.0042
20.0038
20.0053
20.0215
20.0673
20.1075
20.065
20.0115
20.0082
20.0073
20.0068
20.008
20.0096
20.008
20.0053
20.0075
20.0076
20.0044
20.0034
20.0042
20.0068
20.0067
20.0036
20.002
20.003
20.004
20.0038
20.003
20.0062
20.0072
20.0042
20.0027
20.0013
20.0029
20.0047
20.0054
20.006
20.0046
20.0035
20.0029
20.0041
20.0055
20.0044
20.0032
20.003
20.0047
20.0063
20.0048
20.0006
20
20.001
20.0014
20.0018
20.0017
20.0032
20.0046
20.0043
20.0034
20.0025
20.0029
20.0035
20.0046
20.0048
20.0029
20.002
20.0021
20.002
20.0023
20.0038
20.0033
20.0023
20.003
20.0034
20.0027
20.0014
20.0014
20.0023
20.0022
20.0013
20.0016
20.0018
20.0018
20.0035
20.0044
20.0034
20.0029
20.0041
20.0056
20.0061
20.0059
20.0058
20.0047
20.0024
20.0021
20.0026
20.0025
20.0033
20.0059
20.0079
20.007
20.0048
20.004
20.0038
20.0032
20.0037
20.0034
20.0028
20.0023
20.0018
20.0029
20.0021
20.0002
20.0012
20.0062
20.0091
20.0063
20.0045
20.0049
20.0068
20.007
20.0055
20.0049
20.006
20.0056
20.0053
20.0068
20.0096
20.012
20.0308
20.0664
20.0536
20.0156
20.0067
20.0053
20.0061
20.0082
20.0083
20.0065
20.0055
20.0081
20.007
20.0035
20.0023
20.0031
20.0061
20.0062
20.0035
20.0018
20.0017
20.002
20.0028
20.0041
20.0066
20.0074
20.0041
20.0019
20.0014
20.0023
20.003
20.0037
20.0047
20.0042
20.004
20.0031
20.0031
20.0039
20.0032
20.0034
20.0037
20.0048
20.0064
20.0044
20.0023
20.0007
20
20.001
20.0013
20.0019
20.0022
20.0022
20.003
20.0041
20.0035
20.004
20.0047
20.0041
20.0049
20.0048
20.0026
20.0019
20.0027
20.0029
20.0025
20.003
20.0029
20.003
20.0027
20.0022
20.0022
20.002
20.0016
20.0016
20.0014
20.0012
20.0014
20.0013
20.0013
20.0022
20.0034
20.004
20.0034
20.0031
20.005
20.0062
20.0053
20.0061
20.006
20.004
20.0037
20.004
20.0032
20.0028
20.0042
20.0064
20.0067
20.0041
20.0023
20.0019
20.0019
20.0024
20.0026
20.0027
20.0025
20.0024
20.002
20.0021
20.0013
20.0002
20.001
20.006
20.0116
20.0101
20.0052
20.0039
20.0058
20.0063
20.0054
20.0051
20.0061
20.0068
20.0074
20.0081
20.0107
20.0127
20.023
20.1182
20.1549
20.0606
20.0093
20.0055
20.007
20.0068
20.0064
20.0048
20.0059
20.0111
20.0094
20.005
20.0037
20.0043
20.0077
20.0079
20.0055
20.0046
20.0044
20.0033
20.0036
20.0061
20.0079
20.0079
20.0049
20.0021
20.0013
20.0014
20.0021
20.0021
20.0037
20.0046
20.0038
20.003
20.0024
20.0025
20.0028
20.0042
20.0049
20.0045
20.0044
20.0031
20.0022
20.0021
20.0007
20
20.0013
20.0019
20.0023
20.0025
20.0021
20.0028
20.0046
20.0039
20.0048
20.006
20.0047
20.0053
20.0052
20.0029
20.0023
20.003
20.0033
20.0025
20.002
20.0026
20.0034
20.0027
20.0015
20.0019
20.0022
20.0024
20.0022
20.0019
20.0016
20.0014
20.0014
20.0017
20.0031
20.0044
20.0047
20.0043
20.003
20.0037
20.0057
20.0044
20.0047
20.0064
20.0058
20.005
20.0047
20.0042
20.0027
20.0031
20.0055
20.0062
20.0045
20.0026
20.0014
20.0015
20.0019
20.002
20.0022
20.0026
20.0028
20.0021
20.0018
20.0011
20.0018
20.0002
20.001
20.0054
20.0125
20.0135
20.0073
20.0032
20.0033
20.0046
20.0052
20.0043
20.0051
20.0065
20.0073
20.0066
20.0076
20.0094
20.0222
20.15
20.2485
20.1358
20.0221
20.0061
20.0065
20.0052
20.0053
20.0044
20.0066
20.0128
20.0097
20.0043
20.0046
20.0059
20.0085
20.0086
20.0056
20.005
20.0061
20.0051
20.0041
20.0048
20.0062
20.0065
20.0043
20.003
20.0022
20.0013
20.0023
20.0023
20.0037
20.0044
20.0029
20.0024
20.0029
20.0035
20.0028
20.0033
20.0037
20.0035
20.0038
20.0031
20.0027
20.0024
20.002
20.0004
20
20.0015
20.0024
20.002
20.0027
20.0027
20.0034
20.0053
20.0045
20.0039
20.0038
20.0039
20.0056
20.0054
20.0032
20.0028
20.0033
20.0034
20.0033
20.0027
20.0025
20.0035
20.0025
20.0011
20.0022
20.003
20.003
20.0028
20.0024
20.0026
20.0029
20.003
20.0028
20.0043
20.0057
20.0046
20.0044
20.0048
20.0046
20.0049
20.0048
20.005
20.0053
20.0054
20.0048
20.004
20.0043
20.0038
20.0033
20.0043
20.0055
20.0052
20.0034
20.0022
20.0026
20.0033
20.0042
20.0048
20.0057
20.005
20.0032
20.0031
20.0035
20.0022
20.0027
20.0002
20.0011
20.0043
20.0107
20.0133
20.0081
20.0028
20.0021
20.0031
20.0045
20.0042
20.0047
20.0061
20.0066
20.0061
20.0069
20.0079
20.0134
20.0874
20.1773
20.1207
20.024
20.0074
20.0082
20.0065
20.005
20.0044
20.0068
20.0117
20.0097
20.0054
20.0059
20.0067
20.0081
20.0085
20.0057
20.004
20.0048
20.0046
20.0036
20.0038
20.005
20.0044
20.0036
20.0047
20.0033
20.0021
20.0034
20.0031
20.0041
20.0044
20.0022
20.0016
20.0033
20.005
20.0045
20.0051
20.0049
20.0039
20.0039
20.0034
20.0038
20.0032
20.0034
20.0039
20.0003
20
20.0012
20.0016
20.001
20.0021
20.0027
20.0035
20.0046
20.0036
20.0022
20.0014
20.0027
20.005
20.005
20.0039
20.0039
20.004
20.0033
20.003
20.0026
20.0017
20.0024
20.0024
20.0024
20.0034
20.0031
20.0023
20.0027
20.0032
20.0036
20.0049
20.0052
20.0038
20.0041
20.0047
20.0037
20.0048
20.0058
20.0044
20.0039
20.0048
20.0051
20.0049
20.005
20.0047
20.0043
20.0039
20.0033
20.0034
20.0034
20.0038
20.0036
20.0025
20.0028
20.0039
20.0049
20.0049
20.0045
20.0053
20.0058
20.0049
20.004
20.0038
20.0034
20.0032
20.0034
20.0002
20.0012
20.0037
20.0088
20.0106
20.0065
20.0033
20.0033
20.004
20.0051
20.0043
20.0037
20.0062
20.007
20.0056
20.0066
20.0065
20.0078
20.0533
20.105
20.0657
20.012
20.0076
20.0089
20.0075
20.0048
20.0039
20.0073
20.012
20.01
20.0066
20.0056
20.0054
20.0086
20.0103
20.0081
20.0066
20.0059
20.0054
20.0044
20.0044
20.0048
20.0039
20.0037
20.0053
20.0041
20.0033
20.0034
20.0024
20.0045
20.005
20.0024
20.0023
20.0043
20.0055
20.0052
20.0071
20.007
20.0044
20.0044
20.0044
20.0049
20.0041
20.0036
20.0046
20.0044
20.0002
20
20.0007
20.001
20.0012
20.0021
20.003
20.0036
20.0036
20.0022
20.0011
20.001
20.0021
20.0033
20.0039
20.0042
20.004
20.0041
20.0039
20.0042
20.003
20.0011
20.0012
20.002
20.0035
20.0035
20.0028
20.0026
20.0033
20.0038
20.0037
20.0042
20.0044
20.0036
20.003
20.0036
20.0033
20.0043
20.0046
20.0029
20.0032
20.0039
20.0049
20.0061
20.0054
20.0044
20.005
20.0045
20.0036
20.0041
20.0038
20.0031
20.0023
20.0021
20.0026
20.0031
20.0037
20.0032
20.002
20.0021
20.0034
20.0045
20.0039
20.0036
20.0034
20.0027
20.0042
20.0029
20.0002
20.0014
20.0035
20.0073
20.008
20.0045
20.0032
20.0054
20.0064
20.0052
20.0044
20.0042
20.0061
20.0078
20.0068
20.0056
20.0046
20.0057
20.065
20.1468
20.1065
20.0284
20.0105
20.0065
20.006
20.0046
20.0044
20.0111
20.0185
20.0133
20.0068
20.005
20.0046
20.0078
20.0091
20.0082
20.0074
20.0056
20.0061
20.0063
20.006
20.0066
20.0048
20.0035
20.0062
20.0065
20.0045
20.003
20.0014
20.0053
20.0067
20.0033
20.0026
20.0037
20.0045
20.0039
20.0072
20.0077
20.0046
20.0052
20.0053
20.0057
20.0046
20.0032
20.0041
20.0046
20.0046
20.0002
20
20.0008
20.0021
20.0027
20.003
20.0033
20.0031
20.0028
20.0015
20.0009
20.0011
20.002
20.0031
20.0036
20.0039
20.0033
20.0035
20.0044
20.006
20.0047
20.0014
20.001
20.0024
20.0035
20.0036
20.0046
20.0047
20.0044
20.0037
20.0031
20.0029
20.0028
20.0027
20.0028
20.0042
20.0046
20.0055
20.0051
20.0039
20.0048
20.0057
20.006
20.0063
20.0054
20.004
20.0039
20.0035
20.0037
20.0046
20.0033
20.0024
20.0024
20.0028
20.0034
20.0029
20.0022
20.0025
20.0023
20.0033
20.0045
20.0048
20.0042
20.0037
20.0032
20.002
20.0018
20.0033
20.0024
20.0002
20.002
20.0043
20.007
20.0085
20.0057
20.0047
20.0094
20.0095
20.0042
20.0033
20.0042
20.0057
20.007
20.0054
20.0033
20.0033
20.0051
20.0765
20.2608
20.2828
20.1181
20.0258
20.0064
20.0053
20.0036
20.004
20.0103
20.0173
20.0125
20.0062
20.0052
20.0047
20.0068
20.008
20.0078
20.0065
20.0044
20.0054
20.0064
20.0069
20.0078
20.0055
20.0044
20.0091
20.0088
20.0049
20.0037
20.0021
20.0063
20.0085
20.0045
20.0026
20.0032
20.0041
20.0038
20.0062
20.0063
20.0041
20.0046
20.0054
20.0075
20.0061
20.0042
20.0045
20.0038
20.0045
20.0036
20.0002
20
20.0018
20.004
20.005
20.0056
20.0045
20.0032
20.0026
20.0016
20.0012
20.0013
20.002
20.0032
20.0035
20.0028
20.0024
20.0021
20.0022
20.0036
20.0031
20.0014
20.0013
20.0022
20.0032
20.0036
20.0047
20.0045
20.0038
20.004
20.0038
20.0036
20.0027
20.0023
20.0031
20.0036
20.0037
20.0046
20.005
20.0041
20.0047
20.0056
20.0061
20.0061
20.0055
20.0046
20.0047
20.0044
20.0043
20.0051
20.0034
20.0022
20.0027
20.0034
20.0035
20.0029
20.0021
20.0021
20.0022
20.0034
20.0051
20.0052
20.0052
20.0052
20.0037
20.0023
20.0015
20.0017
20.003
20.0024
20.0002
20.0032
20.0052
20.0057
20.0097
20.0082
20.0057
20.0107
20.0098
20.0036
20.0028
20.0049
20.0063
20.0063
20.0042
20.002
20.0028
20.0054
20.0483
20.257
20.3992
20.2327
20.0504
20.0119
20.0085
20.0033
20.0034
20.0078
20.0118
20.0086
20.006
20.0066
20.0075
20.0119
20.0148
20.0109
20.0078
20.0072
20.0077
20.0068
20.0057
20.008
20.0059
20.0043
20.0098
20.0099
20.0063
20.0053
20.0031
20.0062
20.0088
20.0056
20.0037
20.0046
20.0059
20.0057
20.0059
20.0045
20.0025
20.0027
20.0045
20.0076
20.0064
20.0053
20.005
20.003
20.004
20.0036
20.0036
20.0003
20
20.002
20.0038
20.0051
20.0067
20.0055
20.0031
20.002
20.0014
20.0013
20.0015
20.0018
20.0031
20.0035
20.0026
20.0027
20.0021
20.0017
20.0021
20.0015
20.0011
20.0021
20.0022
20.0023
20.0033
20.0032
20.0027
20.0025
20.0033
20.0035
20.003
20.0025
20.002
20.0031
20.0034
20.003
20.0038
20.0038
20.0027
20.0039
20.0055
20.0067
20.0082
20.0073
20.0046
20.0055
20.0066
20.0055
20.0052
20.004
20.0039
20.004
20.0032
20.0025
20.0019
20.0017
20.0021
20.002
20.0023
20.0037
20.0048
20.006
20.0064
20.0042
20.0022
20.0016
20.0015
20.0019
20.003
20.003
20.0002
20.0044
20.0057
20.0038
20.0081
20.007
20.0041
20.0078
20.0069
20.0027
20.0034
20.0063
20.0058
20.0051
20.0047
20.0032
20.0031
20.0051
20.0167
20.1477
20.3225
20.2691
20.0904
20.0171
20.0102
20.005
20.0043
20.0074
20.0104
20.0079
20.0064
20.0069
20.0069
20.0119
20.0158
20.01
20.0067
20.0078
20.0075
20.0046
20.0038
20.0088
20.0081
20.004
20.0095
20.0116
20.0081
20.0068
20.0037
20.0048
20.0074
20.0057
20.0037
20.0042
20.0056
20.0065
20.0065
20.0042
20.0021
20.0025
20.0041
20.0062
20.0057
20.0054
20.0055
20.004
20.0042
20.0038
20.0037
20.0032
20.0003
20
20.0014
20.0022
20.0033
20.0052
20.0044
20.0021
20.0013
20.0009
20.0012
20.0014
20.0012
20.0031
20.0042
20.0032
20.0027
20.002
20.002
20.0021
20.0015
20.001
20.0026
20.0029
20.0025
20.004
20.0034
20.0019
20.002
20.0023
20.0022
20.0019
20.002
20.0016
20.0029
20.0038
20.0041
20.0048
20.0031
20.0017
20.0031
20.0047
20.0053
20.0072
20.0076
20.0041
20.0044
20.0066
20.0066
20.0058
20.0042
20.0045
20.0043
20.0028
20.0022
20.0019
20.0014
20.0016
20.0022
20.0023
20.0025
20.0043
20.0054
20.0044
20.0028
20.0019
20.0018
20.0023
20.0031
20.0038
20.0047
20.0055
20.0002
20.0047
20.0061
20.0035
20.0053
20.0042
20.0033
20.0069
20.0069
20.0028
20.0022
20.0043
20.0041
20.0041
20.0039
20.0027
20.0029
20.0043
20.0076
20.0995
20.373
20.4349
20.2029
20.0568
20.0133
20.0052
20.0039
20.0063
20.0087
20.0063
20.0049
20.005
20.0043
20.0075
20.0098
20.0064
20.0054
20.006
20.0046
20.0024
20.0034
20.0093
20.0097
20.0054
20.0093
20.0117
20.0084
20.007
20.0044
20.0031
20.0048
20.0048
20.003
20.0025
20.0041
20.0054
20.006
20.0049
20.0034
20.0042
20.0045
20.0053
20.0059
20.0058
20.0051
20.0044
20.0042
20.0029
20.003
20.0031
20.0064
20.0003
20
20.0012
20.0013
20.0021
20.0046
20.0045
20.0032
20.0026
20.0016
20.0011
20.0008
20.0011
20.0032
20.0037
20.0025
20.002
20.0017
20.0019
20.0023
20.0024
20.0025
20.0033
20.0032
20.0028
20.004
20.0032
20.0017
20.002
20.002
20.0025
20.0031
20.0021
20.0016
20.0022
20.0026
20.0033
20.0036
20.0028
20.002
20.0028
20.0034
20.0032
20.0039
20.0047
20.0037
20.0047
20.0069
20.0077
20.0072
20.0041
20.0029
20.0028
20.0026
20.0027
20.0026
20.0018
20.0018
20.0041
20.0054
20.004
20.0036
20.0035
20.0024
20.0025
20.0029
20.0028
20.0033
20.0044
20.0044
20.0045
20.0077
20.0055
20.0002
20.0038
20.0052
20.0043
20.0047
20.0029
20.0031
20.0088
20.0112
20.0056
20.0023
20.0026
20.004
20.0057
20.0049
20.0031
20.0035
20.0049
20.008
20.0793
20.3985
20.5917
20.3609
20.1085
20.0172
20.0054
20.0056
20.0081
20.0094
20.007
20.006
20.0074
20.0069
20.009
20.0104
20.0074
20.0058
20.0056
20.0046
20.0024
20.0035
20.009
20.0108
20.0068
20.0087
20.0117
20.0083
20.0067
20.0051
20.0032
20.0041
20.0042
20.0029
20.0023
20.0035
20.0038
20.0055
20.0063
20.0049
20.0063
20.0058
20.0046
20.006
20.0061
20.0045
20.0048
20.0046
20.0027
20.0027
20.003
20.0065
20.0096
20.0003
20
20.0013
20.0016
20.0016
20.0034
20.0054
20.0055
20.0047
20.0028
20.0015
20.0013
20.0013
20.0027
20.0025
20.002
20.0022
20.002
20.0023
20.0026
20.0028
20.0032
20.0033
20.0024
20.0019
20.0027
20.0028
20.0031
20.0033
20.0025
20.0031
20.0036
20.0025
20.002
20.0026
20.0028
20.0027
20.0028
20.0032
20.0041
20.0047
20.0037
20.0035
20.0031
20.0033
20.0037
20.0052
20.0058
20.0047
20.0054
20.0043
20.0033
20.0031
20.0038
20.0047
20.004
20.0026
20.0025
20.005
20.0068
20.006
20.0049
20.004
20.0034
20.0036
20.0035
20.0029
20.0031
20.0038
20.0047
20.0051
20.0053
20.0081
20.0061
20.0002
20.0026
20.0049
20.0069
20.0068
20.0037
20.0048
20.0152
20.0186
20.0094
20.0044
20.0036
20.0063
20.0087
20.0073
20.0052
20.0048
20.0057
20.0073
20.0439
20.2061
20.3818
20.303
20.097
20.0121
20.0058
20.0066
20.0094
20.0103
20.0073
20.0061
20.0087
20.0081
20.0092
20.0093
20.0064
20.0049
20.0039
20.0037
20.0019
20.0025
20.0077
20.0106
20.0063
20.0073
20.0113
20.0084
20.0072
20.0069
20.005
20.0053
20.0047
20.0032
20.0027
20.0028
20.0022
20.0039
20.0053
20.006
20.0073
20.0063
20.0048
20.0056
20.0065
20.0045
20.0047
20.0054
20.0035
20.0024
20.0027
20.0067
20.0104
20.0091
20.0002
20
20.001
20.002
20.0024
20.0033
20.0055
20.0059
20.0047
20.0029
20.0024
20.0025
20.0016
20.0025
20.0028
20.0029
20.0026
20.0017
20.0025
20.0027
20.0023
20.0019
20.0019
20.0017
20.0014
20.0018
20.0023
20.0037
20.0038
20.003
20.0028
20.0024
20.0028
20.0033
20.0034
20.0036
20.0037
20.0037
20.0044
20.0057
20.0059
20.0038
20.0031
20.0026
20.0022
20.003
20.0043
20.0039
20.0021
20.0024
20.0029
20.0029
20.0032
20.0041
20.0047
20.0041
20.0029
20.0034
20.0044
20.0046
20.0048
20.0048
20.0042
20.0033
20.0026
20.0024
20.0017
20.0015
20.0018
20.0027
20.0034
20.0034
20.0037
20.0063
20.0038
20.0001
20.0017
20.0054
20.0092
20.0082
20.0046
20.0063
20.0176
20.0196
20.009
20.0042
20.0047
20.0082
20.0095
20.0069
20.0057
20.0069
20.0069
20.0072
20.0175
20.0683
20.1227
20.111
20.0504
20.0107
20.006
20.0054
20.0079
20.0092
20.007
20.0053
20.0061
20.0069
20.0088
20.0069
20.0042
20.0041
20.0029
20.003
20.003
20.0028
20.0072
20.0093
20.0057
20.0064
20.0098
20.0098
20.0087
20.0077
20.0057
20.0058
20.0051
20.0031
20.0032
20.0031
20.0017
20.0023
20.0034
20.0056
20.0071
20.0053
20.0036
20.0043
20.0055
20.0036
20.0033
20.0042
20.0028
20.002
20.0037
20.0071
20.0081
20.0062
20.0052
20.0002
20
20.0008
20.0018
20.0026
20.0032
20.0041
20.004
20.0033
20.0027
20.0033
20.003
20.0014
20.0028
20.0031
20.003
20.0026
20.0015
20.0024
20.0029
20.0019
20.0009
20.0013
20.0018
20.002
20.0017
20.0016
20.002
20.0021
20.0028
20.0026
20.0018
20.0025
20.0032
20.0028
20.003
20.004
20.0048
20.0052
20.0048
20.0051
20.0043
20.003
20.0024
20.0021
20.0025
20.0043
20.0049
20.0036
20.0029
20.002
20.002
20.0029
20.0031
20.0025
20.0024
20.0032
20.0044
20.0053
20.0046
20.0039
20.004
20.0034
20.0023
20.0021
20.0028
20.0021
20.0014
20.0015
20.0016
20.0016
20.0024
20.0037
20.0033
20.004
20.0022
20.0001
20.0015
20.0052
20.009
20.0081
20.0046
20.0047
20.0117
20.0133
20.0068
20.0031
20.0043
20.0072
20.0068
20.0047
20.0051
20.0083
20.0087
20.0105
20.0152
20.0236
20.0352
20.0654
20.0879
20.0464
20.0072
20.0058
20.0076
20.0098
20.0082
20.0069
20.0077
20.0103
20.0121
20.0075
20.005
20.0053
20.0042
20.0042
20.0048
20.0045
20.008
20.011
20.0071
20.0066
20.0084
20.01
20.0085
20.0061
20.0058
20.0066
20.0056
20.0031
20.0032
20.0027
20.0018
20.0029
20.0032
20.0034
20.0053
20.0041
20.0023
20.0029
20.0041
20.0034
20.0027
20.0028
20.0019
20.0022
20.0039
20.0057
20.0055
20.0036
20.0038
20.0042
20.0003
20
20.0011
20.0013
20.0014
20.0021
20.0024
20.002
20.0021
20.0025
20.0035
20.0028
20.001
20.0034
20.0039
20.0034
20.0038
20.0022
20.0016
20.0016
20.0011
20.0008
20.0011
20.0015
20.0018
20.0021
20.0022
20.002
20.0029
20.0049
20.0045
20.0032
20.0027
20.0027
20.0024
20.0024
20.0026
20.0033
20.0041
20.0038
20.0037
20.0035
20.003
20.003
20.0045
20.0046
20.0064
20.0076
20.0063
20.005
20.0023
20.0016
20.0022
20.0023
20.0016
20.0013
20.0028
20.0042
20.0045
20.0039
20.0032
20.0036
20.0035
20.003
20.0027
20.003
20.0024
20.0017
20.002
20.0021
20.0021
20.0025
20.0031
20.003
20.0017
20.0023
20.0018
20.0001
20.0014
20.0042
20.0081
20.0083
20.0042
20.003
20.0065
20.0087
20.0067
20.0034
20.0037
20.0052
20.0043
20.0035
20.0044
20.0066
20.0082
20.0124
20.0137
20.0098
20.0094
20.0638
20.1383
20.0849
20.009
20.0069
20.0084
20.0112
20.0095
20.0093
20.011
20.0121
20.0109
20.0063
20.0057
20.0059
20.0043
20.0053
20.009
20.0086
20.0112
20.0143
20.0089
20.0076
20.0091
20.0105
20.008
20.0056
20.0065
20.0061
20.0048
20.003
20.0026
20.0027
20.0029
20.0041
20.0039
20.0033
20.0041
20.0031
20.002
20.0018
20.0032
20.0036
20.0028
20.0024
20.0019
20.0022
20.0038
20.0057
20.0053
20.0034
20.0033
20.0043
20.0028
20.0004
20
20.0011
20.0009
20.0008
20.0015
20.0014
20.0014
20.0017
20.0022
20.0039
20.0039
20.0022
20.0043
20.0058
20.0049
20.005
20.0034
20.0013
20.0008
20.001
20.0012
20.0014
20.0014
20.0018
20.0025
20.0027
20.0023
20.0039
20.0055
20.0046
20.0036
20.0026
20.0025
20.0022
20.0018
20.0017
20.0016
20.0028
20.0036
20.0033
20.0026
20.0024
20.0035
20.0047
20.0044
20.0056
20.0063
20.0055
20.0041
20.0017
20.0014
20.0015
20.0018
20.0022
20.0021
20.0026
20.0042
20.0043
20.0031
20.0024
20.0025
20.0025
20.0032
20.0031
20.0024
20.0021
20.0017
20.0022
20.0021
20.0021
20.002
20.0017
20.0023
20.0025
20.0028
20.0027
20.0034
20.0001
20.0016
20.0035
20.0069
20.008
20.0041
20.003
20.0044
20.0054
20.0057
20.0036
20.0041
20.0053
20.004
20.0033
20.0036
20.0047
20.0065
20.0096
20.0103
20.0062
20.0031
20.025
20.1157
20.1528
20.0655
20.0091
20.0095
20.0108
20.0082
20.0074
20.0085
20.0095
20.0084
20.0056
20.0053
20.0046
20.0034
20.0053
20.011
20.0103
20.0117
20.0152
20.012
20.0119
20.0133
20.0135
20.0094
20.0059
20.0059
20.004
20.0029
20.0022
20.0026
20.0047
20.005
20.0053
20.0051
20.004
20.0045
20.0037
20.0022
20.0015
20.0028
20.0035
20.0023
20.0017
20.0019
20.0018
20.003
20.0044
20.0043
20.0032
20.0027
20.0039
20.0026
20.0029
20.0003
20
20.001
20.0009
20.0008
20.0011
20.0014
20.0021
20.0024
20.0024
20.0039
20.005
20.0035
20.0055
20.0071
20.005
20.0046
20.0032
20.0017
20.0013
20.0011
20.0015
20.0016
20.0015
20.0021
20.0024
20.0027
20.0027
20.0029
20.0036
20.0033
20.0029
20.002
20.0017
20.0015
20.001
20.0013
20.0012
20.002
20.0026
20.0029
20.0029
20.0024
20.0028
20.0027
20.0017
20.0025
20.0031
20.0026
20.0019
20.0014
20.0017
20.002
20.0024
20.0026
20.0025
20.0024
20.0037
20.0044
20.0035
20.0026
20.0025
20.0021
20.0024
20.0029
20.0024
20.0018
20.0012
20.0017
20.0016
20.0013
20.0014
20.0016
20.0024
20.0029
20.0023
20.0023
20.0045
20.0033
20.0001
20.0022
20.0033
20.0048
20.0072
20.0048
20.0028
20.0037
20.0051
20.0074
20.0065
20.0061
20.0071
20.0065
20.0055
20.0043
20.005
20.0052
20.0063
20.0065
20.0048
20.0033
20.004
20.0789
20.2048
20.1729
20.0508
20.0126
20.0113
20.0079
20.0062
20.0066
20.0087
20.009
20.0069
20.0059
20.0041
20.0039
20.0062
20.0099
20.0087
20.0092
20.0128
20.0122
20.0127
20.0119
20.011
20.0086
20.0063
20.0063
20.0041
20.0029
20.0026
20.0029
20.0056
20.0054
20.0043
20.0042
20.004
20.0048
20.0045
20.003
20.0015
20.0035
20.0036
20.0018
20.0016
20.002
20.0019
20.0019
20.0035
20.004
20.0029
20.0025
20.0028
20.0022
20.0024
20.0047
20.0003
20
20.0009
20.0009
20.0009
20.0018
20.0024
20.0028
20.0026
20.0022
20.0034
20.0045
20.0044
20.0073
20.0079
20.0053
20.0042
20.0028
20.0021
20.0014
20.0012
20.0018
20.0018
20.0015
20.0019
20.0022
20.0029
20.0035
20.0034
20.0042
20.0044
20.0037
20.0024
20.0018
20.002
20.0014
20.0012
20.0012
20.002
20.0023
20.0026
20.0038
20.0029
20.0018
20.0022
20.0018
20.0028
20.003
20.002
20.0017
20.0013
20.0014
20.0016
20.0024
20.0031
20.0035
20.0031
20.0042
20.005
20.0045
20.0039
20.0035
20.0038
20.0036
20.003
20.0025
20.0019
20.0015
20.0026
20.0032
20.0026
20.0026
20.0032
20.0033
20.0025
20.0017
20.0018
20.0022
20.0049
20.0033
20.0001
20.0026
20.0033
20.003
20.0065
20.0067
20.0052
20.0049
20.0054
20.0092
20.0095
20.0075
20.0074
20.0082
20.0072
20.0047
20.0042
20.0038
20.0051
20.0049
20.0044
20.0038
20.0044
20.0312
20.1655
20.2554
20.1406
20.0273
20.009
20.0087
20.0092
20.0079
20.0073
20.0079
20.008
20.0086
20.0053
20.0047
20.0077
20.0101
20.0086
20.0085
20.0115
20.011
20.01
20.0071
20.0071
20.0079
20.0068
20.0065
20.0048
20.0037
20.0041
20.004
20.005
20.0046
20.0026
20.0027
20.0037
20.0046
20.005
20.0035
20.0012
20.0036
20.004
20.0038
20.0043
20.003
20.0021
20.0019
20.0034
20.0034
20.0021
20.0022
20.0021
20.0022
20.0018
20.0035
20.0057
20.0004
20
20.0011
20.0012
20.0015
20.0028
20.0027
20.0023
20.002
20.0023
20.0035
20.005
20.0057
20.0076
20.0079
20.0054
20.0039
20.0029
20.0024
20.0016
20.0017
20.0024
20.0026
20.0021
20.0027
20.0031
20.0032
20.0035
20.0034
20.0045
20.0055
20.0046
20.0031
20.0029
20.0029
20.0019
20.0016
20.0015
20.0017
20.0026
20.0024
20.0029
20.0024
20.0016
20.0025
20.003
20.0052
20.0053
20.0035
20.0027
20.0021
20.002
20.0018
20.0025
20.0034
20.0036
20.003
20.004
20.0048
20.0049
20.0042
20.0033
20.0035
20.0031
20.0033
20.0029
20.0026
20.0027
20.0033
20.0047
20.0045
20.0042
20.0044
20.0037
20.0029
20.0026
20.003
20.0032
20.0034
20.0043
20.0038
20.0001
20.0026
20.0036
20.0031
20.0064
20.0076
20.0069
20.0057
20.0044
20.0064
20.0075
20.0085
20.0092
20.0099
20.0085
20.0069
20.0072
20.0052
20.0046
20.0052
20.007
20.0052
20.005
20.0088
20.1059
20.2535
20.2253
20.0896
20.0205
20.0086
20.0095
20.0073
20.0075
20.008
20.0074
20.01
20.0073
20.0051
20.0075
20.0109
20.0105
20.0104
20.015
20.0148
20.0103
20.0055
20.0071
20.0104
20.0084
20.0059
20.0047
20.004
20.0056
20.0057
20.0054
20.0044
20.0024
20.0025
20.0038
20.005
20.0059
20.0049
20.0031
20.0045
20.004
20.0071
20.0087
20.0046
20.0024
20.0015
20.0029
20.0028
20.0013
20.0023
20.0028
20.0025
20.0024
20.0036
20.0055
20.0044
20.0004
20
20.0013
20.0017
20.0019
20.0031
20.003
20.0021
20.0023
20.0027
20.0037
20.0054
20.0051
20.0066
20.007
20.0051
20.0038
20.0029
20.0029
20.0019
20.0019
20.0026
20.0035
20.0035
20.0042
20.0034
20.0034
20.0035
20.0023
20.0031
20.0044
20.0041
20.0043
20.0059
20.0044
20.0025
20.0022
20.0021
20.0032
20.0039
20.0028
20.0021
20.0017
20.0018
20.0026
20.003
20.0051
20.0053
20.003
20.0023
20.0023
20.0027
20.0024
20.0025
20.0027
20.0023
20.0022
20.0032
20.0044
20.0055
20.0051
20.0036
20.0032
20.0029
20.0041
20.0051
20.0053
20.0056
20.0054
20.0056
20.005
20.0043
20.0043
20.0041
20.0035
20.0032
20.0035
20.0033
20.0029
20.0032
20.0041
20.004
20.0001
20.0021
20.0042
20.0043
20.0056
20.0059
20.0044
20.0041
20.0043
20.0059
20.0071
20.0095
20.0107
20.0106
20.0118
20.0132
20.014
20.0099
20.0064
20.0073
20.011
20.0096
20.0085
20.0125
20.0445
20.1591
20.2575
20.2056
20.0756
20.0125
20.0116
20.0081
20.0093
20.0097
20.0061
20.008
20.0076
20.0055
20.0064
20.0092
20.0102
20.0142
20.024
20.0235
20.0136
20.0058
20.0078
20.0136
20.0106
20.0054
20.0041
20.0034
20.0047
20.0058
20.0065
20.0045
20.0023
20.0024
20.0047
20.0058
20.0057
20.0054
20.0042
20.0058
20.0051
20.0083
20.0099
20.0065
20.0046
20.0023
20.0034
20.0039
20.0022
20.0035
20.0042
20.0028
20.0032
20.0045
20.0052
20.004
20.0038
20.0006
20
20.001
20.0018
20.0022
20.0034
20.004
20.0036
20.0035
20.0029
20.0049
20.0066
20.0051
20.0057
20.0059
20.0047
20.0035
20.0024
20.0024
20.0014
20.0015
20.0021
20.0025
20.0032
20.0039
20.0032
20.0031
20.0027
20.0025
20.0025
20.003
20.0041
20.0055
20.0078
20.0057
20.004
20.0044
20.0047
20.0056
20.0053
20.004
20.0021
20.0017
20.0021
20.0021
20.0017
20.0032
20.0036
20.0022
20.0025
20.0023
20.0026
20.003
20.0026
20.0028
20.0023
20.0021
20.0036
20.0044
20.0046
20.0045
20.0038
20.0035
20.0031
20.0037
20.0045
20.0046
20.0046
20.005
20.0056
20.0053
20.0042
20.0046
20.0057
20.0048
20.0039
20.0044
20.0041
20.0034
20.0026
20.0025
20.0041
20.0033
20.0001
20.0018
20.0057
20.0057
20.0042
20.0055
20.0048
20.0038
20.0038
20.0063
20.0069
20.0069
20.0073
20.0083
20.0133
20.0159
20.0148
20.012
20.0089
20.0087
20.0142
20.0135
20.0118
20.0138
20.0113
20.0521
20.1691
20.2488
20.1722
20.0658
20.0262
20.0087
20.0088
20.0096
20.0055
20.0053
20.0073
20.0074
20.0065
20.0075
20.0086
20.0168
20.0322
20.0321
20.0186
20.0084
20.0092
20.0159
20.0117
20.0051
20.0042
20.0028
20.003
20.0069
20.0101
20.0064
20.0038
20.0038
20.0054
20.0059
20.0052
20.0049
20.0032
20.0064
20.007
20.0075
20.0087
20.0068
20.0052
20.0022
20.0026
20.0038
20.003
20.0047
20.0049
20.0036
20.0045
20.0047
20.004
20.0025
20.0029
20.0038
20.0005
20
20.0009
20.0016
20.002
20.0034
20.0051
20.0054
20.005
20.0041
20.0062
20.0072
20.0052
20.0059
20.0069
20.0056
20.0041
20.0024
20.0018
20.0019
20.0022
20.0037
20.0043
20.0045
20.0038
20.0034
20.0031
20.0018
20.0024
20.0025
20.003
20.0042
20.0053
20.0068
20.0052
20.0048
20.0052
20.0046
20.005
20.0052
20.0051
20.0027
20.0014
20.0016
20.001
20.0008
20.0024
20.0029
20.0022
20.0032
20.0028
20.0025
20.0031
20.0028
20.003
20.0021
20.001
20.0025
20.0034
20.0025
20.0021
20.0026
20.0023
20.0017
20.0016
20.0017
20.0016
20.0014
20.002
20.0043
20.0052
20.0048
20.0053
20.0062
20.005
20.0036
20.0046
20.0054
20.0055
20.0042
20.0033
20.0042
20.0034
20.0039
20.0001
20.0023
20.0071
20.0059
20.0031
20.0059
20.0078
20.0073
20.0063
20.0091
20.0094
20.0083
20.0088
20.0104
20.0151
20.0167
20.0145
20.0131
20.011
20.0088
20.0156
20.0165
20.0129
20.0122
20.0091
20.0091
20.0531
20.1523
20.1848
20.1246
20.0602
20.0192
20.0101
20.0115
20.0057
20.0032
20.0059
20.0097
20.0121
20.0141
20.0113
20.016
20.0343
20.0347
20.0198
20.0101
20.0098
20.0163
20.0138
20.0072
20.0049
20.003
20.0025
20.0063
20.0102
20.0069
20.0053
20.0051
20.0058
20.0062
20.0052
20.0053
20.0042
20.007
20.008
20.0068
20.0062
20.0051
20.0038
20.0017
20.0019
20.0029
20.003
20.0056
20.0055
20.0043
20.0055
20.0046
20.003
20.0019
20.0023
20.0036
20.0038
20.0002
20
20.0006
20.001
20.001
20.0028
20.0048
20.0049
20.0048
20.0045
20.0056
20.0053
20.0035
20.0047
20.0063
20.0074
20.006
20.0027
20.0017
20.0016
20.0017
20.0035
20.0045
20.0044
20.0032
20.0028
20.0032
20.0024
20.0018
20.0021
20.0024
20.0024
20.0034
20.004
20.0033
20.0047
20.0052
20.0042
20.0046
20.0051
20.0055
20.0044
20.0025
20.002
20.002
20.0018
20.0029
20.0026
20.0018
20.0026
20.0031
20.0032
20.003
20.0027
20.0026
20.0018
20.0014
20.0025
20.003
20.002
20.0018
20.0019
20.0021
20.0018
20.0011
20.0012
20.0016
20.0024
20.0031
20.0039
20.0042
20.0047
20.0064
20.0062
20.0045
20.0036
20.005
20.0071
20.0071
20.0053
20.0038
20.0039
20.004
20.0031
20.0035
20.0001
20.0028
20.0071
20.005
20.0032
20.0057
20.0068
20.0093
20.0092
20.0101
20.0107
20.0092
20.01
20.0111
20.0138
20.0139
20.0119
20.0121
20.0103
20.0086
20.0175
20.0216
20.0156
20.0112
20.0079
20.0096
20.0167
20.0485
20.0845
20.0994
20.0896
20.0459
20.0175
20.015
20.0083
20.0032
20.0051
20.0109
20.0201
20.024
20.0142
20.0135
20.0341
20.0336
20.0169
20.0093
20.0091
20.0153
20.0136
20.0073
20.0048
20.0042
20.0027
20.0042
20.0064
20.0044
20.0058
20.006
20.0054
20.0057
20.0047
20.0051
20.0049
20.0067
20.0073
20.0053
20.0041
20.0037
20.0035
20.0031
20.0028
20.0024
20.0022
20.0045
20.0045
20.0033
20.0047
20.0041
20.0028
20.002
20.0023
20.004
20.0043
20.0028
20.0003
20
20.0008
20.001
20.0009
20.0024
20.0039
20.0034
20.0042
20.0045
20.0045
20.0042
20.0031
20.0036
20.0036
20.0051
20.0052
20.0028
20.0016
20.001
20.0009
20.001
20.0013
20.0019
20.0023
20.0024
20.003
20.0032
20.0025
20.002
20.0018
20.0014
20.0016
20.0017
20.0019
20.0034
20.0043
20.0043
20.0041
20.0036
20.0043
20.0046
20.0035
20.0029
20.0024
20.0022
20.0037
20.0036
20.0025
20.0031
20.0039
20.0042
20.0031
20.0034
20.0037
20.0024
20.0018
20.0021
20.0018
20.0009
20.0012
20.0014
20.0015
20.0014
20.0009
20.0009
20.0018
20.0038
20.0056
20.0062
20.0056
20.005
20.0057
20.0049
20.0038
20.0048
20.0062
20.0064
20.0056
20.0049
20.0042
20.0046
20.0053
20.0052
20.0032
20.0057
20.0001
20.0031
20.0063
20.0039
20.0036
20.0064
20.0062
20.0082
20.0089
20.0082
20.0076
20.0059
20.0068
20.0077
20.0089
20.0083
20.0069
20.0082
20.0077
20.0069
20.0173
20.0236
20.0156
20.0082
20.0062
20.0085
20.0097
20.0135
20.0192
20.0382
20.0569
20.0383
20.0153
20.0122
20.0087
20.0051
20.007
20.0125
20.0231
20.0261
20.0126
20.0108
20.0309
20.0303
20.0147
20.009
20.0086
20.0119
20.0091
20.0046
20.0046
20.0064
20.0057
20.0054
20.005
20.0031
20.0054
20.0059
20.0043
20.0039
20.0035
20.0039
20.0039
20.0065
20.0063
20.0034
20.004
20.0039
20.0035
20.0043
20.0034
20.0017
20.0013
20.0025
20.0022
20.0022
20.0041
20.0033
20.0023
20.0023
20.0035
20.0043
20.0035
20.0026
20.0032
20.0004
20
20.0014
20.0019
20.0015
20.002
20.0027
20.0025
20.004
20.0051
20.0044
20.0038
20.0032
20.003
20.0023
20.0027
20.0038
20.0039
20.0029
20.0025
20.0023
20.0019
20.0018
20.0019
20.0028
20.0025
20.0026
20.0029
20.0032
20.0027
20.0015
20.0011
20.0011
20.0014
20.0024
20.0033
20.0035
20.0031
20.0029
20.0027
20.0032
20.0041
20.0037
20.0029
20.0025
20.0028
20.0044
20.0042
20.0036
20.0036
20.0031
20.004
20.0039
20.0057
20.0068
20.0042
20.0024
20.0019
20.0021
20.0018
20.0024
20.003
20.0032
20.0034
20.003
20.0024
20.0023
20.0042
20.0057
20.0076
20.0077
20.0051
20.0041
20.0038
20.0039
20.0051
20.0063
20.0051
20.0043
20.0064
20.0071
20.009
20.0098
20.008
20.0079
20.0054
20.0068
20.0001
20.0039
20.0057
20.0028
20.0044
20.0065
20.0069
20.008
20.0084
20.0088
20.0094
20.0091
20.0094
20.0088
20.0073
20.0063
20.0051
20.0066
20.0077
20.0076
20.0164
20.0229
20.0134
20.0073
20.0085
20.0113
20.0161
20.0189
20.0172
20.0128
20.0147
20.0148
20.0088
20.0078
20.0072
20.0069
20.0085
20.0128
20.0229
20.0237
20.0109
20.0108
20.0296
20.029
20.0138
20.0086
20.0086
20.0098
20.0074
20.004
20.0043
20.0077
20.0074
20.0057
20.0048
20.0028
20.0039
20.0047
20.0039
20.0036
20.0029
20.0022
20.0032
20.0071
20.006
20.0021
20.0034
20.0041
20.0042
20.005
20.0037
20.0021
20.0029
20.0042
20.0032
20.0029
20.0049
20.0041
20.0022
20.003
20.0052
20.0044
20.0039
20.005
20.0041
20.0032
20.0005
20
20.0016
20.0018
20.0014
20.0013
20.0016
20.0019
20.0025
20.0037
20.0052
20.0051
20.0034
20.0026
20.0023
20.0027
20.0036
20.004
20.0031
20.0026
20.003
20.0032
20.0025
20.0022
20.0024
20.0022
20.0033
20.0035
20.0033
20.0036
20.0031
20.0025
20.0022
20.0027
20.0045
20.0057
20.0051
20.0042
20.0031
20.003
20.0032
20.0039
20.0043
20.0032
20.003
20.0035
20.0045
20.0036
20.0028
20.0033
20.0032
20.0042
20.0056
20.0067
20.0064
20.0041
20.0023
20.002
20.0021
20.0023
20.0032
20.0034
20.0039
20.0043
20.0039
20.0033
20.0032
20.0042
20.0039
20.0052
20.0054
20.0032
20.0031
20.0034
20.0036
20.0039
20.0043
20.004
20.0034
20.0055
20.007
20.0079
20.0082
20.0073
20.0065
20.0061
20.0052
20.0063
20.0001
20.0042
20.0054
20.0026
20.0057
20.006
20.0048
20.0066
20.007
20.0092
20.0125
20.0133
20.0127
20.0105
20.0088
20.0091
20.0092
20.0108
20.0119
20.012
20.018
20.0222
20.0158
20.0123
20.0124
20.0144
20.0201
20.0217
20.0177
20.0125
20.0145
20.0166
20.0099
20.0069
20.0072
20.0079
20.0112
20.0149
20.0224
20.0217
20.0113
20.0159
20.0322
20.0289
20.0145
20.0099
20.0097
20.008
20.0057
20.0039
20.0044
20.0072
20.0054
20.0048
20.0063
20.004
20.0035
20.0045
20.0039
20.0035
20.0028
20.0029
20.0047
20.0066
20.0045
20.0017
20.0025
20.0035
20.0041
20.0043
20.0032
20.0025
20.0042
20.0056
20.0039
20.003
20.0045
20.0039
20.0027
20.003
20.0053
20.005
20.0041
20.0055
20.0048
20.0033
20.0045
20.0004
20
20.0011
20.0011
20.0009
20.001
20.0015
20.0019
20.0016
20.003
20.0053
20.0052
20.0036
20.0034
20.0036
20.0029
20.0023
20.002
20.0015
20.0015
20.002
20.0025
20.0025
20.0025
20.002
20.0028
20.0045
20.0054
20.0051
20.005
20.0048
20.0043
20.004
20.003
20.0049
20.0056
20.0043
20.0042
20.003
20.0024
20.0025
20.0026
20.0026
20.002
20.0021
20.003
20.0039
20.0034
20.0027
20.0037
20.0045
20.0043
20.0049
20.0048
20.004
20.003
20.0021
20.002
20.0017
20.0021
20.0024
20.0019
20.0021
20.0024
20.0022
20.0025
20.0032
20.0032
20.0028
20.0031
20.0027
20.002
20.0024
20.0024
20.0031
20.0031
20.002
20.0022
20.0028
20.0035
20.0048
20.0056
20.0052
20.0052
20.0046
20.0044
20.0042
20.0049
20.0035
20.0001
20.0036
20.0047
20.0024
20.0065
20.0065
20.0051
20.0074
20.0084
20.0127
20.0159
20.0137
20.0128
20.0114
20.0101
20.0112
20.0103
20.0118
20.0116
20.0095
20.0125
20.0147
20.0126
20.0113
20.0109
20.0126
20.0153
20.0151
20.0146
20.016
20.0239
20.0253
20.0124
20.0059
20.0069
20.009
20.0166
20.0206
20.0211
20.0198
20.0144
20.0218
20.0312
20.0236
20.0134
20.0118
20.0111
20.0072
20.0055
20.0046
20.0048
20.006
20.0043
20.0055
20.0079
20.0057
20.0043
20.0062
20.0068
20.0063
20.0049
20.0043
20.0072
20.0074
20.0038
20.0017
20.0017
20.0023
20.0033
20.0038
20.0027
20.0029
20.0044
20.0054
20.0038
20.003
20.0036
20.0034
20.0037
20.0029
20.0049
20.006
20.0043
20.0042
20.005
20.0048
20.0045
20.0041
20.0002
20
20.0009
20.001
20.0009
20.0013
20.0014
20.0016
20.0018
20.0028
20.0042
20.0035
20.0026
20.0034
20.0042
20.0032
20.0022
20.0019
20.0012
20.0012
20.0019
20.0027
20.003
20.0035
20.0035
20.0038
20.0047
20.0061
20.0079
20.0077
20.006
20.0055
20.0045
20.003
20.0038
20.0038
20.0044
20.0047
20.0028
20.0019
20.0012
20.0012
20.0012
20.0013
20.002
20.0031
20.0048
20.0054
20.0055
20.0054
20.0059
20.0056
20.0041
20.0037
20.0032
20.0029
20.0031
20.0035
20.0028
20.0024
20.0023
20.002
20.0019
20.0018
20.0016
20.0019
20.0031
20.0031
20.0022
20.0021
20.0018
20.0019
20.0032
20.0036
20.0041
20.0036
20.0026
20.0026
20.0032
20.0042
20.005
20.006
20.0064
20.0058
20.0052
20.0043
20.0035
20.0044
20.0033
20.0053
20.0001
20.0022
20.0036
20.0031
20.0067
20.0065
20.0056
20.0072
20.0084
20.0162
20.0192
20.0126
20.0106
20.0106
20.0098
20.0091
20.0059
20.0071
20.0076
20.0059
20.0077
20.0076
20.0058
20.0059
20.0071
20.009
20.0099
20.0096
20.0112
20.0155
20.0248
20.0254
20.0127
20.0054
20.0063
20.0093
20.0183
20.0214
20.0189
20.0201
20.0199
20.0254
20.0255
20.0163
20.0109
20.0119
20.011
20.0073
20.0071
20.0056
20.0044
20.0047
20.0045
20.006
20.0069
20.0056
20.0041
20.0054
20.0076
20.0099
20.0075
20.0044
20.0074
20.0072
20.004
20.0026
20.0024
20.0025
20.0036
20.0039
20.0023
20.0031
20.0048
20.0055
20.0045
20.0034
20.0034
20.004
20.0051
20.0035
20.0054
20.0077
20.0057
20.0048
20.0055
20.0048
20.0035
20.0031
20.004
20.0002
20
20.0007
20.0009
20.0009
20.0011
20.0014
20.0016
20.0018
20.0021
20.0026
20.0022
20.0019
20.0023
20.0027
20.003
20.0031
20.0023
20.0013
20.001
20.0019
20.0027
20.0026
20.0034
20.0043
20.0055
20.006
20.006
20.0077
20.0075
20.0059
20.0048
20.0035
20.0031
20.0036
20.0032
20.0044
20.0043
20.0022
20.002
20.0015
20.0014
20.0013
20.0016
20.0018
20.002
20.0038
20.0048
20.0052
20.0048
20.0056
20.0064
20.005
20.0037
20.0023
20.0024
20.0029
20.0031
20.0025
20.0018
20.0018
20.0019
20.0019
20.0015
20.0014
20.0018
20.0035
20.0049
20.0037
20.0031
20.0029
20.0037
20.0045
20.0042
20.0039
20.0032
20.003
20.0028
20.0026
20.0032
20.0041
20.0045
20.0056
20.0051
20.0041
20.0035
20.0031
20.0036
20.0044
20.006
20.0044
20.0001
20.0015
20.0039
20.005
20.0063
20.006
20.0052
20.005
20.0074
20.0174
20.0186
20.0106
20.0091
20.0089
20.0088
20.0079
20.0048
20.0054
20.006
20.0067
20.0092
20.0086
20.0059
20.0041
20.0062
20.0092
20.0067
20.0046
20.0069
20.0092
20.0157
20.0173
20.0105
20.0072
20.0079
20.0106
20.0179
20.0181
20.0163
20.0207
20.021
20.021
20.016
20.0094
20.0078
20.01
20.0093
20.0064
20.0066
20.005
20.0036
20.0033
20.0046
20.0052
20.0039
20.0037
20.0035
20.0034
20.0052
20.0078
20.0059
20.0037
20.0047
20.005
20.0044
20.0038
20.0043
20.0041
20.0046
20.0042
20.0022
20.0023
20.0032
20.0035
20.0031
20.0032
20.0032
20.0035
20.0046
20.0035
20.0052
20.0074
20.0062
20.0053
20.0061
20.0053
20.0036
20.0033
20.0045
20.0061
20.0003
20
20.0011
20.0013
20.0009
20.001
20.0015
20.0014
20.0015
20.0021
20.0018
20.0021
20.0025
20.0022
20.0033
20.0044
20.0044
20.0027
20.0017
20.0014
20.0014
20.0018
20.0014
20.0024
20.0041
20.0061
20.0087
20.0081
20.0062
20.0055
20.0044
20.0034
20.0032
20.003
20.0029
20.003
20.0032
20.0027
20.0019
20.0022
20.002
20.0014
20.001
20.0012
20.0009
20.0007
20.0016
20.0027
20.0026
20.0023
20.0035
20.0046
20.0048
20.0033
20.0017
20.0016
20.0017
20.0016
20.0016
20.0013
20.0019
20.0024
20.0027
20.0025
20.0021
20.003
20.0039
20.005
20.0049
20.005
20.0051
20.0061
20.0056
20.0043
20.0039
20.0033
20.0039
20.0046
20.0039
20.0029
20.0033
20.0043
20.0052
20.004
20.0035
20.0048
20.0042
20.0028
20.0032
20.004
20.0043
20.0042
20
20.0013
20.0046
20.0059
20.0051
20.0058
20.0063
20.0051
20.0079
20.0151
20.0143
20.0093
20.0099
20.0096
20.0093
20.0081
20.0049
20.0049
20.0059
20.0078
20.0095
20.0088
20.0075
20.0049
20.0063
20.0099
20.0081
20.0063
20.0078
20.0076
20.0103
20.0124
20.0099
20.0101
20.0112
20.0128
20.0175
20.0168
20.0163
20.0206
20.0182
20.0126
20.0084
20.0065
20.0069
20.0086
20.0088
20.0074
20.0063
20.0043
20.0029
20.0029
20.0041
20.0037
20.0021
20.002
20.0027
20.0034
20.0044
20.005
20.0052
20.005
20.0042
20.0045
20.0042
20.0045
20.0052
20.0044
20.0041
20.0037
20.0025
20.0021
20.0023
20.0024
20.0027
20.0028
20.0027
20.0028
20.0034
20.0033
20.0046
20.0056
20.0051
20.0052
20.0058
20.0048
20.0035
20.0036
20.0046
20.0063
20.0052
20.0005
20
20.0013
20.0016
20.0019
20.0019
20.0016
20.0013
20.0014
20.0021
20.0021
20.0022
20.002
20.0026
20.0041
20.005
20.0042
20.0026
20.0018
20.0012
20.0011
20.0013
20.0009
20.002
20.0036
20.0052
20.0084
20.0083
20.0059
20.0046
20.0044
20.0041
20.0045
20.0051
20.0043
20.0043
20.0036
20.0027
20.0025
20.0024
20.0019
20.0013
20.001
20.0009
20.0006
20.0007
20.0015
20.0023
20.0019
20.0015
20.0023
20.0036
20.0038
20.0025
20.0015
20.0012
20.0009
20.0014
20.0023
20.0034
20.0042
20.0043
20.0038
20.0034
20.003
20.0037
20.004
20.0036
20.0038
20.0039
20.0042
20.0049
20.0043
20.0036
20.0031
20.0028
20.0036
20.004
20.0037
20.004
20.0054
20.0077
20.0071
20.0038
20.0031
20.0051
20.0046
20.0033
20.0039
20.0044
20.004
20.0041
20.0037
20
20.001
20.0036
20.0047
20.0055
20.0084
20.0085
20.0055
20.0065
20.0095
20.0099
20.0105
20.0116
20.0105
20.01
20.0086
20.0066
20.0064
20.0058
20.0083
20.0082
20.0059
20.0062
20.005
20.0053
20.0069
20.0073
20.0077
20.0086
20.0087
20.0093
20.0102
20.0105
20.011
20.0108
20.0119
20.0144
20.0145
20.0154
20.0173
20.0132
20.0074
20.0059
20.0079
20.0087
20.0093
20.0101
20.0087
20.0065
20.0035
20.0026
20.0037
20.0038
20.0029
20.0028
20.0024
20.0027
20.0032
20.003
20.0037
20.0047
20.0044
20.0039
20.004
20.003
20.0031
20.0035
20.0028
20.0021
20.0023
20.0025
20.0023
20.0022
20.0021
20.0035
20.003
20.0021
20.0025
20.0031
20.0041
20.0041
20.0042
20.005
20.005
20.0039
20.0026
20.0018
20.003
20.0044
20.0058
20.0049
20.0031
20.0004
20
20.0008
20.0013
20.0025
20.0026
20.0017
20.0014
20.0018
20.0022
20.0023
20.0024
20.0024
20.0028
20.0032
20.0034
20.0031
20.0022
20.0018
20.0015
20.002
20.0023
20.0018
20.0026
20.003
20.004
20.0052
20.0055
20.0053
20.0038
20.0041
20.0041
20.0033
20.0038
20.004
20.0041
20.0026
20.0015
20.0017
20.0017
20.0016
20.0012
20.001
20.001
20.0008
20.0011
20.0015
20.0014
20.0015
20.0015
20.0015
20.0022
20.0022
20.0014
20.0013
20.0012
20.0017
20.0024
20.0032
20.0046
20.0046
20.0043
20.0034
20.0026
20.0028
20.0031
20.0037
20.003
20.003
20.0033
20.0034
20.0042
20.0042
20.0035
20.0029
20.0034
20.0041
20.0044
20.0048
20.0052
20.0067
20.0083
20.0071
20.0044
20.0033
20.0041
20.0043
20.0042
20.0046
20.0047
20.0038
20.0035
20.0036
20.0051
20
20.0012
20.0029
20.0035
20.0061
20.0097
20.0093
20.0069
20.0067
20.0062
20.0072
20.0113
20.0134
20.011
20.0083
20.0072
20.0072
20.0067
20.0053
20.0075
20.0069
20.0048
20.0057
20.0053
20.0049
20.0048
20.0062
20.0086
20.0101
20.0114
20.0101
20.0089
20.0098
20.0112
20.0116
20.0122
20.0126
20.0115
20.0123
20.0133
20.0085
20.0043
20.0051
20.0088
20.0094
20.0078
20.0089
20.0095
20.0067
20.0035
20.0038
20.0053
20.0042
20.0024
20.0034
20.0038
20.0032
20.0026
20.0028
20.0034
20.0024
20.0014
20.002
20.0031
20.0025
20.0015
20.0017
20.0017
20.0019
20.0023
20.003
20.0038
20.0029
20.0024
20.0049
20.0041
20.0018
20.0021
20.0031
20.0036
20.0028
20.0032
20.0046
20.004
20.002
20.0012
20.0014
20.0033
20.004
20.004
20.0035
20.002
20.0033
20.0003
20
20.0004
20.0009
20.0015
20.0024
20.0026
20.0018
20.0018
20.002
20.0021
20.0031
20.0032
20.0031
20.0035
20.0035
20.0039
20.0046
20.0042
20.0032
20.0034
20.0029
20.0022
20.0024
20.0021
20.0018
20.0024
20.0031
20.0036
20.003
20.0034
20.0038
20.0021
20.0011
20.0018
20.0025
20.0016
20.0008
20.0007
20.0007
20.0007
20.0007
20.0008
20.0012
20.0011
20.0014
20.0015
20.0013
20.0011
20.0009
20.0009
20.0012
20.0015
20.0016
20.0017
20.0021
20.003
20.0031
20.003
20.0031
20.0032
20.0041
20.0031
20.002
20.0027
20.003
20.0028
20.0021
20.0025
20.003
20.0027
20.0036
20.0042
20.0041
20.0037
20.004
20.0041
20.0038
20.0045
20.0043
20.0043
20.0045
20.004
20.0031
20.003
20.0044
20.0044
20.0033
20.0034
20.0039
20.0036
20.0041
20.0056
20.0059
20.0057
20
20.0014
20.0028
20.0028
20.0042
20.0072
20.0085
20.0091
20.0089
20.0064
20.0074
20.0112
20.0118
20.0101
20.0074
20.0052
20.0062
20.0062
20.0058
20.0071
20.0069
20.0072
20.0069
20.0064
20.0063
20.0052
20.0064
20.0083
20.0093
20.0106
20.0104
20.0086
20.0079
20.0105
20.0142
20.0155
20.0144
20.0111
20.0109
20.0135
20.0099
20.0061
20.0066
20.0099
20.0101
20.0069
20.0082
20.0092
20.0061
20.004
20.0047
20.0055
20.0041
20.0023
20.003
20.0038
20.0028
20.0017
20.0035
20.0042
20.0025
20.0015
20.0011
20.0023
20.0023
20.0013
20.0015
20.0018
20.0026
20.0027
20.0024
20.0033
20.0028
20.0031
20.0053
20.0041
20.0016
20.0021
20.0032
20.0025
20.0018
20.0027
20.0027
20.0023
20.0014
20.001
20.0016
20.0032
20.0041
20.004
20.0032
20.0023
20.0033
20.0053
20.0002
20
20.0005
20.0007
20.0008
20.002
20.0037
20.0031
20.0018
20.0018
20.0023
20.003
20.0034
20.0034
20.0033
20.0038
20.0046
20.0055
20.0043
20.0025
20.0025
20.0019
20.0012
20.0014
20.0013
20.0011
20.0013
20.0018
20.0023
20.0027
20.003
20.0029
20.0019
20.0011
20.0023
20.0025
20.0019
20.002
20.0016
20.0017
20.0015
20.001
20.0012
20.0017
20.0014
20.001
20.0013
20.0012
20.0013
20.0012
20.0012
20.0015
20.0017
20.002
20.0024
20.0037
20.0045
20.0039
20.0041
20.0042
20.0049
20.0066
20.0049
20.0028
20.0028
20.0025
20.0021
20.002
20.0019
20.0016
20.0016
20.0021
20.0026
20.0034
20.0048
20.0044
20.0034
20.0023
20.0027
20.0035
20.003
20.0032
20.0022
20.0011
20.0018
20.0037
20.0032
20.0016
20.002
20.0021
20.0018
20.0027
20.0032
20.003
20.0044
20.0023
20
20.0012
20.002
20.0017
20.0023
20.0053
20.0085
20.0101
20.0096
20.0076
20.0098
20.0135
20.0138
20.0127
20.0108
20.0079
20.0086
20.0088
20.0089
20.0113
20.0133
20.015
20.012
20.0105
20.0118
20.0129
20.0142
20.0129
20.0108
20.0099
20.0105
20.01
20.01
20.012
20.0147
20.0157
20.013
20.0096
20.0098
20.0123
20.0125
20.0116
20.0112
20.0118
20.0104
20.0098
20.0114
20.0097
20.0057
20.0039
20.0041
20.0041
20.0033
20.0025
20.0018
20.0022
20.0021
20.0014
20.003
20.0041
20.0027
20.0017
20.0011
20.0018
20.0022
20.0015
20.0016
20.002
20.0024
20.0022
20.0015
20.0016
20.0016
20.0028
20.0041
20.0031
20.0024
20.0022
20.002
20.002
20.0017
20.0018
20.0019
20.002
20.0016
20.0014
20.0019
20.0026
20.0032
20.0031
20.0025
20.0022
20.0028
20.0034
20.0023
20.0001
20
20.0004
20.0006
20.0008
20.0013
20.0022
20.0024
20.0016
20.0013
20.0019
20.0026
20.0039
20.0043
20.0035
20.0036
20.0042
20.0044
20.0034
20.0022
20.0024
20.0021
20.0015
20.0017
20.0019
20.0019
20.002
20.0021
20.0023
20.0034
20.0034
20.0018
20.0011
20.001
20.0017
20.0017
20.0018
20.0022
20.0017
20.0019
20.0015
20.0009
20.0011
20.0016
20.0015
20.0012
20.0013
20.001
20.0013
20.0018
20.0021
20.0022
20.0019
20.0022
20.0033
20.0045
20.0048
20.0041
20.0046
20.0052
20.0057
20.007
20.0056
20.0039
20.0034
20.0027
20.003
20.0033
20.0026
20.0024
20.0024
20.0024
20.0027
20.004
20.0054
20.0048
20.0048
20.0039
20.0032
20.0031
20.0023
20.0024
20.0019
20.0015
20.0023
20.0032
20.0024
20.0022
20.0031
20.0025
20.0016
20.0014
20.0019
20.0024
20.0021
20.0013
20.0017
20
20.0006
20.0013
20.0018
20.0021
20.0034
20.0056
20.0071
20.0073
20.0067
20.0077
20.0111
20.0138
20.0144
20.0142
20.0145
20.0171
20.0174
20.0184
20.0244
20.0307
20.0325
20.0279
20.0227
20.0227
20.0271
20.0287
20.0245
20.0197
20.0175
20.0172
20.0166
20.0166
20.0155
20.0132
20.0105
20.0073
20.006
20.0079
20.0102
20.0125
20.0158
20.0161
20.0128
20.0113
20.0129
20.013
20.0098
20.006
20.0039
20.0032
20.0031
20.003
20.0023
20.0013
20.0011
20.001
20.0009
20.0015
20.0027
20.0023
20.0013
20.0014
20.0019
20.0023
20.0019
20.0016
20.0021
20.0021
20.0015
20.0012
20.0014
20.0014
20.0024
20.0027
20.002
20.0023
20.0018
20.0009
20.001
20.001
20.0009
20.0009
20.0012
20.0012
20.0011
20.0015
20.0019
20.002
20.0022
20.0017
20.0015
20.0021
20.0018
20.0012
20.001
20.0001
20
20.0002
20.0004
20.0005
20.0005
20.0006
20.0008
20.0008
20.0006
20.0008
20.0013
20.0024
20.003
20.0025
20.0021
20.0023
20.0026
20.0024
20.0019
20.0019
20.0016
20.0013
20.0014
20.0016
20.0018
20.0019
20.0019
20.0016
20.0023
20.0024
20.0014
20.0011
20.0008
20.0005
20.0005
20.0008
20.0009
20.0008
20.0008
20.0004
20.0004
20.0006
20.0008
20.0009
20.001
20.001
20.0008
20.001
20.0017
20.0027
20.0031
20.0027
20.0028
20.0038
20.0042
20.0038
20.0036
20.0039
20.0043
20.0043
20.0046
20.0037
20.0028
20.0025
20.0021
20.0023
20.0024
20.0021
20.0019
20.0016
20.0014
20.0015
20.0026
20.0032
20.0034
20.0044
20.0039
20.0029
20.0021
20.0015
20.0016
20.0017
20.0015
20.0014
20.0015
20.0012
20.0019
20.0023
20.0018
20.0013
20.0009
20.0017
20.0022
20.0019
20.0016
20.001
20.0012
20
20.0003
20.0011
20.0019
20.002
20.0017
20.0021
20.003
20.0035
20.0035
20.0041
20.0061
20.0078
20.009
20.0114
20.0152
20.0198
20.0231
20.0262
20.0306
20.035
20.0381
20.0384
20.0376
20.0377
20.0379
20.0356
20.0315
20.0284
20.026
20.0229
20.0191
20.015
20.0115
20.0089
20.0065
20.0061
20.0076
20.0111
20.0152
20.0173
20.0199
20.0205
20.0177
20.0157
20.0136
20.0106
20.0075
20.0058
20.0047
20.0038
20.003
20.0024
20.0018
20.0011
20.0007
20.0005
20.0007
20.0011
20.0014
20.0014
20.001
20.0009
20.0015
20.0018
20.0012
20.0008
20.0011
20.0014
20.001
20.0007
20.001
20.0014
20.0016
20.0012
20.001
20.0016
20.0015
20.0008
20.0006
20.0008
20.0007
20.0005
20.0006
20.0007
20.0006
20.0008
20.0009
20.001
20.0015
20.0011
20.0009
20.0012
20.001
20.0009
20.0007
20.0005
20
20
20.0001
20.0002
20.0001
20.0002
20.0003
20.0002
20.0002
20.0002
20.0002
20.0002
20.0005
20.0006
20.0005
20.0004
20.0003
20.0004
20.0003
20.0003
20.0003
20.0003
20.0003
20.0003
20.0005
20.0005
20.0005
20.0005
20.0004
20.0004
20.0003
20.0004
20.0006
20.0003
20.0001
20.0002
20.0002
20.0002
20.0002
20.0002
20.0001
20.0001
20.0002
20.0003
20.0002
20.0002
20.0003
20.0003
20.0004
20.0008
20.0014
20.0018
20.0017
20.0016
20.0018
20.0019
20.002
20.002
20.0021
20.0022
20.0022
20.002
20.0014
20.0008
20.0005
20.0004
20.0004
20.0005
20.0006
20.0005
20.0004
20.0004
20.0005
20.0007
20.001
20.0015
20.0019
20.0018
20.0014
20.001
20.0008
20.0008
20.0007
20.0005
20.0003
20.0003
20.0003
20.0005
20.0006
20.0004
20.0003
20.0003
20.0006
20.0009
20.0009
20.0009
20.0007
20.0005
20.0003
20
20.0001
20.0004
20.0006
20.0006
20.0005
20.0007
20.001
20.0009
20.001
20.0018
20.0028
20.003
20.003
20.0043
20.0061
20.0085
20.0114
20.0136
20.0142
20.0143
20.0162
20.0192
20.0222
20.0231
20.0207
20.0179
20.0163
20.0158
20.014
20.0109
20.0079
20.0049
20.0035
20.0032
20.0032
20.0039
20.0055
20.008
20.0104
20.0113
20.0115
20.0116
20.0114
20.0098
20.0067
20.0043
20.0032
20.0028
20.0028
20.0025
20.0017
20.0009
20.0006
20.0004
20.0002
20.0003
20.0005
20.0007
20.0006
20.0005
20.0005
20.0004
20.0005
20.0005
20.0003
20.0001
20.0002
20.0004
20.0004
20.0002
20.0004
20.0006
20.0005
20.0004
20.0005
20.0007
20.0007
20.0004
20.0003
20.0004
20.0003
20.0002
20.0003
20.0004
20.0004
20.0002
20.0002
20.0002
20.0003
20.0002
20.0002
20.0002
20.0002
20.0002
20.0002
20.0001
20.0001
20
20
20
20
20
20
20
20
20
20
20
20
20
20
20
20
20
20
20
20
20
20
20
20
20
20
20
20
20
20
20
20
20
20
20
20
20
20
20
20
20
20
20
20
20
20
20
20
20
20
20
20
20
20
20
20
20
20
20
20
20
20
20
20
20
20
20
20
20
20
20
20
20
20
20
20
20
20
20
20
20
20
20
20
20
20
20
20
20
20
20
20
20
20
20
20
20
20
20
20
20
20
20
20
20
20
20
20
20
20
20
20.0001
20.0001
20.0001
20.0001
20.0001
20.0001
20.0001
20.0001
20.0001
20.0001
20.0001
20.0001
20.0001
20.0001
20.0001
20.0001
20.0001
20.0001
20.0001
20.0001
20.0001
20.0001
20.0001
20.0001
20.0001
20.0001
20.0001
20.0001
20.0001
20.0001
20.0001
20
20
20
20
20
20
20
20
20
20
20
20
20
20
20
20
20
20
20
20
20
20
20
20
20
20
20
20
20
20
20
20
20
20
20
20
20
20
20
20
20
20
20
20
20
20
20
20
20
20
20
20
20
20
20
20
20
20
20
20
20
20
20
20
20
20
20
20
20
20
20
20
20
20
20
20
20
20
20
20
20
20
20
20
20
20
20
20
20
20
20
20
20
20
20
20
20
20
20
20
20
20
20
20
20
20
20
20
20
20
20
20
20
20
20
20
20
20
20
20
20
20
20
20
20
20
20
20
20
20
20
20
20
20
20
20
20
20
20
20
20
20
20
20
20
20
20
20
20
20
20
20
20
20
20
20
20
20
20
20
20
20
20
20
20
20
20
20
20
20
20
20
20
20
20
20
20
20
20
20
20
20
20
20
20
20
20
20
20
20
20
20
20
20
20
20
20
20
20
20
20
20
20
20
20
20
20
20
20
20
20
20
20
20
20
20
20
20
20
20
20
20
20
20
20
20
20
20
20
20
20
20
20
20
20
20
20
20
20
20
20
20
20
20
20
20
20
20
20
20
20
20
20
20
20
20
20
20
20
20
20
20
20
20
20
20
20
20
20
20
20
20
20
20
20
20
20
20
20
20
20
20
20
20
20
20
20
20
20
20
20
20
20
20
20
0

VECTORS Velocity float
0 0 0
0 0 0
0 0 0
0 0 0
0 0 0
0 0 0
0 0 0
0 0 0
0 0 0
0 0 0
0.0223757 0.327089 0.0194188
0.102329 -0.19936 -0.505052
0 0 0
0 0 0
-0.462597 -0.793876 0.078747
0 0 0
0 0 0
-0.032598 0.645523 -1.42192
-0.782458 -0.319346 -1.03108
-0.918083 0.419707 -1.06343
0 0 0
0 0 0
0.102747 -0.483366 -0.360938
1.07033 1.20392 -0.188787
0 0 0
0 0 0
0.0315727 0.695232 -0.334559
0.426733 -0.0682031 -1.39108
1.35764 -0.130499 -2.47153
0.227904 1.00651 0.199074
0 0 0
0 0 0
-0.189551 -0.552735 0.694503
-1.24235 1.4367 -0.375257
-0.107479 -0.00487177 0.274621
0 0 0
0 0 0
-0.0748197 -0.522265 -1.63336
0.446513 -0.417457 -0.863517
0.696081 -1.91492 -3.46923
-0.968466 0.890379 -0.460974
-0.0712391 -0.844401 0.351837
0 0 0
0 0 0
-0.251305 -0.829605 0.378648
-0.153835 1.9122 1.62204
0.59035 -0.417953 0.703145
0.392906 0.171212 3.25032
0 0 0
0 0 0
-0.508978 0.51076 0.432519
0.0628312 -0.386432 -1.10955
0.482273 0.196977 0.847354
-0.588855 1.31953 -0.755173
1.11491 0.0403922 0.946785
1.56693 -0.72575 3.96824
0 0 0
0 0 0
-0.380756 -0.318954 0.326007
-0.682014 -0.343609 0.57391
-0.0770665 -0.430987 0.279577
-0.452582 -0.58944 1.74639
-1.26557 0.2353 1.18829
0 0 0
0 0 0
0.854317 -0.769742 -0.946367
-0.574881 -0.732417 0.512653
-0.149868 0.0017837 -2.68524
-0.457086 0.239577 1.41829
-0.852855 1.40742 0.794345
-0.178669 -1.23211 2.33838
0.531376 0.490975 0.890364
0 0 0
0 0 0
0.194277 -0.81663 0.296234
0.288707 -0.254888 0.835582
0.583615 -0.374318 -0.0170153
1.43922 -0.21342 1.0094
1.16538 0.834977 -0.888903
0.584516 -1.55093 0.851091
0 0 0
0 0 0
0.186621 0.196548 0.959361
-0.856958 -0.432244 -0.972229
0.179991 -0.508799 1.82576
0.704468 -1.90215 -0.267983
0.510615 -1.15378 2.86122
0.637776 -0.898309 0.93705
0.292147 -0.48183 -2.22757
-0.275685 -0.61105 -0.131328
0 0 0
0 0 0
1.02813 -0.447088 -0.317811
1.17477 -1.27441 -0.880162
0.412687 0.909386 -2.33207
0.270858 -0.327839 -1.61905
-0.451496 1.35605 -2.60475
-0.749734 -1.33287 -1.12041
-0.846762 -0.374684 -1.80411
0 0 0
0 0 0
0.427618 -0.449768 -1.40221
-1.90127 0.386257 -0.108501
1.32967 0.75122 -2.28686
-0.0845009 0.243323 2.61079
0.0206921 0.641831 0.0831477
0.340847 -0.288276 0.97318
0.748427 0.100094 -1.78964
-0.473804 -0.91355 -0.170822
-0.742732 0.357232 1.24978
0 0 0
0 0 0
0.386109 -0.401731 -0.0813145
-0.604314 -0.926455 -0.242978
-0.0656011 0.122852 -0.747902
-1.54304 -0.846482 -1.39309
0.589325 0.324066 -1.8455
-0.628902 -1.04281 -0.909426
1.25366 -0.581249 -1.45342
0.582741 -0.39662 -0.70609
0 0 0
0 0 0
1.50177 -0.623085 0.536383
0.189261 0.505158 -2.04093
0.733514 -0.0301805 2.88036
-1.9411 -0.754303 -0.0283317
0.409532 -0.65806 2.03318
-0.713444 -1.34409 -0.167253
0.924917 -0.998689 0.705942
0.569045 -0.908674 0.902286
-0.304639 0.771012 -1.59443
-0.857307 -2.57716 -1.12732
0 0 0
0 0 0
-0.179631 -0.236644 0.465602
0.632565 -0.419506 0.721385
-0.244562 0.115795 0.162579
0.71418 0.0893456 0.524764
-0.871012 0.0880998 0.0752568
0.616492 -1.22557 1.87663
-0.808982 -0.765323 1.01117
-0.0826491 -0.192557 2.21001
-0.272325 -0.176709 1.31387
0 0 0
0 0 0
0.135824 -0.74248 -1.99502
-1.00492 1.02754 0.225346
0.57936 0.127828 -0.596231
-1.69958 0.17772 2.31961
0.581369 -0.622255 0.115595
-1.1581 -0.292348 -0.783082
1.3416 0.786356 -0.105793
-0.782445 0.231808 1.15768
-0.639683 1.12267 -0.328403
1.1262 -0.566675 0.397985
1.39245 1.82536 -1.51169
0 0 0
0 0 0
-0.336057 -0.47367 0.480424
-0.50522 -0.254492 2.83932
0.0519643 -0.21894 2.34966
-0.954524 0.528581 2.27281
-0.541714 -0.496869 0.320799
-0.534508 0.616834 1.54322
-0.35716 0.0794339 -1.39427
-0.520173 -1.26276 -0.785558
-1.09946 1.37173 -4.41735
-1.10174 -0.46767 -2.47916
0 0 0
0 0 0
1.21352 -0.551536 0.398942
-0.16364 -0.189719 -0.554395
0.46781 -1.51428 4.39128
-1.51692 -1.40391 -0.923957
1.06578 -1.1009 1.28054
-0.911713 -0.228154 -1.97592
1.53129 0.0334575 0.788064
-0.360951 -0.642949 -0.952723
-1.11906 -1.43707 -0.432735
-0.184305 -1.89033 -2.19927
0.643885 1.00947 -3.20174
0.237166 -0.520189 -1.64658
0 0 0
0 0 0
-0.350799 0.0451964 1.16322
1.56186 1.18344 0.842615
0.735948 -0.174372 1.84834
0.774436 -0.0261264 -0.845044
2.12817 0.534372 -0.150365
1.81141 0.351242 -1.72049
2.10761 -0.5419 -0.541109
1.44507 -0.226416 -1.54727
1.94034 0.516296 0.876819
0.863825 0.771237 -1.17759
1.56332 -0.465815 0.0692994
0 0 0
0 0 0
-0.332041 -0.421129 -1.93442
-0.628431 0.985554 1.01967
0.89821 1.98076 0.364676
-1.86773 0.611954 0.957476
1.02669 1.00441 1.4526
-1.52545 0.762801 0.232165
1.91526 1.62547 1.62721
0.817238 -0.1619 1.19003
-0.646888 -1.28654 1.57836
1.0332 2.17628 -2.23884
-0.229553 1.43218 -2.27215
1.56738 -0.837099 -2.29881
0.72953 -1.73206 -0.999541
0 0 0
0 0 0
-0.219635 -0.473352 0.12416
-0.754505 0.601847 0.755994
-2.52695 -0.0791848 0.576181
-1.75476 -0.116057 -1.80685
-2.52707 0.640183 -2.48131
-2.2695 0.822653 -2.64586
-2.48717 1.09103 -2.56129
0.0311427 0.217064 -1.56852
-0.849799 -0.187383 -2.26793
-0.682622 0.428301 -0.405326
-1.53779 -0.594004 0.627299
-1.86173 -0.463176 1.69323
0 0 0
0 0 0
1.02914 0.35157 -0.317524
-0.252358 -0.533384 -1.56176
1.10587 -1.39151 2.69893
-1.36739 -1.30189 -2.06007
1.51332 -1.33654 1.58528
-0.246027 -0.973244 0.655056
1.4016 0.285797 1.31932
-0.77816 0.683485 -0.396592
0.0196909 -1.19193 -0.185434
0.577677 -1.68133 -1.57796
0.202873 -1.28209 -3.30768
0.161985 0.589498 -2.34918
-0.831121 -0.453475 1.52508
-0.59657 0.358718 -0.939771
0 0 0
0 0 0
0.49495 0.607958 -0.0881831
0.177774 0.702049 -0.938823
1.78185 -0.214498 -0.1778
1.72122 -0.211822 -1.2409
1.37892 -0.0567364 -0.0801015
1.55246 0.235967 0.142372
2.52119 0.735272 1.83437
1.50517 0.487317 3.17509
2.07733 -1.32712 5.24865
0.415473 1.03451 4.5105
-0.281798 0.595236 4.14348
0.563245 0.673488 3.71209
2.23202 0.840449 2.35824
0 0 0
0 0 0
-0.305623 0.148661 -3.70807
0.392966 -0.00627061 -1.32379
0.621818 1.88544 -2.28705
0.037674 1.16321 -0.142675
0.636419 -0.0751713 1.3089
-1.47023 -0.859315 2.18099
2.3991 -0.170804 1.20119
-0.218039 0.759899 1.535
-0.169692 0.298369 0.816948
0.536941 -0.289767 -1.36916
0.438644 0.0247267 -2.80054
0.126903 0.0142781 -0.305775
-0.0653886 -0.659151 0.334808
-0.0250239 0.381612 2.64376
0.0207548 -1.71176 2.16541
0 0 0
0 0 0
-0.501506 0.550194 -1.15464
-0.98981 -0.382311 -0.840194
0.0848524 0.0824618 0.713948
-0.782905 0.5427 -0.171076
-1.01705 -0.4259 1.40368
-3.31736 -0.237025 0.127497
-1.84027 0.0108153 1.27115
-1.7063 -0.377545 0.407436
-1.18325 -0.586537 0.570433
0.216394 0.740647 -0.0813266
-0.415118 0.357401 1.32486
-1.0085 0.180381 1.02628
-1.46461 -1.15352 1.00311
-2.12075 0.819744 -1.99109
0 0 0
0 0 0
0.0572059 -1.41062 -1.72345
1.13469 -1.1791 -3.78579
0.153769 -1.55269 1.61485
0.083928 -1.88171 -2.27477
0.407989 -0.913117 1.33194
0.557813 -1.27211 -0.169931
-0.196795 0.225288 0.914933
-0.569692 -0.657262 -2.59269
1.3651 -1.13786 -0.357449
-0.211295 -1.12493 -1.93273
0.351742 -0.412989 -1.76418
-0.307739 -0.15424 -2.27193
0.304874 0.268557 -0.796679
-0.743859 1.03749 1.90773
-0.961308 -2.92283 -0.427539
-2.38988 0.851998 -1.55283
0 0 0
0 0 0
0.396854 0.646153 -0.467921
1.27069 0.826982 -1.15614
0.142778 0.0623527 0.0346198
1.05186 0.263916 1.52471
0.795911 -0.217206 1.04923
1.72644 -0.805897 2.11458
1.2149 0.106683 -0.311853
1.94961 -0.540142 2.38461
0.914434 -0.631338 1.05316
-0.0418234 0.0699937 2.18037
-0.883065 -0.95437 -1.41057
-0.710362 1.51733 0.974524
1.30634 -2.37707 -2.71372
2.39524 2.82147 1.3545
2.13569 -3.05072 -1.16249
0 0 0
0 0 0
-1.20903 -0.259976 -4.41214
0.14299 0.784145 -1.97884
-0.657413 1.12477 -2.2567
0.0431079 1.25389 0.653998
-0.608047 0.552194 -0.102436
0.690914 0.0186416 1.1297
-1.32031 0.136927 -0.198095
-0.508959 0.899261 0.601801
-0.384104 0.498045 -1.00727
0.949525 0.375509 0.0657959
1.36635 0.243079 -0.299375
-0.58525 -0.520013 2.40869
0.510628 -0.405458 2.36533
-0.585537 -1.04995 4.03109
-0.651536 -1.47875 2.32986
1.33691 2.85765 1.76826
1.31448 -1.19207 0.34148
0 0 0
0 0 0
-1.25569 0.727569 -0.230296
-1.57207 0.715876 -0.505087
-1.18327 0.820996 3.02898
0.585917 -0.79889 0.720481
-0.0490158 0.945515 3.5701
-1.77335 0.676873 -0.679855
-0.928599 0.0712222 1.6797
-1.79016 -0.408843 -1.83194
-0.402615 -0.258004 0.361827
-0.588559 -0.529047 -1.88526
1.09717 -0.615402 1.19178
-0.903485 1.5556 1.0235
-1.87101 -2.41351 3.22001
-2.0048 2.44914 2.90915
-1.85449 -2.62292 5.01635
-0.543625 2.24556 4.05819
0 0 0
0 0 0
0.205293 -0.328332 -1.6497
-0.00739901 -0.147081 -3.64632
0.163611 0.113071 1.91307
0.329877 -0.921934 -1.44078
-1.51527 -1.60842 -0.105237
1.26941 -1.31133 -0.0367731
-1.58615 -0.982201 2.15256
1.42814 -0.403031 -1.56269
-1.28326 0.0547843 -0.380224
-0.112638 -1.17841 -0.0292357
-0.712959 -0.80907 0.801772
0.482205 -1.33443 -0.0772737
1.09872 0.0756786 -1.26188
-0.0343686 1.38182 1.60634
-1.63451 1.31372 -2.07502
0.503738 2.03188 0.909942
-2.08392 -2.02017 4.97796
-1.44117 2.18956 0.622931
0 0 0
0 0 0
0.569038 -0.543466 -0.550335
1.08873 0.12308 -0.827279
1.20517 0.399109 -1.52915
-0.805073 1.45387 0.178534
0.0762613 0.171241 -2.05243
0.673686 1.54308 -0.172748
0.599499 0.544943 -3.63055
1.99585 1.10156 -0.120278
0.575959 -0.114197 -1.70143
1.13386 1.02878 0.234476
1.99355 -0.628436 -4.04994
1.74535 1.03422 -1.33412
1.35682 -1.74555 -5.42601
1.83227 2.21944 0.321231
1.20929 -2.16263 -2.46637
0.690528 1.74208 0.809657
0.788861 -1.62776 -2.52813
0 0 0
0 0 0
-0.488512 -1.2081 -3.73805
-1.0959 0.638466 -1.23587
-0.883815 0.365619 -2.42708
0.715411 1.01362 0.302179
-1.35795 0.799308 -2.14696
0.0903836 0.868231 1.77199
-3.04116 1.43524 1.31524
1.77123 0.661038 2.85947
-2.09996 0.212721 -2.46792
0.956625 0.085638 0.621727
0.191069 1.44116 0.0105799
0.844916 1.0666 1.67032
0.200299 -0.0205072 -0.475264
1.26501 0.602837 1.33882
-0.641795 -0.981518 1.00982
-0.439686 -2.15816 -1.02239
-1.64068 -2.42896 2.49847
0.216637 2.54758 -1.0614
0.890482 -1.72013 -3.33782
0 0 0
0 0 0
-0.926203 -0.844279 -0.0493665
-0.687979 0.408443 0.255329
-0.960893 -0.114929 1.69848
-0.692835 0.0495971 0.80802
-1.03514 0.167574 2.9543
-0.179068 -0.790323 1.31997
-0.556522 -0.124122 2.88576
-1.7117 -0.0337785 0.497103
-1.95876 0.00776474 1.76672
-1.49547 0.644753 0.107081
-2.4655 -0.389047 1.28182
-1.43711 0.76545 0.0330194
-0.0815133 -1.39198 -0.345248
-0.420947 2.29352 -0.791322
-2.32184 -0.208897 -0.882681
-0.322724 1.28245 -1.10337
0.34875 -0.507031 -0.156778
-0.115486 1.35118 -1.92672
0 0 0
0 0 0
0.787151 -0.610194 -0.305356
1.10391 -0.338585 -2.30162
-0.675664 0.798768 2.06582
1.01641 -0.030743 -1.29975
-2.10239 -0.5155 -1.58144
2.43396 -1.82287 0.854492
-1.97653 -1.12156 4.24592
3.74573 0.126559 1.13962
-2.06777 -0.526978 -0.546565
0.632057 -1.17281 0.313687
-0.699886 0.6377 0.546377
-0.100071 0.254369 -1.50559
-0.754126 -0.674911 -4.05612
0.013715 0.416538 -0.0446097
-1.35608 1.30969 -1.7502
0.416343 2.5258 2.11146
-0.940537 3.46788 0.994763
-0.311893 2.4291 0.798577
-0.127573 -1.32348 1.34685
0.445558 1.5102 0.596081
0 0 0
0 0 0
0.651345 -0.803833 0.221954
1.62889 0.981278 -1.38282
0.89555 -0.596305 -2.11609
0.20313 -0.39834 -1.32045
1.61949 -0.156141 -0.922962
1.05098 -0.208545 1.99002
1.07012 0.355329 0.573765
1.84883 0.659519 2.60448
1.59789 -0.0693799 1.81379
1.19177 1.01512 2.11534
1.753 -1.80121 -0.0170793
2.58367 0.471108 0.881523
-0.00947202 -0.897446 -1.20764
1.01998 0.0904243 1.76747
0.389026 0.0717963 0.255213
0.0191594 0.840646 1.93723
-0.191713 0.0459211 0.800149
0.26246 -0.346581 2.08941
0.606662 0.926968 1.84255
0 0 0
0 0 0
-1.04681 -0.940601 -1.86141
1.32936 -0.773662 0.385924
-1.83038 0.327748 -1.68807
1.25008 0.288722 0.407559
-1.71066 -0.0986007 -2.84007
2.37046 0.306564 1.60536
-2.62854 -0.425691 1.83291
2.82136 -0.322912 4.62057
-2.1316 -0.0827378 -2.90931
0.821983 0.386079 0.310568
-0.928622 -0.116605 -1.33129
0.769574 0.173518 0.0330219
0.964016 -0.508651 -2.68328
0.501484 0.0856485 0.543172
0.516669 -1.13972 0.826551
-0.299004 -1.50136 -0.733101
0.0707759 -0.458623 0.886302
-0.311698 -1.47619 -3.21085
-0.704205 -0.972348 0.920368
0.436572 -0.66846 4.26448
-1.43909 0.381231 2.11135
0 0 0
0 0 0
-0.252448 0.000219771 -0.243531
1.06349 1.45209 -0.123866
-0.332558 -0.552778 -1.54037
-0.416238 0.0495861 -2.41785
0.60922 -0.151437 -1.73113
-0.369902 -0.293345 -0.248146
-1.35037 -0.0617588 0.857917
-1.83337 1.25137 0.98839
-1.56558 -0.452905 -0.528677
-1.65461 -0.0122547 0.557157
-0.917766 -0.155013 -0.0964917
-0.729166 0.083493 2.82264
1.21749 0.635567 1.02637
-0.0868361 -1.12402 4.27455
2.01014 0.483583 0.269626
0.906651 -0.645849 3.26937
1.97498 -0.190166 -0.41431
0.940157 1.05284 1.57659
2.22211 -0.150079 -0.966871
0.280839 -0.874868 1.11473
0 0 0
0 0 0
0.0682861 0.516882 1.15619
1.39968 1.77216 -0.787277
-1.80142 1.70451 2.19558
2.49649 -0.214147 -0.564227
-1.70917 -0.656515 -1.60586
1.49666 -0.911739 0.146677
-1.13985 -0.29831 2.8085
1.66624 0.176439 1.64251
-1.91551 -0.850946 -0.396314
1.75897 -0.670787 -0.119724
-1.11118 0.066166 0.384679
0.315797 0.127584 -0.390363
0.880566 -0.0981769 -1.967
0.0359741 1.21369 1.9428
-0.0354998 1.46149 0.704388
0.492055 1.08104 3.02576
0.976057 1.96506 0.170617
-0.832301 0.591589 0.555088
0.905311 1.36394 0.425808
-1.6231 0.970158 3.51598
1.24975 -0.259504 -2.80873
-0.341148 -0.685198 0.198648
0 0 0
0 0 0
-0.367791 -0.976126 1.14937
-0.994898 0.019306 0.243512
-1.12349 -0.88858 -1.05803
-0.411095 0.573983 -2.4718
-0.162625 -1.43062 -2.17997
0.614399 1.74733 -0.232671
1.68377 -0.617702 0.693519
0.8804 0.461623 0.932632
1.45921 -1.04662 1.57897
1.79139 -0.595552 -0.881132
1.10479 -0.236318 0.358663
0.799223 -1.01746 -1.51093
0.0738598 1.67536 0.311064
-0.547285 -1.77714 -1.03192
-0.424597 0.274684 0.893196
-0.606844 0.077753 -1.36935
-0.781914 0.0745138 0.61918
-1.10723 -0.57523 -1.68044
-0.896069 0.155854 -0.216362
-0.151565 -1.45808 -1.91163
0.883348 0.321594 0.776702
0 0 0
0 0 0
0.584459 -0.994748 -0.799977
2.04276 -1.18065 0.717377
-2.90619 -1.09082 -2.03804
1.07396 -0.899755 0.0541064
-1.65853 -1.1573 -1.46293
1.54087 0.0280872 -0.208721
-1.71592 -0.0650961 0.497705
2.50641 -0.293123 3.13748
-0.526025 -0.0360016 -2.19264
1.13285 0.59064 -2.17772
-1.01793 -0.7533 -0.624952
0.117323 0.0338345 0.642263
0.839586 -0.157527 1.68437
0.431738 0.603338 1.37713
-1.17858 -0.920508 4.14924
-0.0768335 -0.985561 -2.38873
0.442369 -0.648388 0.549059
-0.968118 0.109134 -5.02434
0.55025 0.363354 2.99832
-1.19083 0.125404 -0.832915
2.31855 0.764247 -3.17619
-0.239186 -1.49751 -0.172929
0.610303 0.599893 -0.124099
0 0 0
0 0 0
0.0850397 0.227482 0.306702
2.08842 0.541877 0.695333
0.313643 -0.860521 0.183669
0.452249 1.6133 -1.83329
-0.326738 -1.06462 -1.3382
0.414619 1.27717 -1.81577
-0.621137 -0.823123 0.00878932
-1.382 -0.475475 -0.592733
-1.2999 -0.441163 -0.935605
-0.851633 -0.352014 -0.436906
0.292096 1.18098 -0.340297
-0.118505 -1.85716 0.877651
-0.264291 1.41704 -0.222117
-0.274331 -0.902652 1.32238
0.0976212 0.559722 -2.67581
-0.329988 -0.437299 -0.775306
0.0629251 1.01326 -3.74675
0.691872 -0.540252 -1.74104
1.23482 1.70864 -4.05065
-0.457588 0.434586 -2.3717
-0.528686 0.676664 -3.27337
-2.13763 -0.819768 1.32257
0 0 0
0 0 0
-0.475749 0.803121 1.28678
0.722184 1.4199 -1.57919
0.20635 1.89459 0.505343
1.80701 1.0641 -0.991268
-2.66463 1.30382 -0.428043
1.83167 0.312459 -1.00428
-0.267681 0.325002 1.34471
0.372243 -0.120631 0.322244
-1.11069 -1.26064 -0.833555
1.79523 -0.497848 -2.64886
-0.345268 0.84368 -0.511256
0.950624 -0.78727 -0.401452
-0.572827 0.513012 -0.314306
-1.42261 -0.326521 1.12334
-0.26065 -0.0052694 1.68223
-0.850188 0.269657 1.02847
-0.441866 -0.0580119 -1.0461
-0.94341 0.736906 0.658603
1.0526 0.429612 2.50245
-0.0449492 0.708907 1.80688
-0.512009 -0.0119088 -1.33089
0.695995 -0.38286 -1.13639
-1.0968 1.22957 0.389312
0.149494 -0.166727 1.83365
0 0 0
0 0 0
0.550168 -1.42938 0.691832
-0.916559 1.46161 0.517609
-2.10524 -1.40856 0.0965676
-0.949105 0.670905 -0.642128
-1.00714 -0.466857 -0.4472
0.381975 0.540526 0.0509533
-0.340583 -1.2505 -0.379579
-0.945999 0.87421 -0.452844
-0.0526933 0.814892 -0.275336
0.712695 -1.02154 -2.0075
0.710843 1.91652 -1.24888
-0.387415 -2.03128 -2.86272
0.110245 1.32132 -0.820958
-1.25295 -1.29715 -1.89867
-0.54015 2.26225 0.971284
-0.444367 -1.22672 -0.356604
0.0288662 1.40751 1.7153
0.0604302 -1.00119 -0.176721
0.445442 1.16157 0.304226
0.100853 0.52354 -1.2754
-0.236165 0.357346 2.15656
-0.254899 -0.414092 1.80135
0.840246 1.64364 1.48859
0 0 0
0 0 0
-0.215692 -0.985568 -0.643781
-1.10204 -1.33762 0.0449392
-1.38416 -0.00534188 -2.48821
1.1479 -0.79663 0.677268
-1.54749 -1.32835 0.525047
0.824417 -1.14977 0.148544
-1.00435 -0.323105 1.67871
1.38195 0.31381 3.31655
-0.192593 0.3558 -1.5493
1.03526 0.810399 -3.428
0.191722 0.162446 -1.27176
0.444506 0.295278 -0.170063
0.431397 -0.224563 0.720721
-0.940278 -0.0692811 -0.10204
0.945111 1.7972 3.60655
-1.03642 -0.111572 -3.50445
-0.351702 -1.91911 0.34091
0.125405 -0.406236 -2.70148
-0.448477 -0.373305 5.80448
-1.02085 -0.282312 -1.05365
0.708233 -0.802479 -4.16319
0.955673 -0.520684 -0.888022
-0.458799 0.0359555 -1.16515
0.263544 -0.95192 -0.143974
0.826813 0.792307 -2.20752
0 0 0
0 0 0
-0.297208 -0.204919 0.142157
-0.07781 1.43227 0.761004
-0.405238 -0.597748 1.66634
0.480217 0.180062 0.800014
0.413309 -1.34009 2.29886
-0.286741 0.528196 0.746134
1.78409 -0.622955 2.25086
1.0973 1.49732 -0.0843373
0.60093 0.873339 -0.135617
-1.29375 0.00854658 -1.00369
-0.906017 1.37884 0.00523411
0.843606 -1.48965 -0.393175
-0.0974893 1.85989 1.35922
2.40129 -2.24045 1.97855
0.905282 2.30893 1.53154
1.22594 -1.11752 2.38809
1.21922 1.51615 2.14145
1.50195 -0.793974 2.20003
-0.437306 0.353485 1.44372
-0.00997509 -1.93864 0.0509826
-0.723845 2.33237 0.934217
0.0881279 -2.28207 1.99993
-0.126905 2.79814 2.60822
-0.418626 -2.40864 1.01657
0 0 0
0 0 0
-0.528241 1.19817 0.499506
0.772698 0.336747 -2.47246
-0.42561 2.56176 -0.262214
1.53998 1.53748 -0.413027
-2.96478 0.250373 0.0965511
1.4409 0.430223 -0.367993
-0.501407 -0.277621 1.97838
1.31244 -0.442367 1.03247
-3.05504 -0.256126 -1.21407
1.48469 -0.299208 -1.50426
-0.470601 -0.252418 -0.657552
-0.517626 -1.38576 0.170335
-1.18074 -0.602099 -1.69353
-0.945552 0.0722477 1.17668
1.58226 -0.873064 1.13114
0.609775 1.09965 1.98118
0.218225 1.38251 -1.0375
-0.787102 -0.135983 3.84742
1.71234 0.969265 2.88199
-0.579776 0.318609 2.65694
-0.182052 1.46604 -2.08668
1.37542 0.766274 0.555052
-0.781157 1.1453 0.499608
-0.52205 0.711255 -1.12716
0.805036 1.99607 -0.274484
0.704267 0.518405 -1.72201
0 0 0
0 0 0
0.261475 -0.818512 0.616956
-0.153484 -0.0195957 -0.283072
0.203351 0.0740169 0.257094
-0.083952 1.46083 -0.925691
-1.96779 -1.48833 0.0778235
-1.18257 1.44948 -0.515315
-1.35018 -2.2159 -0.807753
0.209341 1.48143 -1.74577
1.13786 -0.251523 -1.1254
0.961012 -0.330335 -2.15982
0.57163 0.527527 -0.362338
0.690557 -0.302058 -1.11181
-0.121875 1.82598 0.985587
0.0419518 -1.87103 -0.42879
-0.323452 1.1399 2.22497
-0.117514 -1.63627 0.523862
-0.357114 0.326295 2.35475
0.105098 -0.491248 0.209443
0.201295 0.217829 0.719459
1.92778 -1.91901 -1.6095
1.79869 0.923942 2.03347
0.797056 -3.72383 0.503417
1.44058 2.08849 1.80094
1.48257 -0.336532 0.527817
0.938366 0.621321 0.420478
0 0 0
0 0 0
-0.768076 -1.5413 -1.47123
0.0371955 -0.840833 -0.74775
-0.599521 -0.759909 -2.34104
1.3928 -0.503109 0.518345
-2.71864 0.0112186 0.397134
1.22148 0.324894 -1.14365
-3.33512 0.435616 2.00944
0.800933 -0.435009 1.41726
-1.59532 1.01011 -2.20476
1.18839 -0.385792 -3.28623
0.38134 -0.22885 -0.60133
-0.31145 -0.568216 0.0429678
0.802751 -0.708383 0.721539
-1.57828 -0.799803 0.807079
1.62564 -1.45008 3.88274
0.0542712 -0.592663 -2.78604
0.472833 -0.508876 0.237221
-0.892541 -0.883682 -2.358
1.39247 -1.17233 4.95655
-2.17991 0.138601 -0.734429
1.50776 -0.197609 -2.25915
0.763454 -0.670247 1.76426
-0.943142 -1.23843 0.839838
0.893551 0.0955317 -1.43307
0.392553 -0.163294 1.43538
0.906682 -0.621576 0.960047
0.771685 -1.21193 2.27889
0 0 0
0 0 0
0.482858 -0.89844 -0.344
-0.766964 0.645385 -0.18722
1.31679 -0.587971 0.44187
-0.19115 0.799764 -0.00626295
1.03657 -1.5898 0.384157
0.680622 1.12452 -0.328356
1.4494 -0.308022 -0.0497781
-0.0276808 0.601236 0.343605
-1.36114 0.329862 0.189697
-0.922704 0.425602 3.24453
-2.06805 -0.21453 2.00797
-1.9308 0.299052 3.67508
-0.0228306 0.0327088 1.597
-1.58658 -0.636333 5.00516
0.437645 0.485221 0.0550976
0.305901 -0.880268 4.09406
-0.348755 1.34585 -0.285323
-0.713427 -1.19527 4.79741
-1.08057 2.61163 0.899153
-2.06826 -0.831764 4.27758
-0.375593 0.402514 0.456129
-1.43834 -1.24554 5.46504
-2.12613 1.04753 2.05266
-1.32578 -0.339537 5.75819
-2.56786 0.41558 0.380993
-0.736871 0.781567 3.15698
0 0 0
0 0 0
-0.453387 0.666803 0.162839
0.341789 2.17143 -1.29432
-0.942938 0.648149 1.21643
1.61878 0.378674 2.04121
-2.64347 -0.0381982 1.69541
1.70454 -0.338053 1.27856
-2.14427 -0.841051 2.64625
2.52041 -0.358521 0.726543
-2.88734 -0.817286 -2.68081
0.880265 -0.855263 -0.59368
0.943258 -0.267849 -1.40966
-0.835822 0.114606 0.404732
0.612401 -0.271513 -2.01935
-0.608632 0.169996 1.8148
1.63839 0.251593 0.530657
-0.572299 -0.00278618 1.54783
0.471055 0.485915 -2.41803
-1.81158 0.414936 1.61833
1.50891 0.94368 0.289839
1.21809 0.117959 2.25123
-0.439113 0.592213 -0.302101
-0.7055 -0.779849 1.3182
-0.224209 0.274394 0.940359
0.378839 0.443619 -1.60258
0.636128 -0.17884 -1.4691
-0.195183 -0.114572 1.1959
-0.725467 -1.54929 2.23204
-0.843617 0.451003 3.22905
0 0 0
0 0 0
-0.449963 -0.0540083 -0.00359015
-1.29222 0.139734 -0.3801
-1.68975 -0.750557 0.56665
-0.228945 2.1781 -0.569609
-1.34716 -1.7274 1.12162
-2.60676 1.19694 0.332835
-1.2242 -0.0824762 1.69464
0.922752 -0.828282 0.885163
0.521468 0.143476 4.30224
2.56553 -0.154622 1.77165
1.34686 -0.941256 3.89534
0.77813 0.929556 -1.26735
-0.761053 0.25081 1.07995
1.19708 -0.137425 -2.89276
-0.338734 -0.706487 2.16977
-0.4966 0.0635098 -1.24386
-1.2615 1.84298 3.09647
1.01063 -1.47106 -0.236555
-0.807436 0.46545 3.88932
1.05103 -0.0307802 -0.728138
-0.334753 1.43817 4.06601
1.63646 -0.208064 -1.72099
0.309029 0.799554 1.70232
1.49721 -0.712941 -2.31179
-0.0813319 0.129599 -0.0687927
1.58388 1.49448 -2.59573
1.05184 -0.164603 1.25549
0 0 0
0 0 0
-1.50971 -1.11777 -1.52916
0.683578 -0.44809 0.0126869
-0.731479 -0.225589 -1.93992
0.213227 0.381964 1.50399
-1.96439 -0.40127 1.0159
1.31222 0.308677 -0.221878
-2.18944 0.521048 2.9018
1.76363 0.606495 1.72438
-1.41742 1.46501 -1.82231
-0.622487 0.879374 -1.79554
1.2432 0.166572 -1.06128
-0.656631 -0.338551 0.861447
1.38393 0.202793 0.664298
-0.897618 0.205576 2.34684
1.13627 -0.990345 3.02134
-0.711661 -1.66899 -2.12618
-1.0812 -1.08218 -0.901754
0.297439 -1.13675 -4.1669
1.11739 0.647138 2.44921
-0.556167 0.0663852 -0.432576
1.30423 -0.746153 -1.68152
0.311062 -0.27267 0.134956
0.294338 -0.708612 -0.951889
-0.0975282 -0.221466 -3.49732
-0.738887 0.390177 1.22605
0.576213 -0.33825 0.331069
-1.31356 -0.932601 2.13217
0.897263 0.441236 -1.48455
0.251186 -1.62266 0.817197
0 0 0
0 0 0
0.463898 -0.24881 -0.350837
0.692497 1.45576 -0.361103
1.85452 -2.05468 -0.000815823
1.70073 1.91305 -0.20278
0.106499 -1.56015 -0.0165535
2.16809 2.30271 -0.327953
-1.39949 -0.977999 -0.17122
-0.306442 0.507893 0.446225
-0.439383 -1.01815 0.0677352
-0.413426 -0.285309 2.06797
-0.958932 -0.960002 -1.36369
0.822294 -0.399737 -1.60157
-0.523398 0.892801 -4.43143
-0.0051553 -0.32085 0.0316637
0.933484 0.865956 -4.75401
1.73414 -1.76735 -0.57264
2.11005 0.406765 -5.575
0.344396 -0.92315 -0.220726
-0.264891 0.62754 -3.16721
0.682066 -0.547448 0.133193
-0.865449 -0.116677 -4.0462
-0.266079 -1.87288 -0.404505
-0.83974 0.274413 -2.92221
-0.459059 -0.717011 1.35417
0.718357 -0.467534 -3.22891
-0.89576 0.168846 -0.985901
-0.771027 0.470066 -1.84393
-1.16152 0.0498814 -1.06026
0 0 0
0 0 0
-0.619549 0.784392 0.394749
1.61232 0.731657 -0.180689
0.477336 1.55614 0.590749
0.724947 0.288822 2.23826
-0.272967 -0.739494 2.05057
0.0738241 -0.671788 2.52505
-0.605171 -2.2577 2.59545
0.967321 -0.495571 1.73607
-0.600935 -0.590816 -1.59785
-0.0134617 -0.938279 1.05126
0.436934 0.649041 -1.37952
-0.360663 -0.990827 0.901742
1.26576 0.284255 -1.40977
-0.693474 0.388299 1.95385
-0.691322 -0.558839 0.262844
-0.233649 1.62776 1.80121
0.629335 2.21747 -1.1062
-1.01639 1.16292 1.66022
0.82559 -0.0413222 0.668641
0.999135 -0.488453 3.82075
-0.547466 -0.220433 0.678208
-0.667664 -1.01603 -0.576059
-0.599806 -1.85496 -0.956543
0.176599 -0.60953 -1.83181
0.454493 -0.962566 -1.65047
-0.0644154 1.11253 0.0477663
-1.48128 0.743599 0.840118
0.874514 1.31419 -1.38349
-0.0871614 -0.631014 -1.22479
0.554567 0.490977 -2.2481
0 0 0
0 0 0
-1.30588 -0.0199092 -0.105146
-1.0305 0.302451 -0.172117
-1.54591 -0.977643 -0.258569
-0.598116 1.83902 -0.981719
-0.524634 -2.03113 -0.207718
-1.19644 2.65589 0.574867
0.0536434 -1.41765 0.442321
-0.618081 0.399449 0.232409
0.860907 -0.71377 2.00752
-0.845831 -0.467335 0.463117
0.925828 -0.439479 1.96126
0.260311 0.524827 -0.732793
1.09002 -0.467404 1.05369
0.601807 -0.476751 -0.384517
1.03839 -0.220239 2.62901
0.11435 -2.13902 0.0591658
0.545532 1.02928 0.678821
-0.278161 -0.741189 -1.615
0.469223 1.43078 0.301843
-0.323493 -0.177854 -1.37979
-0.0626555 -0.229374 1.12056
-0.0788057 -0.365343 -2.10035
0.469941 -1.54224 -0.124235
-0.30689 -0.571143 -0.56486
-0.397922 0.39308 -0.5973
0.633774 0.152783 -0.797993
0.056084 -1.9591 -0.0815719
1.2796 1.44512 -0.220609
-0.12523 -2.50432 -1.06568
0 0 0
0 0 0
-1.31739 -0.559897 -1.11977
1.71449 0.302513 0.180096
0.528328 1.2015 -3.51453
0.945431 0.625846 -0.479375
-0.0840074 0.193745 0.605393
-0.99323 2.01353 -1.59298
-0.625271 0.535727 1.74237
0.328301 0.556912 0.110302
0.688059 0.622534 -0.0756415
-0.81974 0.317606 -2.18127
-0.0876876 -0.816392 -1.08312
-0.781725 -0.479978 0.00120432
1.55829 0.308915 1.62797
-0.972626 0.154037 1.58956
2.19633 -0.336088 2.87549
0.513868 -1.34709 -2.24734
-0.315401 -1.04378 0.931595
0.357615 -1.70881 -3.51003
0.103986 -0.810657 2.78037
1.1358 -0.106935 1.17016
0.773245 0.733885 -1.56904
-1.00909 0.794575 -0.860358
-0.436631 1.61423 -2.40865
-0.36915 0.499319 -1.4727
0.646648 0.852004 2.78243
0.734646 -0.29334 0.818732
-0.031336 -0.389367 0.748433
-0.358462 -0.801545 1.12334
0.636554 -2.08965 -2.03052
-1.0287 -0.319394 -0.390182
-2.82531 -1.25632 -0.893556
0 0 0
0 0 0
0.159568 -0.355315 0.224406
0.418118 -0.495875 0.137169
0.339095 -0.173653 0.202679
-0.206031 1.96662 0.271613
0.472861 -0.200183 0.185096
-0.128794 1.26412 -0.435652
-0.198939 -1.20228 -1.16113
-1.00226 0.358671 -1.80269
-1.38115 -0.729612 -1.15437
0.0289769 1.14907 0.686777
-0.329876 -0.379964 0.733634
-0.287316 0.366643 0.863686
0.0770402 -1.15678 1.46193
-0.532906 0.627854 4.7878
-1.88625 -0.7623 0.717964
0.286654 -0.814534 2.3223
-0.48331 0.489233 -2.41922
0.630787 -1.09147 1.12716
0.485075 1.59742 0.375573
0.602356 -0.754187 3.40322
-0.461842 -0.753573 1.52126
0.143437 0.706933 3.28906
1.73125 -1.66995 2.39729
0.895577 0.541753 4.66465
0.328224 -0.639053 1.15231
1.8394 0.493931 1.51871
0.310851 -2.13507 2.3064
2.04763 1.60929 1.78034
1.15208 -1.36411 3.57386
2.16111 0.359602 1.28468
0 0 0
0 0 0
-0.383343 0.731564 1.23018
0.438209 0.109293 1.32597
0.301427 0.0292861 0.806499
-0.474586 0.910802 1.92426
0.712889 -0.338673 2.91713
-0.803798 -2.21489 1.31756
1.55735 -1.1767 0.18086
-0.671453 -0.316036 -1.68268
-0.201165 -0.526159 -1.46232
-0.756547 -0.277248 -1.24205
0.640452 -0.0708697 -1.9197
0.192036 0.226637 -1.36711
0.629463 -0.0848283 -0.169538
0.0106512 0.345874 0.123457
-0.352016 0.709782 0.33518
-0.628148 1.21482 -1.29763
-1.10176 1.59832 -0.521041
0.388486 0.986234 -0.544537
0.767152 0.641821 -0.446248
-0.0285059 -0.568039 1.73586
0.278625 -1.07842 0.131292
-0.688007 -1.64988 -3.35511
-0.150466 -0.648188 -2.50167
-0.353955 -1.46747 -1.49798
0.792145 -2.20029 0.383291
-0.0731323 -1.06012 0.473995
-1.2395 -0.285855 0.663484
0.760665 0.533242 -1.32697
0.702401 0.0272386 -1.58736
-1.47484 0.165956 -0.364782
2.47378 -1.6274 2.60584
1.78468 1.39439 1.37785
0 0 0
0 0 0
-0.302807 0.578435 -0.0242627
0.165788 0.84334 1.06143
0.30722 -0.884115 1.07944
1.56853 0.998554 0.894213
-0.147127 -1.38673 1.10618
-0.520473 0.450206 1.31852
1.65448 -0.491764 0.261195
-0.207346 1.16073 -0.567484
0.0424912 -0.745067 1.60962
0.176059 0.049846 -0.099533
0.228071 1.2842 2.10586
0.178539 -1.53017 -0.0475454
1.17982 -0.134326 1.74231
0.181092 -0.383181 0.27853
-0.408146 0.693438 2.99776
0.314106 -0.550043 1.33145
-1.19491 0.52669 1.44166
-1.04558 -1.16746 -0.0129504
-0.0757183 0.6196 1.40099
0.421115 0.246799 1.55483
0.832124 0.377929 3.32688
0.487158 0.928056 0.96384
-0.492896 -1.23013 2.08584
-0.972803 0.163027 1.84934
-0.601744 -0.14471 0.705474
-2.26281 -0.33116 0.681709
-0.594836 -0.214257 1.39861
-1.50664 0.279111 1.72015
-1.28982 -0.477349 1.12057
-2.0181 0.404229 1.85186
-1.68841 -1.0931 2.447
0 0 0
0 0 0
-0.728131 -0.403067 -0.220555
0.261435 0.767156 2.99223
0.775313 0.334287 -2.18303
0.353208 0.998366 1.78263
0.618907 1.43285 0.664718
-1.93026 0.486231 -1.2102
-0.737327 0.355719 -1.13211
-0.254212 0.564452 -1.30837
0.663727 0.56919 -0.810947
0.134489 0.118562 -2.41188
0.237084 0.403841 -2.79053
-0.891185 0.477004 -0.57059
0.980252 -0.285703 1.14738
0.00508125 -1.05811 2.59678
-0.613847 -0.964797 2.77034
1.54205 -1.58402 -2.54811
0.0888077 -0.648071 0.990938
-0.786998 -0.876489 -2.91899
0.351898 -1.06289 1.8392
-0.354177 0.632162 2.39836
1.33777 1.0292 0.0809569
-0.566229 1.57474 0.62222
0.264287 0.749453 -2.33455
-0.698503 0.95188 -0.0452597
0.536579 1.3409 5.04359
0.131558 1.00771 1.88211
0.400442 0.399517 1.52101
-1.20489 0.0588243 -0.336413
-0.279617 -0.82049 -2.79843
-0.106519 0.248192 -2.91676
0.500627 -0.389305 -0.532816
-0.413209 1.25748 2.17541
-0.357723 -1.60008 0.530879
0 0 0
0 0 0
1.5259 0.068747 0.336316
0.201306 -0.236009 0.360547
-0.280643 -0.678774 0.729601
-1.43641 -1.45308 0.165418
-0.0137822 -1.20962 0.572244
0.789541 0.74205 -0.682016
-0.0259824 -1.51108 0.436479
0.603722 2.65508 -1.60785
-1.4768 -0.679443 1.29834
-0.690138 0.254239 -0.316237
-0.953429 0.902752 1.21609
-1.12589 -0.504293 -3.18935
-1.50933 -0.0740018 0.0699301
-0.444902 -0.734532 -0.293671
-0.801726 0.617143 0.79747
-0.504223 0.851628 0.357572
1.46283 0.073409 0.422641
-1.15916 0.322244 -0.525249
0.186794 -0.751274 0.651342
-1.21094 0.391604 -1.90029
-1.5772 -1.12478 -0.810988
0.1609 0.0666569 -3.2349
0.362436 -1.1976 0.113033
0.969058 1.32048 -1.71988
1.00689 0.00491516 -1.91336
1.02826 -0.238634 -5.94941
1.23794 -0.186984 -2.21778
1.06248 1.20391 -6.7523
1.32605 -0.202904 -1.67978
2.27156 0.801914 -6.80244
1.0123 -0.378805 -0.560797
1.41256 1.46287 -2.51553
0 0 0
0 0 0
1.09368 0.152353 1.33779
-0.770072 0.0197208 2.09238
0.72045 -1.28883 1.10393
0.220156 -0.0079944 1.39694
0.468173 -0.37326 1.56087
-1.20945 -2.2207 -0.325392
0.964064 -0.0456579 -2.13964
-1.37449 -0.0844023 -3.27278
0.813542 -0.524935 -1.64324
-0.448342 0.00779587 -1.23058
-0.351546 0.319651 -1.81784
0.728367 0.873739 -2.29698
-1.03548 0.279577 -1.07349
-0.0182931 0.603263 0.2391
-0.806981 -0.0143702 0.356598
0.421072 0.645989 -1.88559
-1.64006 1.82919 -0.650908
-0.172467 1.42074 0.197169
1.12813 0.390067 -0.698691
0.911518 -1.41925 2.45451
-0.0682328 -1.07765 1.94458
0.274498 -1.88596 -2.06792
-0.0400169 -0.0650301 -2.57801
-1.43614 -1.82747 -1.47654
1.31574 -1.38934 1.07408
0.51426 -0.210212 1.28753
0.0932003 -0.70359 0.957245
0.205388 -1.39835 -1.63618
0.508111 -1.3014 -1.94901
0.416142 0.0730834 0.31694
0.724621 -0.899407 -0.646564
0.26582 0.546496 1.90852
0.551958 -0.55786 0.780914
-0.71077 1.9413 -0.560764
0 0 0
0 0 0
-0.526383 0.534442 -0.226715
0.0110347 -0.350837 1.13636
1.23591 -0.303216 0.420732
0.75841 -1.5045 0.494284
1.12884 0.326281 -0.297566
0.368991 -0.164681 2.01803
-0.92287 0.0541611 0.121416
-1.09177 -0.17878 1.40646
-0.283504 -0.92505 0.72166
0.690584 -0.0962671 0.589494
-0.115422 0.816337 -0.736853
0.830044 0.515266 -0.393462
0.52782 0.0112416 -2.95461
2.37785 0.56349 -1.83373
2.23862 -0.359042 -1.04941
2.2057 -0.030896 2.40226
0.121798 -0.561185 1.42419
0.702441 -0.114164 2.32183
-0.234195 -0.0510885 -0.725813
1.57684 -0.275274 -0.19687
-0.377225 -0.734194 -1.24753
0.233803 -0.366785 -1.79418
-1.03044 -0.123199 -1.65366
-0.83216 1.09926 -0.812603
-1.05554 -0.68437 -3.05888
-0.573127 0.0398703 -2.17869
-0.958844 0.132093 -2.28541
-1.20952 0.266701 -0.535541
-1.381 0.879271 -2.59378
-0.292662 -0.407876 -1.4857
-1.02902 -0.137601 -2.30064
-0.970417 0.608405 -1.34742
-1.60321 -0.429671 -2.15403
0 0 0
0 0 0
-0.232534 -0.333346 -0.506707
-0.356087 0.331193 1.86831
-0.539674 1.57086 -3.29223
-0.431004 0.583033 0.627356
-0.127463 0.428694 -0.185619
-0.996199 0.712747 -0.649043
1.42306 -0.553468 1.21582
-0.799721 0.636199 1.12591
1.79174 0.542862 3.01078
-0.993675 0.763121 -0.177446
0.152978 0.706107 -0.775806
-0.915634 0.175724 -1.75099
-0.204036 0.204137 -0.727038
0.192241 0.200361 0.17211
-1.35802 -0.638407 1.99251
1.03524 -2.07791 -3.57538
-1.63848 -0.253585 0.0823533
-0.410096 -0.673485 -3.98087
1.52643 -1.42515 0.260673
-0.534194 -0.440402 1.02984
1.17894 -0.187275 -0.218461
-0.865442 1.2954 0.478709
0.695096 0.554684 -3.51891
-0.407073 0.793766 -2.45516
0.183091 1.20513 2.5074
-0.308997 1.29023 -1.13341
-0.0703651 0.841854 0.0368374
0.649001 0.776509 -2.84433
-0.926503 0.0108695 -2.94548
1.04369 0.606282 -2.49745
0.764523 -0.239615 -0.610713
-0.611491 -0.802913 0.262569
-0.379187 -1.15764 2.75251
0.0600742 0.499176 1.41011
0.867691 -0.752278 0.0751013
0 0 0
0 0 0
1.61893 0.631539 -0.178882
0.301154 -1.02289 -1.11805
0.106313 1.15502 -0.917233
-0.248849 -1.17124 -0.727716
-1.39578 1.30339 -0.564094
-1.34472 -2.10145 -0.900892
-0.523869 1.63638 -0.418638
1.45516 -1.95661 -2.33898
1.04709 0.717789 0.272034
0.64926 -1.5452 -0.848698
1.29335 0.594569 2.72733
0.606878 -0.443485 -1.86486
0.219245 0.271824 2.06147
-0.543677 0.277809 -2.34947
-0.439009 0.146919 -1.27505
-1.9518 -0.356211 -4.01099
-0.865905 0.42699 -1.33228
-0.31029 0.389696 -2.84599
0.855528 -0.572126 0.209164
-0.430063 0.26711 -2.67434
0.619133 -0.780123 0.240857
-0.701409 0.649037 -1.41982
0.152186 -0.0493366 2.88262
2.07522 0.0178138 1.81258
2.4754 0.368978 2.06828
2.17798 -0.55706 -0.332235
1.8575 0.278478 3.42201
0.724485 -0.21731 0.843165
1.61792 0.0881668 4.13294
1.38014 0.368706 -1.47822
1.56926 -0.0759852 0.586627
1.35688 1.13195 -2.98218
-0.0209443 0.35442 -2.70704
-0.500147 -0.320786 -3.76095
0 0 0
0 0 0
1.78406 -0.129544 0.187867
-1.59466 0.17233 -0.55832
-0.373538 0.022642 -1.51939
-0.226189 0.97799 -1.01707
-0.142298 -1.09774 0.760329
-1.66031 -1.24485 -0.193646
0.604854 0.550575 0.568976
-1.08257 0.449076 -1.55651
1.62746 -0.905151 1.35176
0.580525 -0.994761 0.257264
0.5022 -0.176629 1.74685
-1.334 -1.23895 -1.17036
0.544292 -0.0922679 0.993093
1.18548 -0.447514 1.14555
-2.00716 0.0396145 4.4211
2.24985 1.33605 1.48008
-0.670939 1.17358 2.30781
0.105933 0.86121 1.01424
0.932846 0.631382 0.199216
-0.922932 -0.738907 0.812991
0.740013 -1.21023 2.16646
-0.0279439 -0.402507 -1.6792
0.197003 -0.556813 -0.821946
-2.15733 -0.807599 -1.53049
2.05065 -1.40048 -0.300738
0.151824 -1.89019 -1.03737
0.63828 -0.790336 -0.37677
-0.713842 -2.02628 -1.93719
-0.956451 -1.88383 -1.75714
-0.4179 -0.79537 1.09751
1.06637 -0.473496 -1.40223
0.0240251 -0.87668 0.849431
-1.22108 0.301575 -1.52524
1.5149 -0.383186 1.16246
-0.996485 0.515155 -1.06264
0.285148 0.0286457 -3.01113
0 0 0
0 0 0
-0.598047 1.13997 -1.46956
1.00209 -1.11276 -0.744057
0.336527 0.251563 -0.582647
0.41909 -1.68642 0.326469
0.71497 1.17878 -0.804938
0.496756 -0.373523 1.52615
0.525355 2.74584 -2.26269
-0.326097 -2.11668 -0.452579
-0.314816 2.10293 -1.77367
-0.710217 -1.05009 1.25072
0.288213 1.24433 1.283
-0.114323 -0.816192 4.61483
-1.61496 0.0145962 1.25212
0.239878 0.246494 0.747041
0.457478 0.520115 -0.378947
0.540431 -0.2053 0.954294
0.794687 -0.175036 0.672423
0.381384 0.563911 2.10462
-0.0655518 -0.836656 1.57919
-1.53718 -0.905864 1.76069
-0.984471 -0.135492 2.26995
-0.956578 -0.351061 0.0670155
-2.34916 0.550215 1.68745
-1.49183 -0.405043 1.19946
-1.18436 -0.0314472 2.22514
-2.1651 -0.82308 2.19448
-0.976812 0.614441 4.64899
-1.92063 -1.50874 5.12448
-0.450014 0.626951 4.0693
-1.22661 -0.645551 3.37301
-0.997067 0.0414891 2.72104
-1.00277 0.550062 0.951651
0.18662 0.428208 0.104705
0.361738 -0.449501 0.884694
1.16009 0.805556 -0.250682
0 0 0
0 0 0
0.280391 0.465305 -0.947679
-0.152916 1.05515 0.161679
-0.00516864 0.277949 -4.67939
0.125674 -0.7815 0.512798
0.510271 -0.69375 -0.849996
-1.16777 0.154168 0.12588
0.692811 0.5445 2.34994
-1.29719 0.32119 1.87039
1.695 -0.0105281 2.97901
0.222871 0.793805 -0.610516
0.863391 -0.31505 -0.720148
-0.0422481 -0.579058 -1.89031
0.625177 1.42642 -0.73215
-1.5547 0.832034 -0.0503036
0.460777 -0.519934 3.13547
1.09408 -0.685375 -1.21798
-1.83562 -2.14865 0.178211
0.484733 -1.96259 -5.2638
0.527966 0.182083 -2.12021
-0.508448 0.956466 -2.06154
1.9598 0.0881933 -2.26594
-1.19222 0.474363 0.812031
0.94695 1.71614 -1.79408
-1.52936 2.40058 -0.919496
0.26749 1.45276 0.427849
-1.21492 0.572403 -3.24591
1.68087 -0.122158 -1.35086
-1.21139 0.453864 -1.85561
-0.341494 0.0946704 -2.70003
1.39332 -0.307812 -2.36651
0.484752 0.0221143 -2.40596
-0.0570677 0.339936 -1.30563
-0.884471 -0.701736 -0.430901
1.13557 0.50164 -1.29049
-0.200818 0.483047 -0.9837
-1.50404 -0.703869 0.556344
0.440328 -1.04875 0.26245
0 0 0
0 0 0
-0.263696 1.33041 -0.0622853
0.25714 -0.851749 -1.63208
-0.458721 1.00342 0.501816
0.422147 -1.56586 -0.0620675
-0.574153 2.16052 1.44441
-1.76006 -2.60917 -0.525221
-1.12437 2.25769 0.145906
-0.695266 -2.90741 -2.53084
0.264161 3.06442 0.711911
-0.114268 -1.36842 0.342586
-1.03964 0.866328 4.00817
-0.302198 0.247984 0.628126
-0.691888 -1.09359 4.66473
1.0972 0.837352 1.69538
0.724115 -0.384786 2.57252
-0.223001 -1.84508 0.372108
-1.00385 0.630427 1.44198
-0.644284 -0.440956 1.89724
-0.0344875 -2.12562 2.84744
1.54098 0.778108 1.03853
1.16727 -1.17372 -0.0247441
1.5374 -0.443658 -0.452699
1.78891 1.11853 -1.0007
2.53229 -1.17693 0.259958
1.80036 0.550691 -2.92051
2.33712 -0.195267 -2.43818
1.81312 0.627059 -2.26709
1.87088 -1.05124 -1.22673
2.41074 -0.143675 -1.1062
1.9291 -0.329704 -1.07634
1.98694 -0.0195368 -0.760013
-0.713096 0.515735 1.73483
-0.366811 0.869138 -0.747424
-0.48346 -1.57898 1.38821
-0.98941 0.0453625 -0.753154
-0.219836 -0.199448 1.14496
0 0 0
0 0 0
0.955861 0.706024 0.689526
-1.34182 0.0671347 0.123441
-0.406833 0.384532 -0.078431
0.791391 0.471408 0.967759
-0.796248 0.622395 1.31058
0.39644 0.218386 0.0872752
1.16626 -0.0500072 -0.137093
-0.973435 -0.459771 -2.28794
1.22823 -1.33985 -0.69677
-1.27913 -1.57015 -0.771558
1.09001 0.568809 1.45606
-1.55809 -0.442106 -0.811019
1.22352 -0.95029 1.15646
-0.0252502 -0.564861 0.789504
0.447662 -0.463702 3.91052
-0.362173 0.415325 2.0066
-0.415286 0.922393 1.49995
1.09973 1.26359 0.256598
1.40801 0.78728 -0.775612
-1.28169 -1.91196 -1.52849
0.29665 -1.7798 1.13935
-0.992315 -0.666779 -1.40608
0.213427 -2.67234 2.03383
-0.249353 -1.21464 0.383588
1.50947 -1.42214 -0.261283
-1.39037 -0.0265774 -2.62526
1.69384 0.81031 -0.393861
-2.61145 0.69143 -0.701323
1.54941 1.63263 -0.51688
-1.04512 -1.10579 0.142009
0.643255 -0.281555 -2.7552
-0.301907 0.199107 -1.04119
0.291717 0.44475 -3.51125
1.09333 0.618917 -0.794907
-0.219256 -0.612709 -3.25457
0.614458 1.05469 -0.351173
-0.615266 -0.218585 -0.488872
-0.895749 -0.186964 -0.0604889
0 0 0
0 0 0
0.598561 1.51267 -1.28162
0.844118 -1.52073 0.765572
0.602902 0.985427 1.35621
0.584432 -2.08945 0.865399
1.07921 2.04674 0.0989017
-0.942717 -2.11914 1.94597
1.59759 2.73134 -0.364047
1.46611 -2.66494 1.16564
-0.549992 2.72632 0.457687
1.27665 -2.61732 1.43377
0.667857 -0.0839154 0.0873409
0.0489138 0.28769 2.21929
0.434986 -0.48134 -1.10102
0.33216 1.77251 0.420211
0.196661 -0.402305 0.333922
0.620241 1.54536 2.63622
1.24989 -1.22251 0.168926
0.313116 0.847408 2.71588
0.155244 -1.95185 -0.642649
-1.41004 0.298108 1.2947
-0.953838 -1.23366 -0.645481
-1.99923 1.02344 0.347248
-2.31089 0.886514 -1.1807
-1.92816 -0.749566 0.325438
-1.33973 0.452365 -1.69338
-0.594015 0.610544 -0.522018
-1.83617 -1.50975 -1.18317
-1.89052 1.29582 1.39261
-0.809574 -0.969957 -2.31324
-1.74664 -0.283104 0.986196
-0.983568 0.104006 -1.00618
-0.300597 0.623635 1.24235
-0.117718 0.995047 -0.435151
0.51873 -1.02244 2.51657
1.8939 0.305752 -0.396528
1.31537 -0.377322 2.77294
1.88929 -0.545073 1.20754
0 0 0
0 0 0
0.508352 0.309507 0.201022
-0.215331 -0.328012 1.20657
0.537545 0.287434 -2.51863
-0.362903 -0.549179 2.90195
0.16093 -1.09343 -1.37704
-0.113971 -1.23724 0.182261
-0.914839 -0.597926 -0.28421
-0.719161 0.511996 1.13468
0.732464 0.387022 0.0190658
-0.895777 1.49947 -0.48123
0.971982 0.584102 -2.40868
-1.34423 0.47538 -0.589209
0.880804 1.23009 -2.59798
-0.535617 -0.188802 -0.50451
1.34864 0.0829104 -0.980513
-0.634232 0.0384039 -0.563136
0.190455 0.0563838 -2.1653
0.227929 0.107714 -2.50393
0.902496 -0.247329 -2.76306
-1.7272 0.569868 0.411457
2.74471 0.404145 -2.88078
0.207699 1.6295 4.17794
0.285778 0.66889 -1.07058
-0.416131 0.700169 2.4331
-0.775136 0.603962 -1.41104
-0.934804 0.59577 -1.73077
0.00668387 0.190715 -2.30527
-2.38122 -1.27609 1.27488
0.068171 -1.05472 -2.26338
-0.640858 -1.45146 -0.348968
0.845545 -0.46511 -3.06192
-0.310409 -0.342894 0.109831
1.15646 -0.302644 -1.13669
0.764087 0.294123 -0.452449
0.386306 1.23491 -1.05168
2.08407 0.085107 -0.439492
-1.37773 1.42284 -2.42685
2.41759 -0.206499 0.695782
0.515482 1.85275 -1.39478
0 0 0
0 0 0
-0.11609 -0.263426 0.0755836
-0.439663 -2.66485 -0.438743
-1.54683 1.65216 0.711721
-0.5348 -1.49966 -0.256803
-1.73769 1.5925 -0.286701
0.327862 -1.95546 -0.540333
-0.824454 2.721 -0.768082
-1.37059 -2.48631 -0.460095
-0.350505 2.46954 -0.0939979
-0.871981 -1.82434 0.325309
-1.124 1.30426 -0.615881
0.382694 -0.457604 -2.44329
-1.75578 -1.80628 -0.135116
-1.08678 1.86274 -0.152183
0.584783 -0.456403 0.0374093
0.465634 2.18671 -2.18004
-1.30855 -1.28076 -3.00743
-1.30485 2.6532 -3.07439
-0.295715 -1.27855 -1.88339
0.0100804 1.2896 -2.76572
1.98383 -0.415238 -0.579835
1.34424 0.416169 1.38917
0.959994 0.801624 2.73315
1.37942 -0.0860635 3.58536
1.1426 -0.547046 1.18111
-0.0406464 0.486791 0.0991859
0.22361 -1.07027 0.913118
2.20639 0.848033 0.512945
0.476713 -0.122225 0.417357
-0.192884 -0.0315631 -0.186535
0.71871 0.10326 -0.472706
-0.626542 0.578755 1.28256
-1.12014 -0.392051 -2.68053
-0.398039 0.280955 -1.5147
-0.844194 0.109694 -4.44296
-1.39549 -0.581114 0.279708
-1.85521 0.642247 -1.70133
-1.62887 -1.56361 1.49098
0 0 0
0 0 0
-0.403573 0.352375 0.446229
0.835497 0.675928 0.023421
0.016712 2.01089 -0.204397
-0.582002 0.847226 2.1267
-0.176208 2.77895 0.440155
-0.419464 1.76433 1.10293
0.215572 0.73586 -2.08134
-0.371635 -0.918958 -1.08784
1.24432 -1.24318 -2.84074
-0.547363 -0.683833 0.658728
-1.01124 -1.02345 -0.11176
-1.04242 0.105766 0.870061
0.198135 0.718266 -1.85172
-1.39995 0.347779 -0.370599
0.733571 -0.218113 -1.90415
-0.49014 0.845488 0.871499
1.23764 1.19363 -1.5837
-1.03005 -0.376975 2.63698
1.62539 -0.474694 -0.878272
-0.0548466 -1.33364 0.38289
2.25496 -0.453503 0.871452
-0.707369 -0.727738 -0.114894
0.321805 -0.707359 1.67145
-0.556068 -0.510879 0.574161
0.746412 -0.382515 -1.16964
-1.83709 0.277184 -1.63138
0.173151 -0.569487 0.0256563
-1.26905 1.06519 0.986893
1.76143 0.511403 0.997253
-1.44144 0.559319 1.84908
1.7687 2.00044 -1.75614
-1.0979 1.81111 0.23334
0.137506 0.214852 -2.85132
0.737073 -0.311036 0.385064
0.620177 -1.08151 -2.48394
0.126436 -1.69136 -0.372966
-0.970317 -1.33423 -1.05687
0.014895 -2.22233 -0.810234
0.385072 0.662795 -2.57951
-0.0624199 -2.12428 2.1797
0 0 0
0 0 0
0.51699 -0.0302868 -1.13573
-0.533925 -0.636276 0.50839
-0.607348 0.945237 2.23275
-0.0154 -0.388756 0.594467
-0.327446 0.968227 0.348717
0.0531882 -1.89838 0.500503
-0.0905449 1.47813 -1.58953
0.174437 -1.70689 -0.00759952
0.870062 1.86612 0.204942
0.0659177 -0.772882 0.561439
-0.413217 0.304024 -0.983829
-0.804121 0.169595 1.65322
0.208376 -1.60476 -1.24866
0.862042 0.190364 1.0688
0.447101 0.379605 0.699211
0.305428 1.02355 3.06843
0.193268 -1.44417 -0.0824282
-0.902848 1.81618 3.51449
-0.129153 -0.549085 -0.91631
0.242351 2.16001 1.31398
-1.86259 -0.400144 -0.962349
-1.5322 -0.191084 1.93245
-1.65497 0.469053 -0.220893
-1.62925 0.0695945 0.971598
-1.35061 0.152286 -1.14419
-1.80339 -1.37302 -0.803739
-0.650847 0.441117 -1.10327
-1.80447 0.589231 1.05436
-0.152707 0.38313 -2.25388
-0.356068 1.82966 1.72437
-0.278075 -0.861093 -0.837581
-0.0259458 0.417918 0.937156
0.0289754 -1.25126 -2.69056
-0.00108636 2.10795 -1.0376
-0.330801 -0.244716 -6.26716
0.744494 0.7365 -1.49721
0.666796 0.0859182 -3.10143
1.26952 0.165513 0.153105
0.998779 1.2044 -1.41157
0 0 0
0 0 0
0.343735 -0.816179 -0.538315
-0.0523025 -0.197048 -0.870116
0.155066 -0.98554 -3.45632
0.796082 -1.2449 2.16298
0.129234 -1.21609 -1.67526
-0.827139 -0.976571 0.86406
0.39431 -0.66928 0.296536
-1.22163 -0.554183 2.20372
0.872095 -0.127469 0.862762
-0.569062 -0.339163 0.472492
-0.879738 0.331117 -1.03813
1.25706 1.32917 1.34658
-0.357618 -0.960699 -1.45897
-0.405477 -0.809101 -0.849961
1.40175 -0.427124 -2.6087
-2.35943 -0.369842 -0.961856
0.938848 0.469588 -1.95986
-0.727078 0.421737 -1.67796
0.804401 0.830244 -2.62932
0.0866048 1.73887 0.214788
1.87974 -0.0335909 -2.06832
-2.83141 -0.326994 3.0398
1.26443 -0.658307 -1.91143
-0.729687 -0.196094 -0.974523
1.01877 -0.642544 -2.9235
-1.88347 -0.0694656 -2.52776
0.459199 -0.0663919 -0.808527
-0.157434 -1.47521 0.939201
0.0504086 -0.115909 0.00923781
-0.989779 -1.63633 0.257537
0.732973 -1.80453 -1.15541
-1.6098 -0.703086 -0.849924
0.131986 -0.0867127 -1.28233
2.91086 0.398278 -1.21382
-0.200702 0.279145 0.212447
2.6711 -0.342648 -1.35539
-1.83233 0.191812 -1.33397
0.400309 0.491879 -1.6657
-1.42034 0.820921 -0.632439
2.26256 -1.04196 2.09082
2.44538 0.727388 -0.0536374
0 0 0
0 0 0
1.14874 0.027397 -0.313438
-0.0297822 -1.42832 -0.937501
0.103075 1.09879 0.720401
-0.35563 -1.19503 0.951556
-0.431918 1.6635 0.91868
-0.449924 0.0732586 -0.833202
-0.358276 1.33794 -2.24323
-1.41041 -1.613 -2.57716
-0.987776 1.45398 -0.864477
-0.79201 -3.01655 -0.753062
1.64925 1.67018 -0.470613
-0.646778 -1.16036 -1.72809
0.294994 1.73649 1.14122
0.151612 -0.287826 0.389934
-0.328815 -0.542553 0.886183
-0.757834 0.384887 -1.33821
1.82101 -1.65219 0.743686
1.04442 0.220484 1.34154
0.969853 0.0510158 3.59985
0.49365 0.383613 -0.988754
0.831066 0.282902 0.848135
0.801171 0.0414689 -0.166495
0.870271 0.309886 1.59458
-0.437539 -0.266275 -0.763565
0.292188 -1.33528 -1.75236
0.346753 0.414494 -5.69556
0.08779 0.748608 -2.48203
0.594828 0.455119 -4.39864
1.24568 1.07577 -0.513762
0.79477 -0.00107874 -1.67577
-0.367208 0.349501 1.56493
0.237108 1.27185 2.17476
1.16282 -0.685848 1.46748
0.304855 1.76938 -0.00967601
-0.52385 -1.27214 -1.8488
-0.457214 -0.150852 -1.29322
-0.405824 -0.265018 -2.30525
-0.986053 -1.22583 -1.4537
-0.699821 1.73496 -1.73835
-0.847713 -0.131093 1.2185
0 0 0
0 0 0
-0.170139 0.68146 -0.34483
-0.511525 0.135924 -0.962153
0.18576 1.49758 -0.616632
1.14335 0.701716 1.08157
-0.523157 1.06278 0.663958
0.301063 0.791825 0.985
-0.39689 0.0493438 -1.09498
-0.51121 0.348962 -0.714686
0.589075 0.710484 -2.40049
-0.305954 0.483744 0.00297262
-0.580833 1.34114 1.10224
1.13815 0.92736 1.85194
-0.903933 -0.267106 0.0619662
-0.167674 -0.239166 -0.522711
-0.410935 -0.337637 -1.48251
0.0640695 0.442078 0.319712
-0.20266 0.883985 -0.590105
-0.617556 -1.28985 1.19836
0.739006 0.0330665 -1.51318
-1.44375 -1.11054 -2.1224
2.93798 -0.151604 1.23344
-1.32121 -0.570711 -1.79502
1.5187 -0.371113 1.55846
-1.4248 1.0189 -2.41977
0.695921 0.425346 -0.410517
-1.39364 1.64424 -1.85564
0.964116 1.37958 2.97312
0.937551 0.905897 0.554161
-0.328914 0.689851 3.82502
-0.630834 1.27398 1.75563
0.893205 1.68476 0.487983
-1.19204 1.07592 -1.54195
-0.127592 1.69452 -2.98648
1.87092 -0.369033 -1.64809
-0.409938 -0.00796339 -1.43653
1.62796 -0.919655 -1.55628
0.0744342 -0.74476 -0.811032
-0.0573917 -0.885991 -2.05072
-0.212189 -2.34531 2.57362
0.715934 -1.4272 0.750709
-0.198866 -0.0566069 0.385719
-0.0732964 -0.313071 0.7851
0 0 0
0 0 0
-1.46981 -0.379166 -0.991703
0.508912 -0.392171 1.03351
0.105945 0.735598 2.65431
-0.958597 -1.71971 1.26476
0.609694 1.21779 1.20814
0.504485 -0.554851 1.0614
0.0696758 0.237018 -0.716303
-0.0972261 -0.49092 0.52363
1.27088 1.80625 1.44609
-0.319459 -0.849948 0.707493
-0.835972 2.17958 0.509479
-0.417411 -1.09646 2.29969
0.013281 1.82675 -0.128553
-0.761422 -0.447743 -0.519942
-0.310599 0.269325 0.607988
0.588776 0.11559 1.24846
0.613099 -0.62843 2.0922
-0.0441872 0.179403 4.00487
0.107758 -1.36193 2.65225
-0.42849 0.142455 0.831829
-0.405667 0.451766 0.576486
-1.08176 0.893447 1.03505
0.932123 -1.60537 2.1722
-1.77725 -0.471147 1.15902
-0.492244 0.918162 2.59168
-2.0147 0.452823 -0.724202
-0.816272 0.0981858 1.3125
-0.734413 0.558624 -0.227424
-0.314251 0.275106 -0.191281
-1.43551 -0.35101 0.279097
0.170573 0.717137 -0.212842
-1.70502 0.556031 -1.15681
1.22171 -0.669934 -0.446496
-0.345049 -0.0301201 1.0557
0.61249 -0.186873 -1.56871
0.290071 -0.0783363 -0.294137
1.39245 -0.0856123 -2.81184
-0.119237 0.322444 -3.19192
0.353471 -0.0196831 -3.93013
-0.772165 0.555452 -1.56419
-0.243933 -0.88366 -2.41356
0 0 0
0 0 0
0.121514 -0.129374 0.189543
0.482409 0.284875 0.00573348
1.03417 -0.484758 -1.17835
-0.0417803 -0.677052 2.20073
-0.449478 -0.651551 -1.13776
-1.24167 -0.980837 -0.0937138
-0.358686 -1.82304 0.922827
-0.00516231 -1.05557 1.13095
0.0799443 -1.06116 0.699255
1.41786 -0.879268 -0.615856
-0.815342 -1.31254 0.0339845
2.10045 0.411519 2.66645
-0.69092 0.328558 1.32656
1.26499 0.19079 -0.0710836
-0.95018 0.088109 -0.662974
0.462337 -0.069315 0.46506
-0.802207 0.0894232 0.0776072
1.85417 0.269853 -1.78438
1.25453 0.47436 -3.21013
-2.22312 1.07558 -0.315531
0.760793 1.44883 -1.24618
-1.1937 1.28644 4.21178
0.963941 -0.0622317 -1.31986
-1.58137 -0.793944 -0.59954
1.10469 -0.37619 -2.92531
-1.70558 -0.277915 -1.80416
0.809202 -0.953506 -0.868262
0.42494 -1.47078 -0.372142
1.37378 -2.3921 -0.551723
-1.71408 -1.44458 -0.0995607
1.00953 -0.934686 -0.70784
-0.00615926 -0.501432 -1.26982
-0.8749 -1.51336 -1.73195
0.439749 -0.228673 -1.86427
-0.549434 0.373862 0.678044
0.116398 0.342817 -1.86742
0.997759 0.712531 -0.59808
-0.0600525 0.840432 -2.38457
-0.427135 0.37771 -0.845999
0.649434 0.243884 -1.38886
0.072286 0.100635 0.696959
-1.24658 -0.282134 -1.8217
-0.396465 0.526343 -2.24262
0 0 0
0 0 0
0.388914 0.1986 0.0413294
1.05529 1.42183 -1.12785
0.584024 0.555816 -1.04309
-0.335816 -0.784649 -2.02209
-0.0865046 0.0240508 -1.31565
-1.42894 -1.65947 -1.43892
0.365921 1.43708 -0.601952
0.0595901 -1.56632 -0.0510942
0.654101 0.886878 1.2094
1.0371 -0.0873106 0.579762
1.20971 0.660137 0.0238968
0.697764 -0.401835 0.248846
0.0118303 -0.58532 0.789915
-0.665064 -0.756482 1.22669
-1.39629 -0.769819 -1.54418
-1.50362 1.28383 -1.49483
-1.15319 -0.672667 -2.47012
-0.356619 1.28066 0.768708
-0.646184 -0.409019 0.28926
-0.171491 0.0907691 -0.774772
0.10399 -0.331993 -1.46083
-1.08202 1.13002 2.07198
-0.0428753 0.930838 1.67352
0.799123 -0.828313 3.95186
1.88684 0.525997 1.54236
2.04198 -1.42937 0.649711
1.24466 -0.111652 0.188471
-0.041184 0.869448 -0.141746
0.573516 -0.836603 0.264581
1.19701 0.315574 0.138085
0.244736 -0.329238 -1.02982
1.54408 0.3732 0.323884
2.10841 -1.03664 -2.77364
1.17529 0.810494 0.0995065
-0.543605 0.249916 -2.21997
-0.75278 -0.199617 1.49988
-0.902141 -0.849086 -1.80464
0.414985 1.15676 -0.913699
0.178186 -2.25748 -4.0014
-0.610375 0.589401 -0.446829
0.476611 -0.600175 -2.58826
1.20518 0.341505 -0.468014
0 0 0
0 0 0
0.150018 0.774728 0.553988
-0.849329 0.0235392 0.725367
0.31448 -0.19194 1.43936
0.704237 1.0356 -0.0730418
0.414547 0.709517 0.151038
-1.27772 0.77305 -1.89073
0.637163 1.26039 -1.31284
0.851387 0.301568 -3.04069
-0.786982 0.0661975 -3.08139
2.03566 1.28149 -2.01097
-1.75959 1.2253 1.45895
1.21373 0.0537529 1.37883
-0.302354 -1.38477 1.33791
0.98482 -0.964256 -0.412202
-1.66562 0.0231737 0.822141
0.247374 0.00206429 1.64567
-1.26829 0.39925 1.96327
1.81183 -0.143443 2.13006
-0.601408 0.0918217 -0.163826
0.04665 -0.406615 -2.1819
0.430757 0.462741 1.14176
-0.284484 -0.512064 -1.63828
0.824428 -0.082602 1.11805
-0.556284 0.994815 -2.12907
0.947785 0.290008 -0.582282
-1.24808 0.420597 -2.78235
1.11147 2.26401 0.622267
-0.639516 1.6432 -2.8142
1.03523 2.52348 1.35928
0.162375 1.56115 0.181494
0.462417 0.34679 1.0707
-0.145425 1.12263 0.402006
-0.31459 1.12276 -0.260555
-0.354305 0.0209447 0.199101
0.022197 0.280257 0.197124
0.695212 -1.98902 -0.456584
0.311622 -0.953145 -0.330465
-0.945216 0.149043 -2.21023
-0.0806695 -0.509483 0.712189
0.539502 0.163172 -1.19515
0.74785 -0.195538 0.611538
-0.315005 0.250856 -0.664449
0.429999 0.799332 -0.657458
1.33766 -0.248939 0.337391
0 0 0
0 0 0
-0.880826 -0.518178 -0.536207
-0.601521 0.514788 0.791698
-0.579704 -1.05603 1.39203
-1.66594 -0.827877 -2.14889
-0.367138 -0.158693 -1.78593
0.987126 0.176024 -1.4235
0.199992 0.60754 -0.813176
-0.404796 -0.938474 -0.347259
0.433479 1.57893 1.14484
-0.402784 -0.433477 -1.52994
-1.61263 0.520547 -0.0868681
-1.27492 -0.397135 1.63266
-1.31897 -1.52088 1.33014
-1.35513 0.572548 0.0378457
1.61886 -1.035 3.21014
1.72468 0.678032 1.74826
0.762054 -0.378448 3.43513
0.10284 -0.0640655 2.65203
0.146001 -0.773805 2.72256
-0.511013 -0.159637 -0.131108
-0.644197 -0.503668 0.717429
1.23239 1.08793 0.282957
-0.50098 -0.254327 1.52188
-0.246546 -1.95577 -0.509459
-2.90237 -0.186511 2.46979
-1.99514 -0.307804 -1.71012
-1.90613 -0.304944 1.75333
-1.3736 0.897161 -1.6205
-1.65568 -1.01388 0.665333
-2.14222 -1.12023 -0.444358
-1.64766 -0.419079 1.50464
-0.742211 1.48326 -2.45146
-0.687202 -0.364723 -0.190739
-0.787924 -0.510588 -1.29338
-0.75316 -0.673375 -0.35684
-1.25088 0.649612 -0.912493
1.12237 0.0514467 2.58894
-0.616054 0.829583 -1.61528
1.17245 -1.21269 1.1561
0.727111 0.620217 -2.02676
-1.59493 0.751401 1.41151
-1.15357 -0.543919 -1.87388
-1.21801 0.199163 1.76381
0 0 0
0 0 0
-0.629084 0.0695652 0.14446
1.11275 0.394522 -0.33047
0.185279 -0.771416 -1.50072
0.379214 -0.273557 -0.774626
-0.791568 -0.390886 -2.79007
-0.891867 0.0358232 -2.45477
0.939694 1.10175 1.41355
0.485874 -0.963928 -0.438684
-0.884475 0.818909 2.07557
1.03103 -0.407244 -0.933972
-0.35368 -0.775445 1.7583
1.71805 -0.147878 1.30109
0.351717 1.16519 2.37343
2.26657 1.15975 -1.60107
-1.54957 0.0411022 1.3966
0.6783 0.486835 -0.0385853
-1.70289 0.863508 2.26429
2.33496 1.00588 -1.3647
-0.683355 0.218667 -0.962452
0.0481488 0.125707 -0.0883424
0.788835 -0.337441 -1.09447
0.607129 0.547502 3.6948
0.0156129 0.283798 -0.991074
-1.80605 -0.543682 1.57954
0.975564 -0.672364 -2.36233
-0.245646 -0.244293 -0.889571
0.250457 -0.459695 -2.61733
0.261257 -1.11532 -1.90349
1.89618 -2.9935 -2.61788
-0.489074 -2.18931 -0.841975
-0.490456 -1.92944 -0.99833
1.22943 -0.705101 0.877479
-1.56404 -0.427937 0.190743
0.440386 -1.09942 0.192518
-0.372619 0.400959 0.35809
-0.312336 1.54401 -1.84404
-0.0486815 1.24956 -0.628133
-0.191517 0.606276 -3.05091
-0.535269 -0.216996 -3.43761
-0.705467 -0.403469 -4.68679
1.24809 -0.257677 -0.264981
-2.1694 -0.0941164 -2.91627
0.934898 -0.195483 -0.827708
-1.6952 0.00813577 -1.56647
-1.03968 -0.682782 -1.96937
0 0 0
0 0 0
-0.189438 -1.56986 0.793787
1.1643 0.0828034 0.345232
0.441322 -0.24517 1.49932
2.17388 0.61475 1.41154
0.869884 0.141044 2.87515
-0.105068 -0.0366301 1.33876
0.645005 0.837866 2.31554
1.54798 -0.937253 0.510692
-0.250524 2.92245 2.87547
0.0485641 -2.32126 0.985954
0.41316 0.870624 2.30112
0.105298 -0.301877 1.56314
0.311574 0.189411 2.6889
0.774558 0.703669 1.85053
-1.21593 0.310595 0.976578
-1.08094 0.129291 0.531935
-0.331985 0.257897 0.557918
0.697648 0.0309278 2.4688
-0.959531 -0.743216 3.42232
-0.538224 -0.461585 1.78848
-1.43998 -0.0499884 1.2063
-1.53599 -1.31202 2.7509
-0.136177 0.422028 2.07604
0.557737 -0.834074 2.07891
0.390218 0.841617 1.82901
1.82487 -1.09111 -0.491415
1.25758 1.82075 1.70551
2.8284 0.352272 -1.07735
2.32156 0.359053 0.399435
1.42623 0.266459 -1.56905
1.64982 -0.557152 0.320143
2.41411 1.08071 0.881821
1.39037 -0.263236 -1.41336
0.877786 0.168976 -0.148094
1.23773 0.236748 -2.60323
1.68626 0.579564 0.410556
2.33925 1.22463 -0.489526
1.79811 0.411007 -0.0637645
0.857258 0.449808 -2.20696
2.11147 -0.423619 0.6406
0.591559 0.900514 -1.59753
1.04463 -0.148117 -0.159323
1.07337 -1.1371 -1.11939
1.65692 0.0132538 -1.3132
0 0 0
0 0 0
-0.763575 0.060811 0.227443
0.425191 -1.04001 0.896681
0.710082 0.488801 0.957015
0.00741899 -0.0247981 -1.13916
-0.583379 0.788932 1.38787
-0.628315 1.24652 -0.476477
0.49115 0.187461 1.99171
0.333877 -0.511768 -1.25484
0.121113 -1.05174 0.434723
0.80007 -0.513258 -0.846331
-0.301944 -0.238492 2.82852
-0.00830963 -0.282217 -1.22343
-0.550983 0.366856 0.360987
1.56594 -0.265566 -3.13641
-1.81658 -0.450095 1.27594
1.99198 0.381841 -1.27781
-1.77377 -0.546109 2.0383
1.81647 -0.120564 1.2842
-0.233842 0.501107 2.65496
0.493613 0.235519 -2.31695
-0.838713 0.437992 1.29088
0.716567 0.00351988 -3.21388
-0.370354 0.0238519 1.50108
-0.755435 0.469191 -1.12821
0.748885 -0.116222 0.533978
0.272917 0.0965679 -2.84292
1.20279 0.777452 -0.674007
-0.514483 1.61248 -3.68895
0.710723 2.12122 -1.06524
-1.02407 2.60647 -1.91799
0.116371 1.16248 -1.83424
2.14915 1.10672 0.0385435
-0.342372 0.600992 -0.812298
0.677685 0.260599 0.912176
-0.513756 -0.013907 -0.838759
-0.859976 -1.41695 0.5982
0.538987 -0.385776 -0.341143
0.65733 0.45247 -0.266939
-2.60028 0.195254 -1.06615
-0.0688582 0.680433 -2.2376
1.56487 0.3366 -0.854968
-1.55423 -0.116077 0.336646
-0.702762 0.800283 -0.705719
-0.346303 0.634942 -2.22525
0.722724 -1.25192 -3.31004
0.522589 0.421346 -2.74864
0 0 0
0 0 0
0.878718 -0.968961 -0.306933
0.563745 0.455442 2.1729
-0.389402 0.563945 3.6436
-0.435454 -0.624109 3.19241
-0.791423 -0.410966 2.67722
-1.48896 1.03668 3.18592
-0.813339 -0.748868 1.17064
-1.44212 0.519753 1.08632
0.289427 1.09485 2.19616
-1.1726 0.248783 0.549495
0.245545 1.29873 1.62915
0.383986 -0.286857 2.11122
0.888761 1.25143 -1.3368
1.07372 0.308481 -2.61574
1.01062 -1.48966 0.625229
0.325772 0.107678 1.15645
0.955139 0.365962 1.67811
0.7362 -1.38091 2.29548
0.998455 0.898803 1.60895
0.425319 -0.442094 1.83693
1.13401 2.15906 0.147834
1.13449 -1.503 2.10851
0.460477 2.64755 -0.00297329
-1.11157 -2.84461 0.450214
-0.592194 1.68012 1.51529
-0.169962 -2.29087 0.961885
-1.70984 1.17007 2.56195
-1.90004 -1.62128 1.18811
-2.37455 0.961362 -0.936121
-3.28854 -0.651067 -0.653414
-2.11492 0.281851 -0.404173
-2.05909 0.166104 0.0508884
-1.07965 0.351724 0.862172
-1.28447 -0.14555 2.89042
-1.65802 -0.28098 0.759476
-1.50323 0.129635 1.04209
-3.99598 -0.278632 2.82911
-2.40544 0.201201 -1.67469
-0.321887 0.371615 -0.65431
-0.758028 -0.499258 -2.71172
-0.689942 -0.25445 0.315051
-1.77059 -0.515895 -2.77681
0.687261 0.546734 -0.979445
-1.46177 0.646894 -4.22004
-0.775261 -1.09974 -4.48461
0 0 0
0 0 0
-0.518584 -0.555785 0.147943
-0.162126 -0.588693 -0.619036
0.490985 -0.979806 -1.14762
0.917257 -0.736926 -0.479238
-1.04631 -0.837169 -1.01537
0.0120952 -0.818169 -0.355926
-0.800465 0.357868 2.75961
0.900359 -0.442053 -0.206039
-1.55568 1.75214 3.01762
-0.0177786 -0.309658 -1.26535
-0.457537 0.504567 0.607785
0.528839 1.14863 -2.24288
-0.0402548 -0.911374 0.287624
0.448922 0.0789492 -4.16276
-1.50702 1.07271 0.976665
1.23817 -0.141286 -2.77567
-0.792466 0.105757 1.46814
0.678213 -0.247589 -2.5139
-0.458082 0.0566801 1.14117
1.57613 0.514368 -0.361392
-0.322103 -0.819073 -0.410065
1.40365 0.26126 1.66519
0.708095 -0.813763 -0.192913
0.0681595 -0.564477 2.22583
1.41678 0.199128 -0.662561
0.696091 -1.15746 0.804696
-0.528895 -1.0638 -0.559171
0.240539 -1.66698 0.380785
0.106063 0.0382466 -0.483611
1.02746 -0.557895 -0.533296
-0.71421 -1.47753 -0.863168
0.329471 -1.02354 0.107605
-0.517029 -0.0733624 0.528011
0.50447 -0.0812543 0.871647
0.38326 1.35906 0.648825
-0.680861 0.994429 -0.454888
-0.516062 1.14511 0.830458
0.258544 -0.0861486 -0.853523
-0.196994 0.489353 -2.89496
-0.780475 0.285257 -3.96193
1.85699 -1.1352 -0.369757
-1.74278 -1.76057 -1.72441
1.05513 -1.84999 0.045042
-0.0501246 -0.98176 -1.66843
0.819411 -1.46812 -2.44122
-0.52745 0.858423 -2.02072
-0.303703 -2.0661 -2.84258
0 0 0
0 0 0
0.117856 -0.354536 1.30323
-0.118097 0.263038 1.24539
-0.0546705 -0.117892 1.15629
0.750241 0.887082 2.02435
0.95331 -0.65873 1.50689
0.843055 0.745657 1.38833
0.850069 -0.513724 -0.234185
0.0606652 0.024697 0.730549
0.0895473 0.801243 1.39612
-0.0895374 -1.05713 3.00698
0.155545 1.18988 0.894834
0.336598 0.966491 1.37934
-1.29181 0.414736 -2.04685
-0.402194 -0.318531 -0.218712
-0.346799 1.61477 -2.14648
-0.795438 -1.03239 0.116596
-0.341457 1.48416 -2.96833
-1.35727 -2.15282 0.121212
-0.177585 2.64136 -1.30856
-1.93052 -1.94129 0.4781
-2.31107 1.10754 -3.54193
-1.30504 -0.733344 0.574795
-1.24485 2.82706 -3.16356
-0.118759 -3.60016 0.0879401
0.352021 3.6663 -1.72635
-0.279893 -2.61769 -0.484533
0.720732 1.49533 0.681344
1.0714 -1.61675 2.35663
1.11145 1.37566 0.618185
2.47661 -1.03975 1.48921
2.78966 -0.792507 -0.796505
2.04556 0.141831 3.09211
2.46107 -0.158285 -3.4593
1.49615 0.642197 2.19111
1.43755 -0.0559167 -4.24154
2.42461 0.0677724 2.8503
3.35172 -0.540581 -1.53622
1.57697 0.309512 0.703884
2.24187 0.383617 -5.46444
3.2818 -0.386644 0.952081
0.72286 0.551339 -3.61525
1.58945 0.20761 1.03398
0.960266 -0.00050176 -3.29521
1.37245 1.9702 -1.01181
1.06332 -0.88676 -4.22894
1.71674 0.193965 0.420333
0 0 0
0 0 0
0.0322955 -0.390965 0.247508
-0.306144 0.559245 1.30217
0.465731 0.293426 1.47859
1.64325 0.76739 -0.138883
-0.349083 0.861615 2.10981
0.85617 2.15109 0.369027
-0.199972 0.092147 1.03844
0.994422 -0.209636 -1.23786
0.0532799 -0.198976 -0.136192
-0.086074 -0.97553 -0.98787
-0.377727 -0.883865 1.02857
-0.222233 -0.83046 -2.25895
-0.384234 0.093476 -1.08315
0.801265 0.310854 -2.31703
-1.38195 -0.17335 0.335911
1.27785 0.449101 -2.43125
-1.07046 -0.198412 -1.0562
0.685301 -0.103526 0.35478
0.704535 -1.10095 1.73476
0.472356 -0.441181 -1.86358
-0.91826 1.2756 0.542578
0.873556 0.819725 -3.10976
-1.211 0.524866 0.820438
0.409593 0.503702 -0.498901
0.344989 0.257949 1.16516
0.929579 1.10296 -0.780586
0.63512 0.534446 0.555287
0.129029 0.347006 -1.39014
-0.453739 0.476117 0.0360449
1.1769 0.458664 -0.981795
-1.90769 1.04404 -1.2493
-0.0662996 -0.142909 -0.329597
-0.0172764 -0.20941 -0.420255
1.64995 -0.0590449 0.963615
-0.361077 -1.66183 0.335612
0.653301 -1.3018 1.20165
-0.933969 -2.04769 0.275058
-0.0545144 -1.90889 0.718851
0.068051 0.227828 0.359689
-1.24327 0.451322 -0.179855
1.26737 1.4388 0.560105
-1.19835 1.32096 1.74852
2.34296 1.21994 0.940965
-0.539442 1.8683 0.611336
-0.383553 0.163866 -0.227946
-1.05356 0.448698 1.95416
0.616954 -0.742197 -1.85562
2.00499 0.416187 2.63274
0 0 0
0 0 0
0.600797 -1.10287 -0.250621
-0.376579 0.000745349 0.154037
-0.841636 0.011408 0.348861
-1.03914 0.0719885 -4.33068
-1.17998 -1.73038 -2.37256
-2.70797 1.66514 -2.61693
-0.898061 -1.81182 0.442309
0.984649 1.75655 -1.37211
0.610028 0.539835 2.13033
0.34958 -1.01836 -2.51196
0.0649531 1.53411 -0.320811
1.45873 -0.261064 -0.642529
2.18512 1.03278 -2.65039
-0.288138 -1.0257 -2.39863
0.19415 1.27672 1.61321
-1.28079 -1.13542 1.92574
-1.49521 2.57788 0.560051
-0.719186 -0.162852 0.163668
-0.0936322 2.50064 -0.781529
-0.695869 -2.08081 0.499359
-0.159479 2.76134 -1.2245
0.740428 -1.4242 1.07696
-0.0336463 2.93117 -1.3839
1.76172 -2.15763 -1.45102
-0.19429 2.40001 -0.664329
-0.132334 -1.37069 -1.99585
-1.09388 2.31022 0.0728115
-1.31629 -1.8201 0.748648
-2.3752 1.85099 -0.696177
-3.52492 -0.997057 0.985355
-4.15406 -0.00655542 -1.25828
-1.6544 0.270757 -1.22022
-1.84796 0.19835 -4.19878
-1.52007 0.775041 -0.647915
-0.702074 -0.683602 -4.68432
-2.28012 -0.54187 -1.3424
-3.62701 1.05162 0.0949922
-2.92323 -0.987624 -1.62464
-2.66914 1.14981 -2.29006
-1.63208 -0.489584 -1.05527
-1.15677 0.513767 0.0607689
-1.53791 -0.282196 -0.232353
-2.31512 0.0625225 -0.445249
-1.51466 0.367425 -1.8184
-1.41269 -0.0929936 -2.58052
-1.31049 0.301012 0.958999
-0.358942 -1.63763 -1.59459
0 0 0
0 0 0
1.11436 -0.391851 0.983636
-0.321853 -0.375854 0.752044
-0.448542 -0.815948 1.17755
0.218803 -1.17539 1.67861
0.945963 -1.33258 -1.03218
0.831279 -1.14349 0.390753
-1.33137 -0.837065 0.223116
0.980807 -0.074067 0.0815709
-0.726337 0.443178 0.859439
-0.234324 0.259759 -0.649978
-0.956025 0.253955 -1.3655
-0.123726 0.411095 -0.831793
-1.8147 -0.0186619 -0.476559
-0.454217 -1.61145 -1.25622
-1.19603 0.724228 -0.292142
0.92316 0.388661 -1.52219
-0.328217 0.78493 -1.15495
0.313073 -0.171863 -1.82842
-0.0873864 -0.277516 -0.598623
1.72506 0.231318 1.04349
-2.28523 0.0492952 -0.102329
2.32622 -0.305273 2.62296
-0.953662 0.49415 -0.975715
1.58947 -0.393754 2.21905
0.272815 0.450445 -1.41121
0.29802 0.384731 2.24291
0.0447884 -0.726391 -0.863677
1.51425 -0.325167 0.561654
-0.836917 -1.02339 -0.811235
-0.729176 -0.803557 -0.485842
-0.592762 0.783919 0.0954289
-0.618937 0.918294 -0.911679
1.3196 1.7179 0.346978
0.855268 2.05211 -0.00745534
0.163369 2.56841 0.905505
0.90493 0.501543 -0.894189
-0.931142 2.27618 0.438068
0.401593 1.47511 -0.523292
1.16688 0.0320582 -0.0743528
-1.4166 0.175682 0.376783
1.04137 -0.74557 1.87125
-2.09333 -1.19017 -0.943904
0.805981 -0.995023 -0.0729441
0.107998 -0.715265 -1.01248
0.355068 -0.649095 -1.79794
-0.45815 0.640916 -1.56444
1.23367 0.0787076 -1.12195
-0.742233 1.28884 3.64363
0.0443825 -0.7838 0.0299371
0 0 0
0 0 0
0.57904 -1.10095 0.866247
-0.38632 1.19034 0.327455
-0.095877 -1.20043 -2.27871
-0.882276 0.929152 -4.06234
1.46276 -2.13575 -2.94111
0.824222 1.94567 -3.16303
0.521484 -1.30428 -0.175522
0.102879 1.74369 -1.55443
-0.48275 -0.807731 1.39097
0.220619 0.81864 -1.49249
0.388366 -0.303919 -0.841721
-1.27704 -1.37048 -1.65823
-1.19573 0.752072 -0.606261
-0.436361 -0.413397 -0.00342793
2.05511 -0.0379175 0.594763
1.63176 -0.655453 -0.964894
1.6875 2.17236 -2.09795
0.193779 -2.1474 -1.16001
1.34704 2.89452 0.333547
0.899946 -2.54794 2.03719
0.0315757 1.53546 -0.321955
0.45837 -1.83808 3.37586
-1.62126 1.39567 0.654192
0.284781 -1.94301 2.83888
1.50163 2.20645 0.677951
2.36293 -2.2274 -1.16322
2.06101 0.410223 -1.41375
1.70859 -1.19396 -0.695487
4.4628 1.67653 -1.41606
2.72061 -1.91514 0.275108
2.45193 1.26984 -1.47625
1.58231 -2.62773 1.36878
0.613532 0.756635 -4.78747
2.30842 -0.060978 0.120931
3.7764 -0.936191 -4.91552
3.61829 -1.51728 0.309204
2.81581 1.52013 -2.23533
2.02945 -1.31364 -1.37531
2.25408 1.47242 -3.97736
1.73477 -0.295598 1.42849
1.4219 -0.0354207 -1.07462
0.87776 -0.780944 0.695489
2.18372 0.516356 -0.828721
0.584085 1.79614 -1.21462
0.60988 -1.69838 -0.600246
0.480216 1.51123 0.0496855
1.40852 -0.426186 -1.12426
-0.172223 0.464914 0.830199
0 0 0
0 0 0
0.169665 0.278768 0.0562883
0.734318 1.75067 1.12667
0.468095 1.76995 0.940802
-0.76009 1.70755 -0.644219
0.229043 0.882437 0.0654905
-0.499022 0.764128 -0.602368
-0.461602 1.08413 -0.213784
0.684461 -0.957862 0.409314
-0.727774 -0.476941 0.260222
-1.43386 0.0678911 0.528338
-0.126134 -1.29667 1.31627
0.737973 0.134377 0.564364
0.0473876 -1.07037 -0.0643599
-0.35227 -1.02951 0.459119
0.73609 -0.519419 -0.892939
-0.837499 0.834743 -1.53719
-0.623266 0.171892 -3.02164
1.50447 -0.168302 1.41758
0.071788 0.762728 0.211524
1.00169 -1.20266 0.134941
-0.448566 0.224218 0.684662
1.84756 0.520192 -0.963241
-2.53206 -0.357314 -0.88901
1.54079 -0.592169 -1.13853
-0.753591 -0.829436 -0.79422
1.18641 -0.804128 -0.113355
-0.936517 0.0964929 -0.668749
0.758245 1.1308 -1.61109
-0.458475 -0.173438 -1.79908
-0.29819 0.150611 -1.20246
0.528396 -0.222477 -1.11179
0.430761 -0.255795 -0.551133
-0.059929 -1.08425 -0.892742
-0.775154 -1.95304 0.0608421
-0.303676 -1.61833 0.271059
0.458233 -0.352148 -0.870689
-0.152259 -0.795338 -2.05312
-0.355223 -0.319695 -1.22268
1.81368 -0.799519 1.26139
-1.27007 -0.433094 1.96574
1.40642 0.487173 0.944348
-1.61366 0.668098 -0.699344
2.99076 -0.0360714 -2.09703
-0.720257 1.52476 -1.69292
0.754719 0.432016 -1.97728
0.659804 0.127146 1.16908
0.751105 -0.588286 0.111415
-1.23166 -0.498756 2.6157
-0.158402 0.0357911 0.00434209
1.62847 0.762922 0.314708
0 0 0
0 0 0
1.16568 -0.103323 -0.581113
-0.0895165 1.10179 0.864239
0.0734057 -1.54231 0.86809
0.511958 1.48222 -2.54549
-0.405622 -1.22656 -0.397849
-1.42683 0.339825 0.0946042
-0.991804 -1.79494 1.53469
0.56156 2.05954 -0.97456
1.11204 -0.879798 0.770812
0.851538 0.204633 -3.96967
0.249167 0.143135 -2.18701
1.09096 0.380908 -2.00924
0.886399 0.469657 -4.58098
0.166605 -0.282518 -4.90018
-0.210366 1.19765 -2.23997
-0.682056 -0.856233 -2.39597
0.261861 0.923721 -2.78168
-0.410863 -1.13522 -2.44693
-0.422029 1.23004 -1.66893
-0.505937 -2.13617 0.147314
-0.579264 0.128429 -0.647747
-0.180094 -1.55704 1.09241
0.62681 0.795133 -0.562971
0.258875 -1.34306 -0.805129
-0.497954 0.101982 1.04622
-2.12959 0.196904 -1.44623
-1.99927 -0.714057 -0.378341
-1.75063 1.36528 -1.41159
-2.01935 0.451399 -1.98063
-1.42004 -1.85628 0.541756
-2.32228 -0.208177 0.054219
-0.508919 -0.575252 -0.562699
-1.0722 0.339826 -2.21317
-1.55286 0.289436 0.0884856
-2.80967 -0.0949632 -1.77247
-2.36403 -1.5252 -1.36875
-0.988838 1.12812 0.848224
-1.78864 0.176481 -3.83144
-1.45483 1.15834 -1.26031
-1.07187 -0.411696 -1.30171
-1.13834 -0.239855 2.29809
-1.40828 0.795542 -0.400438
-1.41839 -0.941588 1.90763
-1.09599 0.838611 -1.40653
-1.05171 -2.0843 2.01667
0.116551 0.880784 1.5394
0.389909 -0.958542 -1.0373
-0.52998 0.392372 0.521319
0.444565 0.894195 -1.22617
0 0 0
0 0 0
0.651975 -0.0406414 0.478411
0.143585 -1.86748 -1.30766
-0.245059 -2.91615 -0.795568
-0.0368208 -0.846079 -0.147138
-0.171022 -1.51128 -3.00698
0.0101754 0.300223 0.651769
-1.22516 1.10714 0.49668
0.353152 1.15518 3.28863
-0.29442 -0.37481 2.54437
0.730998 0.30917 2.19726
-0.091993 1.08476 0.000428403
-0.368135 -0.687403 1.94708
-0.197391 0.157885 0.836153
-1.04351 -0.389812 0.174911
0.139001 0.408487 -1.73628
-1.62363 -1.63185 -1.26656
0.184637 -0.506337 -2.18893
-0.20289 -1.17733 -0.956317
-0.719283 -0.865314 -1.31685
1.37596 -0.424898 1.6437
-0.88429 0.144794 0.272428
1.69886 -0.548096 3.03338
-1.19098 0.391204 -1.75261
1.78442 1.47973 0.819016
-0.860243 1.30914 -2.91826
1.37361 0.819824 2.75939
0.986717 0.989957 -0.541729
-0.377971 0.437049 1.57869
-0.114857 -0.607709 -1.04706
1.78082 -0.358993 -0.426207
-0.569794 0.808734 -0.17731
-0.012231 0.331258 -1.05155
-0.234657 0.496446 -0.0429301
0.0993142 1.45779 0.709989
0.2222 0.16346 0.612456
0.347216 0.617098 -0.931822
0.540887 1.33497 -1.36335
-0.556281 -0.340875 -0.614119
1.01867 -1.10514 1.02367
-0.701941 -0.762452 3.5985
1.30034 -0.889055 2.91818
-1.60108 -1.33235 0.181593
2.54253 0.510921 -0.564043
-0.806845 -0.438647 -0.230847
-0.57311 0.011682 -1.87812
-0.888345 1.15553 -0.603828
-0.163577 0.220581 -2.03983
0.125214 1.26634 -0.240194
-0.677363 1.53345 -1.41706
0.048608 -1.12451 -0.130677
-0.393451 1.94219 -1.56449
0 0 0
0 0 0
0.23988 -0.603516 1.78114
-0.404381 1.4195 3.10512
-0.794553 -0.565742 2.1375
-0.18419 1.18955 1.93106
0.245207 -0.912642 3.28526
0.511397 1.6215 1.05594
0.545156 -1.22184 1.36394
1.26858 1.63577 -0.691526
-0.199113 -1.16585 3.24508
0.613388 0.326095 2.9189
-1.03711 0.247295 3.8281
-1.4062 0.45792 3.47854
-0.26577 1.01313 2.91835
-0.645326 0.714204 3.23342
-0.0545842 0.0601846 3.70268
0.763241 -0.244465 1.92259
-0.800964 0.973631 3.28212
-0.120559 0.059613 2.24356
0.519592 1.35728 5.31181
0.782831 -2.20019 3.58818
0.236676 0.941711 1.75578
-0.77686 -2.80906 1.07021
-1.86407 0.910681 0.00998259
-0.183008 -0.525182 -0.242271
1.43946 1.15443 1.49957
1.77685 0.0017897 -2.22774
2.01847 -0.963405 0.602868
2.40456 0.640809 -1.77292
1.3069 -0.477672 1.61476
2.07162 -0.716527 0.646552
0.262367 0.925582 2.94462
1.39586 -0.87437 1.3258
0.683561 2.27149 -0.847393
1.00698 -0.531099 -0.753543
0.750448 0.207372 0.428628
1.44887 -2.05259 1.45234
1.2121 0.610089 2.94125
1.4619 -1.07487 -1.77801
2.42908 -0.111057 -0.896951
1.1453 0.541005 -0.101448
-0.01259 -0.00807839 0.463995
0.859096 0.189697 -0.933761
1.26938 -0.370581 -0.277222
1.14266 0.640766 -3.09629
-1.01872 -1.65787 0.784255
-1.02718 1.94676 -1.25697
-0.0808732 -0.475685 -1.878
-1.53441 0.176376 -2.47636
0.505393 0.321402 -2.79719
-0.607953 -0.565766 -2.98328
0 0 0
0 0 0
-1.01233 0.23347 -0.671384
0.671064 -0.0233694 -0.965551
-0.103171 -0.0213771 -1.27279
-0.814515 1.25975 -2.15561
0.839126 0.362374 -0.655001
0.132426 -0.499567 -1.2247
0.309175 -0.72278 -0.305985
0.301536 -1.49931 0.317753
-0.330349 -0.947453 0.210357
0.14347 -0.857478 -0.366711
1.0597 -1.1859 0.427963
-1.3672 -0.12284 0.229306
-0.104917 -0.225193 0.0360704
-0.535238 0.65019 0.617329
0.484879 -0.33861 -1.81006
-0.800693 0.870986 -1.17243
0.461148 1.04039 -3.35338
-0.735658 1.42244 2.32941
-0.257523 1.3118 -0.992737
-0.387851 -0.0541214 0.301232
0.463611 -0.0595071 -1.08905
1.07685 -0.61764 0.2142
-0.776821 -1.09298 -1.31027
1.83773 -1.04021 0.419161
-0.814478 -2.44 -0.927315
-0.240773 -0.708524 2.64728
-0.384358 -0.448732 1.24783
0.641949 0.991131 2.43875
-1.24995 0.905386 -0.59507
0.836562 0.460698 0.0567996
-0.606313 0.291705 -1.98288
-0.0626452 1.05203 0.0885558
0.482112 -0.865181 -0.882758
1.42744 -1.25798 1.85752
1.5766 -0.779034 0.828142
-0.358715 -0.913573 0.0561471
0.901367 -0.844331 -2.57704
-0.865671 0.0878827 -1.65839
1.53632 0.118861 -0.721294
-1.06312 -0.358257 1.19118
1.52242 0.0542732 -0.432425
-2.74536 1.18635 0.133053
2.59791 -0.089319 -1.3227
-0.324624 -0.143609 0.164538
1.30287 0.307956 -0.87628
-2.17254 0.208461 2.61073
-0.246521 -0.562078 -0.280975
-0.497158 -1.43935 2.62863
1.22189 -2.14738 0.59435
0.924572 -1.59513 0.917043
-2.03552 1.32024 -4.54599
-0.645923 -1.86074 -1.14119
0 0 0
0 0 0
-1.00308 -0.81636 -0.72586
0.773922 0.421924 1.66313
0.30536 -1.8438 1.0949
-1.03843 1.32651 -1.35955
0.0675967 -0.0444588 -1.41541
0.370909 1.52135 -0.0315626
1.16878 -0.959623 -1.52464
1.09251 1.0748 -0.87531
1.37288 -0.969461 -0.213599
1.1552 0.517432 0.202891
1.61154 0.487186 0.64772
1.61075 -0.0918547 3.30175
0.751237 -0.361944 -2.08658
1.26812 -0.372456 -0.148582
0.693171 -0.264358 1.15375
1.22938 1.13896 3.47838
1.29855 0.492955 0.897596
1.01905 -1.33758 1.08738
0.755573 1.26101 -1.25377
0.422424 -2.28057 1.87114
0.163946 1.87073 -0.678368
0.78317 -1.85094 1.78865
0.842436 0.0438524 -2.39341
0.644517 0.462124 -1.3406
-1.03125 -1.54455 -0.842589
-0.474685 1.38937 -0.310866
-1.09099 -0.186018 -0.606683
-0.985885 0.18276 0.308345
-1.07926 -0.0677338 -1.84703
-0.804232 -0.577624 3.0343
0.245593 2.20947 0.912456
-0.34067 -1.92482 2.50923
-0.50575 1.24986 -1.42198
-0.55514 -0.372302 0.891891
-1.15564 0.645049 -2.82023
-1.41617 -0.398812 -0.0600595
-1.51058 1.16288 1.0031
-0.782845 0.163195 -0.760628
-0.222751 -0.0849098 -0.386059
-0.845268 0.0590455 -0.792889
-1.05259 -0.904622 -0.385082
-0.372538 1.88684 -2.13191
0.780553 -1.28307 -1.11564
0.338131 1.75203 -5.0693
1.73122 -1.09295 -0.511858
0.941148 1.77064 -2.75618
1.06096 -2.105 -2.85754
-0.18072 0.558812 -2.73376
0.327919 1.10885 -1.06381
1.65265 -0.99641 -1.75141
1.42752 -0.330387 -0.627572
0 0 0
0 0 0
-0.479384 0.207711 0.343268
0.471258 0.243553 -1.04196
0.0873919 0.281185 -0.563619
1.12485 1.13325 1.22079
-1.00198 -1.38743 -1.63071
2.14674 -1.04313 2.02981
-0.714174 0.159841 -0.00860567
0.913629 0.987023 2.39714
0.376781 1.38435 1.38384
0.00433485 0.789351 1.73608
-0.106355 -0.294382 0.35257
-1.48581 -1.26684 1.19291
0.0948914 0.237402 1.91148
-0.764983 -1.11096 0.953079
0.994255 -0.962216 0.93886
-0.988786 -2.36381 0.708073
1.13131 -1.42526 0.452739
-1.10633 -1.21326 -0.183611
0.112922 -1.54525 -0.769426
-1.03792 -0.50986 -0.387666
0.867222 0.233824 -1.00124
0.542944 0.552428 0.931084
-0.280382 1.18907 -0.602939
1.01264 1.66001 0.826096
0.0243504 1.75513 -1.63299
2.09497 0.79442 1.85869
-1.65581 1.27115 0.823616
1.81478 0.264811 2.67401
-1.82636 -0.453849 1.65331
-0.0312235 -0.517062 0.0972611
0.334389 -0.49903 0.395046
0.0542246 -0.213659 -1.48916
-0.671578 2.21533 0.000641115
-0.108449 1.01104 0.939392
-0.539086 1.32108 0.444198
-1.71944 0.65366 0.552561
1.997 -0.45763 -0.0734035
-2.11546 0.100882 -0.148881
1.21256 -0.678668 -0.799796
-1.72999 -0.253209 0.0569539
0.883236 -1.10797 0.880163
-0.905797 -0.0511769 0.837368
0.82751 0.854433 1.89033
-1.85702 -1.11216 1.1435
1.30954 -0.227087 -0.0039144
-2.44776 0.263233 0.258606
1.06481 1.25426 -0.0649957
-1.30245 2.46783 0.341783
-0.468065 2.29175 0.247657
1.5622 1.81684 0.714472
-1.21582 1.56534 -1.97817
1.43201 -0.145086 -0.159673
2.38407 1.52449 2.09313
0 0 0
0 0 0
0.63509 -1.36512 1.31337
1.84907 0.782482 2.14068
0.616108 -0.79814 0.216305
0.63393 1.06145 -0.639726
0.157117 -2.02135 0.168773
-0.234377 1.81588 -0.478948
-1.12255 -2.60098 -0.516042
-1.61665 1.73047 -0.642223
-1.44968 -1.15272 0.294995
-0.747705 0.374751 1.98967
-2.29476 -0.797064 0.726578
-1.27371 0.653258 3.76003
-2.82157 0.443518 0.99123
-2.0793 -0.409956 3.87156
-1.52798 -2.42141 1.77236
-1.35062 0.36951 1.81567
-1.47858 -0.377201 0.994358
-1.60034 -0.41235 -1.183
-1.19039 -1.55125 0.926328
-0.290029 0.0222543 0.902149
-1.09891 0.313502 0.749071
-0.680256 -0.95837 1.71293
0.425767 0.139954 0.864758
-1.39928 0.45875 1.52988
-0.856339 -1.44815 2.95721
0.894009 1.46101 0.751832
0.728476 -1.57086 2.50673
0.549407 1.27439 -0.301205
1.59406 -1.4285 0.929016
-0.316712 -0.0210716 -1.13347
-0.456899 0.945594 0.127543
0.329867 -1.20804 -0.0523885
0.752846 -0.79702 -1.84901
0.264919 -0.243347 -2.5726
0.621161 0.908677 -2.35567
-0.133163 -0.370311 -1.53866
-0.455025 1.19827 0.789233
-0.32059 0.671715 -0.474856
0.691146 -0.0873748 1.86995
1.34297 0.720081 1.59742
0.196962 -1.58186 -0.292328
-1.21179 2.01679 -1.44352
-1.26142 -0.779241 -2.10026
-0.373118 1.57648 -4.17871
-1.37041 -0.992453 -0.821027
-1.13699 1.86996 -2.43123
-1.66817 -1.89789 -1.71706
-1.05404 -0.363894 -0.590241
-1.4469 0.187811 0.910915
-2.82582 0.10087 1.02854
-1.00728 0.912275 -1.54403
-1.14573 -0.515594 -0.620749
0 0 0
0 0 0
-0.0760834 0.335797 -0.0782209
1.04516 0.808659 0.487079
-1.24336 0.124589 0.303602
2.2355 -0.590725 -0.908268
-1.23661 -0.201726 0.967873
1.05863 -0.672793 -1.44437
-1.05936 -0.517583 -0.539232
-0.756941 -0.430841 -2.50114
-0.522959 -2.04727 -1.25081
-0.260058 -2.3907 -2.10653
0.506815 -0.609249 0.620873
-0.636821 -0.910002 -1.14368
1.26613 -0.0124441 0.619273
-0.635509 1.57267 0.243861
0.250939 0.746464 1.27192
-0.00650016 2.24354 0.287008
1.76559 1.87786 -0.261044
-1.16109 1.21225 2.21461
1.18992 1.03809 -0.29291
0.636225 1.00171 -1.45792
0.195777 0.647628 -2.28404
-1.43913 0.618498 -1.34342
0.497185 0.103072 -0.55314
-0.257537 -0.425656 0.573038
-1.25664 -2.53588 -0.534942
1.12992 -0.963362 -0.0832227
-0.92476 -1.85891 -0.491756
1.0928 -0.858968 1.0413
-1.06429 1.05171 0.497338
0.535206 1.00298 0.897043
-0.274244 0.504893 -0.227489
-0.933068 -0.70883 0.465081
0.680174 -1.06958 -0.513105
0.224379 -0.287707 0.454153
0.541549 -1.81579 -0.0353807
-1.73528 0.478205 -0.0827221
1.96178 0.13193 0.08024
-2.31548 -0.395792 -1.08327
1.87855 1.07192 -2.44924
-1.186 1.26259 -3.86537
0.662279 1.04116 -4.72936
0.00133879 1.12608 -2.09727
0.74967 0.224544 -1.5213
-1.65642 0.103071 -0.601901
1.95934 0.38194 -1.07793
-0.571732 -0.212783 0.941177
1.29136 -0.937492 -1.64596
1.27915 -1.89296 0.394354
0.0154496 -1.99119 -0.142812
0.866907 -1.58671 0.503969
-1.08512 -1.8962 0.234399
0.785188 -1.35442 0.199017
-0.587599 1.69125 -3.2873
-0.532284 -1.23675 -1.46118
0 0 0
0 0 0
-0.599663 -0.314239 -0.526031
-0.082131 0.459277 1.77374
-0.00783672 -0.926289 0.732046
-0.17057 -0.420676 -1.27552
0.866763 -1.19604 -1.37243
0.908474 1.7698 1.80408
1.03653 -1.70658 1.15429
1.2756 0.887879 1.38008
0.432751 -0.231664 -0.175168
1.63524 0.496043 -1.40205
1.40612 -1.20335 -0.0826766
1.87964 0.376378 2.36215
0.751809 -0.119647 -2.09245
1.04567 0.147558 -1.21555
0.709046 -0.134358 -1.39067
1.03555 -0.587729 0.644794
1.59918 -0.877872 -2.17086
1.87103 1.67438 -1.78281
1.72709 0.0273092 -3.62631
1.10183 0.382113 0.969395
0.890374 -0.979726 -0.675599
0.275363 1.00156 2.07476
0.832893 -0.159685 -2.30686
-0.759762 1.09097 -1.98958
-0.316151 -0.462762 -1.88688
0.248858 1.62193 -0.715778
-1.35542 -1.63421 -1.015
-1.0856 0.829557 -0.622714
-0.316274 0.265338 -3.73302
0.0277867 0.0963646 -0.0255713
-0.214757 -0.167049 -4.07751
-0.277297 -0.228791 -0.5194
-1.66603 -0.493451 -3.55117
0.305221 -0.044041 0.767041
-0.00547083 0.5639 -5.14089
-0.396272 -1.01592 -1.60437
-0.128503 -0.364986 -4.73992
0.230274 1.73823 -1.10853
-0.503288 0.0903541 -2.36894
-0.0941092 0.81368 0.937846
0.48259 -0.662058 -3.29461
0.647582 0.737038 -0.840122
1.57289 -1.08678 -3.85722
1.8599 1.43141 -3.88563
3.25093 -1.59687 -1.14931
1.36758 1.35913 -0.745224
2.77542 -0.0437578 -1.19756
2.16639 0.489827 -0.038031
1.56525 0.167161 1.95951
1.82476 -0.342162 2.0112
2.09804 0.598921 1.74537
1.83716 0.0787848 0.652244
0.418884 0.649263 0.629147
0 0 0
0 0 0
0.14111 -0.239601 0.887959
1.81712 -0.420443 0.700166
-0.735289 1.3974 0.0768586
1.30894 0.305845 1.32625
-1.68125 0.947168 -1.98714
2.78294 0.816523 1.25788
-1.10509 -0.790694 -1.24413
1.11683 0.84931 -0.118872
-1.52328 1.4251 -1.17532
-0.131424 0.34323 0.38359
0.39192 0.62249 0.475393
-1.52416 -0.169045 -0.0682898
0.99842 -1.54144 1.44186
-0.609385 -1.97923 -0.388073
-0.346582 -1.92826 2.81826
0.475333 -1.94094 1.74794
0.255037 -2.22772 2.9059
-1.1239 -1.72347 0.141357
0.598356 -0.682372 1.63328
-0.22946 -0.181163 -0.775466
0.767041 -0.219656 0.569266
-0.664236 1.72896 -0.711698
-0.347884 0.963294 1.43694
1.0003 -0.0139395 -0.0680057
-0.464597 1.12196 0.670344
1.78143 0.801175 -1.57696
-0.525558 0.729628 0.0479515
1.61396 0.911203 -0.616295
-0.478302 0.569862 2.89806
-0.264922 0.815012 0.078476
0.815832 0.237575 3.10097
0.507127 -0.666384 -1.36893
0.261617 1.57031 0.197977
0.724876 -0.735313 -1.29416
0.0126053 -1.17528 -1.49138
-0.656052 -0.58373 -0.32387
1.89916 -0.259843 1.94353
-2.14563 -1.11534 2.21844
1.18588 0.490206 1.57338
-1.05622 -1.17026 -1.35968
0.264434 -0.916471 0.0645035
-0.5171 0.0943026 -1.05452
1.21206 0.0921593 2.02947
-0.154702 0.500394 -0.547721
0.213099 1.11831 1.33113
0.862948 1.21815 -0.991749
-0.558911 1.18185 1.07427
0.257884 1.85989 -1.84867
-0.927022 1.20359 1.53701
-0.21009 1.44275 0.31569
-0.197249 1.42925 0.784028
-0.660901 1.45823 3.03995
-0.167697 1.43126 -0.537108
1.05927 -0.706699 -1.24471
-0.836736 0.397158 1.24846
0 0 0
0 0 0
0.476035 0.300959 0.0873794
0.846807 0.447838 -0.311217
-1.25547 -0.868755 -0.647126
-0.931066 -0.779112 -0.982283
-3.46144 -0.631394 1.00363
0.0109127 1.095 -0.184593
0.807805 -0.0953571 -1.03978
-0.724777 0.808215 -0.81517
-1.39519 -0.000843423 -1.34515
-1.30195 -0.641917 0.185
-1.17449 0.887493 -1.37008
-1.24832 -0.216791 1.04991
0.421783 0.534274 -1.78836
0.209171 -0.438257 0.684443
-0.707389 -0.528347 -2.04854
-1.89363 0.677149 -0.0839561
-1.21736 -0.842573 -0.388002
-1.57198 1.90563 0.286537
-1.74915 0.0723408 1.04759
-1.00974 1.88897 2.83823
-1.27219 -2.03085 -1.45853
-0.635691 1.66056 2.08475
-0.403028 -0.959304 -2.53803
-0.549365 -0.525835 1.89365
0.230793 -0.483753 -2.16054
-0.424982 -0.657482 -0.0106646
-0.719018 -0.0367837 -3.03029
1.28831 0.210974 -0.53309
0.591768 -0.579139 -2.98424
-0.204259 -1.03527 -0.984485
-0.567692 0.451009 -5.12089
-0.994023 -0.711693 -0.389151
0.810087 -1.10952 -5.43482
-0.069493 0.196104 -0.647159
1.27506 0.664834 -3.89814
0.93245 -0.443066 -0.332586
-0.350637 -0.467083 -3.88853
-1.02462 0.523026 -1.83648
-0.382727 0.175008 -1.65046
-0.113813 1.32071 0.468197
-0.319454 -1.89521 -1.79554
-0.876497 0.125436 -0.506569
-1.36808 0.0808849 -2.22495
-1.93744 -0.104818 -2.85313
-2.3075 -0.99776 0.213434
-2.50573 0.723631 0.121327
-1.75419 -1.25631 0.92365
-2.10469 0.463313 1.59801
-1.77645 0.217786 1.79149
-2.06347 1.32778 3.6785
-2.55067 -0.157513 -0.030236
-0.685409 0.673262 1.56343
-1.1086 0.459306 -2.91606
-0.230775 0.0744527 -0.316579
0 0 0
0 0 0
-0.0248464 0.532843 0.417429
0.345814 0.41699 1.19538
-0.669728 0.186831 0.0128571
0.88255 0.215215 -0.798868
-1.1189 0.0447298 0.704549
0.363979 -0.291809 -0.346109
-1.21359 -1.07466 0.814215
0.677677 -0.370373 -0.788061
0.103374 -0.919929 -1.46219
-1.88171 -0.499936 -0.752213
0.510152 0.210701 0.553755
-0.938938 0.586716 0.633103
-0.0234308 0.293447 -0.389027
0.0627255 0.681883 -0.343586
0.648178 2.18354 -0.294335
-0.369622 1.38292 0.188214
0.933318 1.31597 -1.38645
-0.963217 0.691262 1.9157
0.674721 1.60111 -0.564297
-0.372133 1.29701 0.0582782
1.17866 0.131172 -2.74429
0.859524 0.167841 -1.49314
-0.180993 -0.953422 -2.44239
0.355416 0.091518 -0.0238074
-0.700872 0.472111 -1.09328
2.14038 -0.499733 -0.0892184
-2.19008 -1.99293 -1.85253
1.7953 -1.31842 -0.0416814
0.070837 -1.00304 -0.927036
0.443509 -0.375695 1.40948
0.347097 0.114603 0.62847
0.119872 -1.10429 2.61977
-0.74262 -0.261566 0.553106
-0.677536 1.11846 1.32182
0.133651 0.325277 -1.04802
-1.55378 0.405319 -0.065799
1.66298 0.3386 0.633741
-0.74929 1.4536 1.47949
0.311011 0.00622801 0.139172
-0.707619 -0.181237 -0.413488
0.10678 0.0554484 -3.27784
1.29509 -0.0767289 -0.704737
-0.785252 -1.04957 -1.48516
-0.630958 -1.16565 1.00479
-0.0142852 -1.83414 1.16044
-0.693264 -2.02633 2.98111
0.518498 -3.05519 -0.02373
-0.198317 -3.05319 1.64954
-0.641716 -3.03212 1.35461
0.348805 -1.83699 1.53483
0.600917 -1.64156 1.88357
1.18078 0.470434 1.18148
-0.403591 -1.34531 1.35367
-0.669834 -0.840205 0.557536
0.45572 -0.212707 -2.0563
0.465204 -0.136961 2.02544
0 0 0
0 0 0
-0.312442 0.637551 -1.61581
0.723229 -0.273512 1.39154
0.84099 -0.789822 1.7383
0.328429 -0.32047 1.75558
1.09644 1.05781 0.18198
1.84745 -0.576993 1.94286
0.825681 -0.0874481 -0.736405
1.14902 -0.877858 1.27859
1.38274 1.1525 0.817743
1.45559 -1.0681 1.44116
1.20535 -0.505982 1.44315
1.00187 0.137935 2.53857
0.140593 -0.389929 -2.60753
1.40759 -0.209661 -1.75167
0.956037 -1.1248 -0.973183
1.01207 0.736272 0.594234
1.20135 -1.28802 -0.575936
0.869312 2.24941 -2.0321
1.63518 -2.75731 -1.97799
0.257986 2.76762 -0.98504
0.962679 -2.49941 -1.32553
0.301051 3.03268 -1.41365
-0.410586 -1.49794 -1.26028
-2.37426 1.291 -2.47029
-1.46412 -1.19558 0.943045
-1.64868 -0.0227459 -0.71662
-0.361488 -1.10666 1.76179
-0.533638 -0.59735 -0.59073
0.901454 0.326832 0.938612
0.419717 -1.28225 2.22918
-0.532337 0.589848 1.00031
-0.756752 -0.408357 0.297908
-0.203314 0.0580786 0.466853
-0.963898 -0.216708 -0.259738
-0.591541 -0.171472 -1.87551
-0.525718 0.266848 -2.52749
-0.834819 -0.00410176 -3.03972
0.8582 -0.25941 -3.11838
0.532573 0.587224 -1.10587
0.487674 1.4366 -1.71725
-0.310682 -2.01094 -1.6937
0.509679 -0.30155 -0.00154554
1.77776 0.55859 -1.11252
2.0258 -0.313775 -2.52854
1.77205 -0.59588 0.159698
2.17512 0.572284 -0.130273
3.69259 0.407468 -1.08288
4.20004 -0.33712 -1.96736
2.73609 1.35759 -0.898402
0.913271 -0.17768 -0.40985
0.116022 -0.560099 1.22004
0.330809 0.0530116 1.78381
0.315036 -0.768622 3.42866
0.26051 0.427604 1.01792
0.22193 -0.34535 0.463566
0 0 0
0 0 0
-0.919851 0.735124 0.83306
0.363279 -0.980365 0.77984
-1.95023 -1.14005 -0.63835
2.33765 -0.62076 2.02707
-2.13823 0.483226 -1.50736
1.27487 1.06208 3.10868
-0.90513 1.10167 -0.341491
0.643749 0.25784 2.52705
-0.598511 -0.129998 -1.91205
-1.01796 1.44884 1.97593
0.975039 0.531712 -0.555348
-2.08035 -0.598998 0.845387
0.559014 -0.932646 -0.718267
-0.634351 -0.827151 -1.03667
0.00800831 -2.29771 -0.317234
0.137866 -1.26986 0.689705
-0.726807 -1.0577 0.281312
-0.066212 -1.32904 0.746622
0.947216 -0.516909 1.98564
1.05615 0.461675 2.07466
-0.611327 0.958223 1.41959
0.474739 0.417595 -0.576273
-0.929126 0.903561 -0.61177
2.05463 0.532676 -1.506
-1.28909 -0.520863 0.341754
0.894351 -0.0294575 -0.991637
-1.54197 0.629343 0.137842
0.600371 0.554704 -1.45919
0.544063 1.13183 0.794867
-0.213385 0.909605 -0.977746
-0.0364638 0.747242 2.44635
-0.521805 -0.195766 -0.131134
0.763218 -1.0369 1.58039
0.209224 -0.394418 0.478207
0.636864 -1.30054 -0.891625
-0.00268776 -0.543343 -0.961032
0.76828 -1.00801 0.568456
-0.43425 -0.416828 0.788899
0.484918 -1.60282 2.76884
0.341135 -1.27681 -0.468029
-0.265705 -0.8909 3.01805
1.79286 -0.405485 -2.07336
0.747749 -0.439958 1.51174
-0.447323 0.983579 -4.17489
1.57836 1.96322 1.51373
-1.69671 1.09082 -3.4551
1.14262 1.95145 2.27181
-0.87504 3.12137 -3.49823
0.245706 3.00965 3.43768
1.36168 3.62281 -1.24423
-0.956066 2.94173 2.31328
0.133607 1.13684 1.40104
0.0332492 1.01286 2.73909
0.157856 0.0436323 2.21695
0.843311 -0.0254498 1.83326
-0.433344 0.837617 -1.39357
-0.992451 -0.15091 -0.40105
0 0 0
0 0 0
-0.0743963 0.805026 -0.417313
-0.490693 -0.791356 -1.07155
-0.508809 0.701695 -0.407682
-1.58324 -1.56023 -0.713631
-0.731031 0.74853 0.904041
-2.05899 -1.07964 -2.41981
-1.19272 1.00369 -1.65767
-0.616699 -0.876929 -2.23382
-1.86244 0.50245 0.804685
-1.79798 -0.990036 0.091683
-0.808466 -0.871853 0.0578317
-1.82599 -0.318181 -1.01386
-0.853517 0.706022 -1.54719
-0.377456 -1.11611 0.0645051
0.208678 0.267798 -0.408374
-0.853367 1.05497 0.161977
0.53407 -1.87677 -0.481362
-2.3372 1.44003 -2.66914
-0.492677 -1.15743 0.366514
-1.66235 0.471962 0.571551
-0.869484 -1.07917 -0.334983
0.658342 0.97796 0.464247
0.904864 -1.76599 0.647453
1.94455 1.59778 2.19749
0.987429 -1.46396 3.06899
-0.311613 0.777989 0.015535
-0.659548 -0.156005 1.0695
-1.28615 0.638671 -2.02884
-0.994178 0.0804226 1.82732
-2.03345 -0.798976 -1.40902
0.299058 0.0815135 0.343949
0.136153 0.462101 -0.675665
-0.322415 -0.494725 -0.761697
-0.268358 0.55438 -1.44952
0.442729 -0.272293 -0.473326
-0.815362 -0.434779 -1.21837
-0.337309 -0.226187 -2.2571
0.45118 -0.522467 -2.90957
-0.742103 -0.908111 -0.408441
-0.699809 -0.463002 -1.63204
-0.85437 -0.158227 -1.33659
-0.0416471 -0.796938 -1.73464
-0.88061 -0.542442 -1.9086
-2.54292 -0.948629 -3.31387
-2.6882 1.16139 0.540637
-3.28281 0.273989 -1.67859
-1.87468 1.86651 0.53126
-3.05243 -0.74278 -2.21891
-3.64984 -0.19477 -0.795636
-1.95881 0.1052 -1.05815
-0.474706 -0.392399 -2.27791
0.0864852 1.3622 -0.759666
0.37645 -0.734148 -0.533844
0.629869 1.62674 2.01088
0.606786 -1.63133 -0.716779
0.246132 1.17287 0.616641
0 0 0
0 0 0
0.398254 0.436546 0.134089
1.42934 -0.313308 0.318508
-1.84223 0.716295 -0.814726
1.21661 0.539964 -0.0439869
-2.25367 0.259665 1.14246
2.19685 -0.261118 0.104454
-2.00306 -0.473545 1.06525
1.04368 0.480226 0.22052
-0.172428 0.852364 -1.45599
-0.213251 -0.09303 -0.0317522
1.17579 -0.0558774 -0.221482
-0.989407 0.0788312 1.76966
0.834217 0.00607007 0.307949
-1.00563 1.3008 0.387839
-0.874129 0.085154 -0.134142
-0.190014 -0.649565 -0.251652
-0.849361 0.241702 -0.797387
-0.804513 1.42581 1.52124
0.691374 1.49312 1.51232
0.229521 1.16513 2.00808
-0.466612 0.567601 0.242847
1.1452 -0.624594 -1.20104
0.431199 0.191791 -2.37195
2.47425 -0.786201 -1.82403
-0.187044 0.480608 0.203177
1.12282 0.0133732 1.26305
0.0032301 0.271385 0.993608
0.461854 -0.739512 0.671509
-0.423686 -0.837952 -0.803832
0.454644 0.547563 0.277187
-0.704475 0.127131 0.609978
0.43187 1.69157 2.445
-0.476432 0.660587 2.0176
-1.56756 1.27208 2.05819
1.62338 0.247262 1.03799
-0.711008 0.132526 0.792382
-0.214203 0.515803 1.51675
0.378553 0.0523233 1.02668
-0.131615 1.68519 1.23666
0.459354 0.844681 2.36484
-1.50903 -0.928128 0.62955
2.1325 -0.956214 2.82457
-0.0735283 -1.36717 -0.036426
-0.471967 -1.63175 1.61316
2.02164 -1.31432 -0.0842015
-0.0434202 -2.37376 1.55214
2.06833 -2.50029 -1.07404
-1.17937 -3.79358 1.31459
-0.21153 -2.97593 -0.222542
-0.999218 -4.24479 -0.742301
-1.32727 -2.87479 -1.92312
-0.0176495 -2.47316 -2.29749
0.318511 0.386042 -1.68638
-0.0682532 0.938309 0.0581989
-0.163002 0.484607 1.49574
-1.24918 1.01104 0.353811
0.986356 -1.30778 -0.433341
0.790117 0.620124 0.433806
0 0 0
0 0 0
-0.79767 -0.208219 -1.34072
-0.079281 -0.0125829 0.824313
0.0252924 1.05169 1.12499
1.06244 -1.60092 0.395329
0.537589 1.87187 -0.967762
1.26351 -1.48524 1.95537
1.31933 1.71176 0.693656
1.38805 -2.1875 2.20225
1.93884 1.62402 1.15086
1.75832 -1.39058 -0.296627
0.464539 0.366605 0.909776
1.38446 -0.432094 2.73542
0.758021 0.492998 0.685854
0.427035 0.249081 2.35875
0.32671 0.520598 2.8437
0.612827 0.676492 4.25851
0.247211 -0.492582 0.397749
0.0190951 1.28195 -0.746072
0.823758 -0.984217 -2.3285
0.400751 0.0727253 2.25309
0.799644 -0.58523 -1.03689
1.18316 -0.43892 0.959807
0.149284 0.561723 -3.79485
-0.723622 0.0884682 -2.80803
-0.522444 0.794866 -3.36921
-0.576704 1.58115 -2.26626
1.16715 -2.04456 -4.08734
2.28058 1.22543 -3.29349
1.14353 -2.77074 -4.19435
1.48933 0.194058 1.23991
0.31685 -1.65616 -2.87047
0.0272741 0.365746 0.56942
-0.850182 -1.41542 -1.12508
-0.481161 0.693824 1.58648
-0.424992 0.11909 -2.31167
-0.0504774 -0.519372 -0.455251
0.383265 0.0671731 -3.8256
-0.241971 0.0631406 -0.322375
-0.280724 0.456319 1.00524
0.0569101 -0.778531 1.813
0.226741 0.544729 0.613562
-0.102962 -0.459806 1.53811
0.853361 -0.236699 -1.86778
2.33608 -0.0574866 -3.06416
1.72016 0.446433 -0.892297
2.73032 -0.357263 -1.03679
2.81288 -0.453852 -1.83782
3.72487 -1.06591 -2.5149
2.71198 0.198569 -1.32131
1.08096 -0.611369 -0.77223
0.941762 -1.21283 -1.05889
1.00127 0.731062 -0.543175
-0.680477 -1.28203 2.33314
-1.1496 1.68525 2.00819
0.45863 -2.17827 1.85796
-1.3839 1.90773 -0.763936
-1.8354 -1.74899 -1.26311
0 0 0
0 0 0
-0.829488 -0.0217052 0.647366
1.522 -0.543545 0.825253
-2.22725 0.188317 0.43853
2.15991 0.311087 3.10477
-2.17851 0.105016 0.426332
1.30895 1.03685 1.93436
-1.33855 1.01638 -0.73936
1.1032 0.87679 0.960742
-0.95843 0.697283 -1.5498
-0.652228 0.389298 1.55286
0.57811 0.244662 -0.379711
-0.563235 0.94121 -0.0886106
0.378535 0.0874541 -0.279479
-0.0143221 -0.67458 -0.995196
-1.16648 0.301757 0.130252
0.655064 -0.190898 -0.0264555
-0.436227 -0.860994 -0.00797884
0.276998 -0.254871 -0.00236499
0.362284 -1.09392 1.8046
-0.306455 0.28996 2.63343
-0.454498 0.374927 2.72381
-0.126933 1.98692 0.701775
-0.551746 1.68845 -0.336825
-0.237835 -0.566092 -1.44083
-2.03541 -0.315038 1.08253
0.691623 -0.215653 0.657253
-1.46408 -0.383086 1.78467
1.15552 -0.0200003 0.266029
-0.538612 0.034225 0.167447
1.21456 -0.974092 -1.43875
-1.1383 0.609006 -0.689042
0.0978971 -0.785754 -1.83832
1.1235 0.582385 -2.39763
-0.320186 -0.200941 -0.287177
0.678208 0.290598 -2.84101
-0.551019 -0.820938 0.0775527
-0.863768 -1.94141 -1.93507
1.04107 -1.00715 0.270947
0.905734 -0.932968 -1.26822
-0.222029 -0.0956243 -1.15156
0.585368 0.54511 1.26834
-0.20716 -0.0013434 0.390546
0.314397 0.322307 1.51679
-0.725943 1.13412 -2.27328
0.657404 1.88086 -0.118435
-0.501779 1.48534 -3.93124
2.12715 2.29629 0.0487622
-0.469407 2.51681 -3.72177
0.34723 2.34851 0.210077
-0.133981 3.91986 -3.56464
-0.769638 2.43208 -2.54718
0.263679 1.94078 -2.57897
0.347742 0.599151 -3.0063
-1.13345 -0.337333 -0.570011
0.058626 -2.01939 -2.1344
-0.513129 -1.18681 1.3437
0.343057 -2.70216 -2.03068
-2.42553 1.30511 0.789818
-1.14189 -2.62572 1.09752
0 0 0
0 0 0
0.22584 -0.42503 0.758255
0.0234501 0.211674 1.36721
0.719368 -1.79381 1.23336
-0.115038 -0.304675 0.416766
-0.783386 2.05893 2.29615
-0.813139 -3.16622 0.724911
-2.72146 0.913127 2.72869
-1.18069 -2.06782 0.307553
-2.80291 0.00704306 1.59446
-1.69702 -1.59352 -0.846774
-1.83098 1.67729 -0.0248409
-1.82547 -1.42306 0.638635
-0.781791 0.106837 1.97762
0.363857 -0.313153 1.79219
1.03417 0.882654 0.905448
-1.00962 -0.112899 1.24086
-0.328894 -1.24744 1.23258
-0.00125257 1.35554 -0.297196
-0.92264 -0.916664 1.7971
0.229006 -0.54624 2.4327
0.19496 0.327492 -0.0704365
1.76035 0.494911 1.5707
0.48674 -0.566332 -0.59475
-0.0404544 2.37827 2.61111
0.192424 -0.321194 1.92485
-0.456786 1.15088 1.99907
-1.80513 -0.942147 1.12633
-2.42094 0.464104 -0.302919
-1.89303 -0.351027 0.945936
-0.211636 0.607842 -1.16178
0.369606 -0.264081 -1.32492
0.424228 0.299154 -1.21996
0.349564 0.338884 -2.91616
0.0298219 0.267612 -1.89757
-0.638215 1.22145 -1.8234
-0.590141 -0.638856 -0.847606
0.891703 0.488881 -3.88013
-0.784428 -0.235571 -3.64879
-0.432765 0.395537 -2.52028
-0.00262671 -0.00470023 -2.86508
-0.129943 0.174505 -1.80901
-0.112436 -0.238826 -1.45112
-0.164091 -0.474681 -2.83262
-1.21088 -0.105684 -2.70643
-0.715527 0.598794 -0.113648
-1.92741 -0.118676 -0.199378
-2.31102 0.726724 0.723659
-2.9722 -1.86588 -0.149867
-3.99891 0.307776 -1.13279
-2.8886 -0.217153 0.829947
-1.80213 0.00644006 -3.18352
0.621429 0.404027 -3.12044
1.18059 -0.977962 -3.06675
1.33433 0.921509 0.455725
0.88351 -1.14728 0.342909
0.242489 0.352073 3.27085
2.71605 -0.97582 1.54985
2.89166 0.46123 2.41978
0 0 0
0 0 0
-0.778568 -0.467699 0.122689
1.31366 0.923665 0.683706
-2.03103 0.0495344 -0.316028
1.82177 0.492616 0.524432
-3.45135 0.62441 0.455146
3.55966 -0.467408 -1.66054
-2.57083 -1.20118 -0.850558
1.30211 -0.187967 -1.2969
-0.385845 -0.680245 -1.40987
0.212924 -0.159307 0.206992
-1.10633 -0.422245 -0.310112
0.722424 -1.2744 1.73666
-0.629209 -0.423091 0.520962
0.744168 -1.26884 0.801026
-0.677856 0.56168 0.794856
0.792203 0.256133 0.518195
-0.235126 -0.0570497 0.540561
0.190307 1.30639 0.289193
-0.252388 0.841426 1.10644
-0.1896 0.926663 1.83457
-0.506639 0.227322 2.32498
0.357314 -1.28053 0.992116
1.15416 -1.80036 0.07378
0.85878 -1.85729 -2.17433
-0.504944 -0.0254017 0.26616
-0.316981 -0.138434 0.32879
-0.933689 1.30721 1.25251
0.300814 0.542987 0.354949
-1.33284 0.116126 -0.588345
1.99899 0.971779 -0.929139
-2.04433 1.29061 -0.587794
0.955906 1.17843 -0.426199
0.511078 0.378915 -0.267334
-1.03746 -0.561522 -0.475278
0.354677 -0.0485981 1.22619
-1.1129 2.0858 1.27689
-0.200187 1.40052 2.64158
-1.09624 1.91058 -0.233917
-0.0362735 0.714342 -0.846655
-0.000419481 0.970497 -1.47422
-0.0121968 0.276824 -1.76905
0.152096 -1.04489 1.22845
-1.33147 -0.242538 0.712708
1.42502 -0.967059 1.90086
-0.830208 -1.34257 -0.0748142
0.398421 -1.2252 -0.680272
0.37937 -0.887354 -1.10407
-1.63328 -2.55549 0.153536
0.428403 -2.05356 -0.0503633
-0.623244 -2.11139 -1.19547
-0.267344 -1.48229 -0.561291
1.21362 -0.567757 -1.91082
0.26325 -0.249183 -2.39415
-0.197689 -0.186068 -2.11725
1.2337 1.2225 -0.940146
-0.291782 1.55937 0.265984
-0.123494 1.34595 1.33024
-1.10631 2.44857 1.99395
1.12513 -1.08473 -1.62738
-0.104505 1.54094 2.21118
0 0 0
0 0 0
-0.888464 -1.09453 -0.304569
-2.41558 -0.0725591 1.97015
-0.174838 0.240837 2.73365
0.458722 0.153269 0.181005
1.65989 1.8035 -2.88029
2.90844 -2.43291 0.45403
2.37638 1.30168 -0.704493
2.06724 -2.23875 1.54402
0.597484 2.10861 0.512911
1.41464 -1.3987 -1.17244
0.636689 1.02906 -1.22237
0.0247876 -0.37966 1.73416
0.442986 1.12706 -0.0411395
-0.134792 -1.27216 0.509774
-0.974769 0.132284 0.933899
-0.0812902 0.59753 3.7372
-1.03364 -1.77661 3.82385
0.239547 0.789443 2.93569
-0.21291 -0.128011 1.61968
-0.379379 1.20497 1.83522
-0.844947 0.334459 -0.401222
0.498132 0.317965 0.43116
-0.147748 0.162079 -1.49726
0.82587 0.510106 -2.51236
0.140116 -0.0093571 0.336491
0.753401 0.628245 -0.265354
0.799559 -0.318868 1.51677
1.42062 1.1941 -1.24008
1.53258 -0.414557 0.240307
0.312459 0.0620262 2.13181
0.834813 1.46135 0.569035
0.558441 -1.4476 0.354179
0.529955 -0.588718 0.0683455
1.01062 -0.068011 -2.02096
1.02267 0.384465 -3.46149
1.09627 -0.393034 -3.31225
-0.917707 0.927306 -3.48411
0.409801 -0.123251 -2.43279
1.22523 1.57325 -0.60219
0.136808 -0.531961 -2.73828
0.794083 1.58977 -1.4974
0.1358 -1.05359 0.226428
0.245787 0.0252679 -2.06853
0.618962 0.460737 -3.51995
2.39442 -0.892879 -2.67475
2.15484 -1.46452 -1.23124
2.04126 1.3893 -1.46576
4.3036 -0.963632 -0.298165
2.69035 -0.630307 -0.484496
1.99714 -0.922076 0.59854
1.3309 -0.960427 0.601797
-0.302844 0.015158 -0.949235
-2.10322 -0.0794137 0.928952
-1.24216 0.743867 -1.53841
0.405473 -0.579753 1.20672
-0.561276 0.423956 -0.987723
-0.927225 -1.64248 -0.201556
-1.68594 1.93337 0.78187
-1.03899 -0.78989 -0.105426
0 0 0
0 0 0
0.0917981 0.34976 0.726349
1.02893 -0.231703 1.47695
-1.94723 0.761705 1.26691
1.65001 0.301421 2.10799
-1.48115 0.603521 -0.344685
2.51308 1.18623 -1.10412
-1.67928 0.280103 -2.4841
2.57792 1.21903 -1.03434
-1.82779 1.54214 -1.1739
1.26942 0.168448 1.98716
-1.94724 0.904454 0.522142
1.49426 2.2072 -0.151937
-1.91879 2.02033 -1.06024
1.41714 0.700612 -0.990557
-1.39856 -0.133021 -0.360013
-1.03136 -0.0284312 -0.0288799
0.381109 -0.923761 -0.539557
0.795589 -0.143441 -1.66308
0.522789 -0.584432 -1.75088
-0.461365 -0.671039 -0.347622
0.546142 -0.578339 0.54857
-1.36131 0.206926 0.795878
1.08422 1.58646 0.0763515
-0.863038 1.09905 -1.90123
-0.727038 0.298958 -0.315869
1.02576 -0.620945 -1.56078
-1.1215 -0.0669792 0.874802
0.478481 0.322059 -0.607685
-2.19261 -0.378584 1.45338
0.74396 -0.18499 -1.23167
-1.13912 0.0600266 0.376527
1.11498 0.48009 -2.07687
-0.538334 -0.687655 -1.76617
-0.724955 -0.454387 -0.0706637
0.45258 0.730536 -1.01884
0.5226 -1.56638 1.54168
0.47965 -0.958177 -0.123784
-0.0685974 -1.9035 1.3474
0.667825 -1.11546 -1.3337
-1.76106 -0.967663 -2.28554
1.72022 -0.370929 -0.934402
0.0528971 0.429347 -1.15906
0.586119 -0.0968694 0.793792
2.35292 -0.68904 -1.99074
-0.0531278 0.371782 0.31911
0.713812 -0.453731 -3.87286
0.137664 0.432838 1.0103
0.135783 3.28478 -1.37436
0.0762682 2.09594 2.41243
-0.613216 2.90485 0.760682
-1.10698 1.62109 2.25904
0.68238 0.216382 2.63949
-0.325751 -0.199836 0.496134
-0.33638 -0.539897 0.7306
0.518371 -1.36191 -2.04627
-1.70951 -1.55395 2.34943
-0.0463209 -2.07751 -0.699919
-0.726053 -1.6426 2.74024
-0.124397 -2.3572 -0.718997
-1.22468 1.28 0.492171
-1.60259 -0.885066 1.31695
0 0 0
0 0 0
0.844377 0.133827 0.538046
0.550873 -0.446937 0.372782
-1.11478 -0.173135 1.69697
1.53839 -0.492896 -1.76545
-1.28257 1.81459 0.38952
-1.28913 -2.26004 -3.65307
-1.64787 0.994381 -0.00122525
-1.56379 -2.18876 -1.72782
-1.31205 2.47483 4.05666
0.325902 -1.38643 2.24997
-1.7317 0.398897 0.614814
-1.79593 0.026569 0.699719
-1.12483 1.59548 0.830513
-0.778479 -0.931544 0.917424
0.232594 0.55307 -0.7156
-0.400024 -0.129232 0.0247044
-0.633033 -0.163578 0.945408
-0.713558 1.70731 -1.15846
-0.140027 -0.0385955 -0.203005
-1.63636 -0.20042 -2.66421
-0.531393 1.28546 -3.66633
-2.53134 -0.454061 -1.42347
-1.93035 1.33015 -0.165026
-1.17467 -0.955856 1.18415
-1.37411 -0.573691 1.78382
-0.333763 1.54566 -1.70874
-0.781787 -1.29863 -0.167682
-1.38974 1.22777 -4.38519
-1.63778 -0.783168 -0.83269
-2.18639 0.8612 -5.48754
-0.630179 0.908491 -1.55064
-0.048348 -1.49624 -2.95058
-0.807537 1.25214 -2.60735
-2.10505 -0.154581 -4.92122
0.45929 0.550396 -4.18221
-0.735492 -0.405336 -2.88315
0.979944 0.677241 -2.84266
0.899698 0.148188 -2.5542
0.622307 0.244376 -2.58066
-0.119589 -0.229273 -4.74023
-1.59624 1.62043 -3.36287
1.33703 -0.166339 -0.615181
0.0845073 -1.42432 -0.00474375
-0.909806 0.254508 0.365206
-1.33824 -0.601014 -0.10692
-1.64074 -1.25564 -1.39592
-1.92656 0.397834 0.387941
-2.52035 -1.16969 0.580676
-2.10058 0.350786 -0.293327
-2.65276 -0.298981 0.888718
-0.348375 -1.09097 -0.0624927
-0.421492 -0.0567734 -2.00704
1.02924 0.118319 -0.451202
1.23514 0.481904 -1.37272
0.354948 -0.00434957 1.02013
0.0867518 1.44977 3.47653
1.14037 -2.0458 2.01516
3.07448 1.36007 2.56113
1.60247 -0.583858 -3.01461
0.54615 0.452675 2.15167
0 0 0
0 0 0
-1.25453 -0.0278885 0.305887
1.05667 1.51154 0.928666
-1.55643 0.221054 -0.267129
1.11918 0.194846 -0.251777
-0.870205 1.06301 0.00332315
0.57481 1.2103 -2.12505
-1.57645 0.896866 0.107343
1.92382 -0.0711494 -1.18564
-1.8602 -1.6758 0.426645
2.45516 -0.849462 0.684091
-1.54397 -1.07765 1.08356
1.14716 -0.794063 1.75346
-1.36368 0.114736 1.06116
0.432276 -2.18478 0.608357
0.114701 -0.0740339 1.65557
1.04627 -0.0500762 1.31694
-0.772363 0.394625 2.61943
0.98501 -0.11304 -0.12263
-0.605194 0.0192952 0.252757
-0.946466 1.61276 -0.251655
0.586262 -0.764264 1.57638
-0.766132 0.882538 2.12934
0.685607 -0.0993662 2.81329
0.0280445 0.346366 0.368761
-0.698504 -0.312186 1.33456
0.49837 -0.354099 0.935353
-1.24769 -0.404543 0.627748
0.0246446 -0.804887 1.12192
-1.75371 -0.0208896 -0.0308952
1.29544 0.0459264 0.937548
-2.19081 -0.372856 0.495988
1.76686 -0.378849 0.777337
-0.028385 -0.743888 -0.0988918
0.0526145 1.10397 -0.572296
1.00321 0.977965 1.3232
0.144901 0.656777 1.29843
0.921864 -0.0285042 3.13747
-1.29944 0.431024 0.190504
2.30642 -0.117472 1.29758
-1.94617 0.20875 0.0927575
1.28672 0.279699 0.492978
-0.981728 -0.397308 0.71092
-1.05377 0.393808 2.15882
1.23718 -0.639099 1.73727
-0.790254 -0.76864 2.12902
0.568336 -0.833176 -0.352636
-0.74756 0.431886 1.04466
0.03413 -1.04156 1.34185
-0.0890716 -1.64811 1.63565
1.41866 -2.7265 1.05673
-0.829327 -0.974858 2.39346
1.04162 -0.82109 1.66483
0.824093 1.30397 0.114916
-0.816923 0.21458 -0.948403
1.06162 1.68682 -2.03651
-0.311885 1.2721 -1.02006
1.05939 2.79341 -0.338023
1.38196 2.21563 0.757384
-0.572225 2.47276 0.239321
-0.520234 1.16938 0.0534711
0.806996 -0.845825 -0.984766
1.51159 1.76734 1.2406
0 0 0
0 0 0
-0.0845429 1.34736 -1.27528
0.794428 -0.998263 0.987791
1.14635 -0.0927698 3.57992
0.516465 -0.693412 1.03405
1.91503 1.3817 -1.52339
-0.0443521 -2.2895 -0.790149
1.94519 0.78883 -1.15843
-0.635037 -1.38276 1.16438
1.26103 0.5116 4.77589
-0.0947425 -2.23897 2.68067
0.66668 1.12293 0.837157
0.708421 -1.67969 1.32861
0.169757 1.87781 0.130826
-0.580415 -2.90355 1.45629
-2.17617 0.566662 1.2618
0.0200776 -0.433438 3.56968
1.06865 -0.474008 2.49079
1.23889 -0.101036 2.23297
1.62823 -0.414032 0.495281
0.695784 0.0450357 1.20771
3.10152 -0.918221 -1.54003
2.74081 -0.829578 0.848543
2.02939 0.824335 -1.47102
1.06874 -0.398942 -2.89762
2.51485 1.37026 -1.67396
1.40778 0.0204051 -4.39302
-1.11204 -0.945384 -3.00539
1.42402 -0.114765 -5.95254
1.22752 -0.597786 -4.7255
0.0986938 -0.979742 -2.8689
-0.0575548 0.0384977 -4.32741
1.46278 -0.533447 -1.78726
0.484732 1.10279 -1.58473
1.0007 -0.856693 -2.2817
2.08882 0.30102 -5.64647
1.28978 -1.00275 -2.89483
-0.421389 1.0929 -3.04797
-0.626385 -1.03346 0.198879
-0.103405 1.02235 -0.503044
0.373722 -1.13953 -2.66901
2.21625 1.11185 -4.49737
0.847601 -0.866077 -0.711977
-0.671601 0.329067 -2.60081
0.233127 -0.873367 -1.97889
1.0959 0.758186 -3.58559
0.835573 -0.74299 -2.8858
1.0857 0.708202 -2.96761
2.14356 -0.498572 -0.38184
1.36469 -0.0798952 -0.233287
1.20542 0.555594 -0.324658
0.687633 0.649181 1.41968
1.0446 0.543884 0.921595
-0.286078 -0.160681 3.15022
0.35938 -0.98935 0.549415
-0.0496139 0.321491 1.96433
0.4457 0.761165 0.766335
-0.591107 -0.884191 -0.699042
-0.0956381 0.350892 1.11754
0.543419 -0.16898 -2.26902
0.69245 0.109339 -0.0978196
-0.165554 0.733834 0.328719
0 0 0
0 0 0
-0.693073 0.114059 0.134057
1.23434 -1.32473 -0.095302
-1.20228 -0.132174 0.257508
0.61876 -1.72131 -0.430374
0.00416427 -0.408256 0.674448
0.938934 0.89915 -1.73829
-0.477071 1.64178 -0.466074
0.00736585 1.3946 -2.21292
-0.262014 2.29901 -0.49631
1.99653 2.35026 -0.106889
-2.16535 2.41984 0.0434663
1.4336 1.29427 -1.53724
-1.87908 0.802181 -1.69959
1.65073 1.49632 -0.992967
-0.150527 0.264383 -0.201789
1.47878 0.242565 0.387998
-0.890894 0.320765 1.07965
0.873995 0.340596 -0.0756441
-0.528639 0.0215036 -1.39518
-1.45208 -0.37868 -1.92642
0.71794 -0.63018 -2.01443
-0.323472 -1.36879 -0.421593
-0.173667 0.0769641 1.03833
0.205422 -0.602928 0.751581
-0.0672521 -0.352332 1.45809
-0.572783 -1.9854 -0.913618
-1.19988 -2.31016 0.0639274
1.15061 -1.1561 -1.16238
-1.90638 -0.737184 1.86203
1.34012 0.0321171 -0.380025
-0.958126 0.109717 1.68915
1.11165 -0.109418 -0.745177
0.586369 0.585001 -1.36732
-0.936241 0.018068 -0.201747
0.815216 0.153016 -1.99866
-0.815439 -0.115562 0.87048
-0.138212 -0.328653 -1.58104
-0.512941 0.271977 2.05318
1.62617 0.25425 -0.542949
-0.648977 -0.188406 1.31815
1.23501 0.172329 0.49211
-1.35586 0.212373 0.521216
-0.778002 0.090636 0.408384
0.558335 0.436105 -1.23048
0.849643 0.677778 0.965244
0.878004 1.45684 -1.46609
-0.574406 1.2968 1.49943
0.977799 1.43767 -0.194203
0.0739748 1.94209 0.75054
1.76274 1.52782 0.317831
1.15708 1.23989 1.51253
-0.0468597 0.786423 2.61069
-0.0908699 -0.550822 2.33993
1.07321 -0.973289 1.03395
0.129379 -1.01277 -0.560772
0.439999 -0.77312 0.180383
-0.0498174 -0.724489 -1.27567
-0.163551 -3.16006 0.639917
0.566808 -2.44243 -0.691751
0.124893 -1.38798 0.448105
0.851891 -1.61128 -0.591257
-1.27578 -0.405404 0.95611
-0.505646 -0.7027 -0.648323
0 0 0
0 0 0
-0.424955 1.10209 0.176368
-1.06026 -0.457181 -0.320007
-0.861355 0.902313 1.89184
-1.2674 -1.70217 -1.15785
0.461613 1.13771 2.83543
-0.703028 -1.36753 -2.5822
-0.616844 1.04918 0.0352874
0.51515 -3.27109 -3.3753
1.03148 1.79281 3.62731
-0.52 -2.15368 2.55271
-1.5098 0.369825 -1.15667
-0.982547 -1.4358 -0.894341
-1.06527 1.23759 -1.42835
0.291792 -1.33369 0.806094
1.16101 0.492128 -2.03136
1.11692 -0.469695 -0.977893
-0.728954 0.424355 -1.72358
-2.1339 -1.30901 -1.77398
-1.9358 -0.30464 -1.33956
-0.693397 -0.574742 -0.565753
-2.43684 0.309598 -3.77718
-0.680965 -0.247925 -0.745883
-0.894313 -1.12926 -3.53133
-0.859157 0.0500407 -0.216213
-1.4557 1.82523 -1.88939
-2.44512 -0.147507 -2.27774
0.345322 -0.141643 -1.70029
-1.53852 -0.460546 -1.62515
-1.60439 -1.14232 -0.749815
-0.218288 0.0839684 -3.04076
0.187247 0.799938 -3.71632
0.225596 -0.743536 -2.24799
0.90568 1.0503 -4.33175
-1.88992 -1.15731 -1.64718
-0.241913 0.523781 -4.55147
-1.86523 -0.886168 0.797355
-0.811017 0.523121 -2.97834
0.134806 -0.935687 0.0571268
0.109021 1.37671 -3.77012
-1.63021 -0.096413 -2.67612
-1.33095 -0.089763 -4.83083
-1.50725 -0.242123 -0.833347
-0.357898 0.424112 -0.968935
-0.594683 -0.234627 0.977807
-0.732601 0.832719 -0.106746
-0.119978 -1.04723 -2.41572
-0.446737 0.910561 -0.577722
-0.969332 -0.074864 0.226363
-1.07002 -0.0398404 -0.303958
-1.36474 -0.894111 0.625759
-1.0624 -0.0266526 -0.876954
-0.910949 -0.454599 -2.38754
-1.79689 0.461766 0.415262
-0.742856 0.785525 0.884027
-0.778717 -1.09926 3.09161
-0.89942 1.65604 4.31958
-0.517102 -1.73998 1.74613
-1.51724 1.59132 2.48218
-0.0619481 0.50416 -3.52272
-0.00773808 0.237783 1.22499
1.91381 0.444117 -1.42683
0.126169 -0.788319 0.819462
0 0 0
0 0 0
-1.70304 -0.0489404 -0.137078
2.21807 -0.171752 -0.369574
-1.83559 0.865582 -1.07378
0.908607 0.689927 -0.937831
-0.249225 1.50757 1.84309
0.018896 -0.257937 0.433515
1.57196 -0.317864 3.46029
-0.900226 -1.15688 0.177294
-0.108826 -0.487668 1.96494
1.63684 -1.48316 -0.697271
-1.36391 -2.21907 1.02803
1.43271 -0.680524 0.990639
-1.93405 -0.109435 2.45458
1.69761 -0.429543 0.924452
-1.79105 -0.000351032 2.28592
1.25888 -1.57455 0.62681
-2.24837 -1.41334 3.10349
1.8748 0.247482 0.255722
-1.53584 0.275849 1.4203
0.0176746 0.545187 -0.825219
1.43096 0.267633 -0.27323
-0.459176 1.18123 0.0941902
0.286632 0.598116 2.31127
-0.36943 1.11287 1.8157
0.793112 0.172467 2.06625
-1.37396 1.80986 1.33104
0.701285 0.981306 -1.25992
-0.0693783 0.266365 -0.0346646
-1.62294 0.842871 -1.30187
1.41698 -0.296815 1.36645
-0.874173 0.213752 0.981073
0.774314 0.131156 1.91656
0.635138 -0.493865 0.0366168
-0.0826667 -0.060427 -0.330499
-0.235579 -0.148383 0.313503
-1.11914 0.7199 0.0526935
0.22881 0.461328 -0.420833
-0.84597 -0.277531 -2.32404
0.817424 0.54324 -1.1937
-0.86167 -0.316385 0.273188
1.9999 0.704011 -0.232933
-1.17052 -0.0584546 -0.788726
1.04135 -0.373065 -0.705712
-0.177827 -1.55144 0.0336813
0.485742 -1.30539 -0.068944
-0.501053 -1.24803 0.758722
-0.803999 -1.84054 -1.18967
0.430444 -0.880108 1.08837
-1.27683 -0.00941697 -3.27113
1.06431 -0.0310173 -0.575006
0.344069 -0.103607 -1.99327
0.447671 0.771924 1.24919
-0.274841 0.579709 -0.883378
0.255969 0.692454 1.7826
-1.3653 0.318303 -1.41859
1.0496 0.508426 1.12917
-1.69276 0.140409 -1.43539
-0.0841719 2.04033 2.01745
-0.0582343 1.63809 -0.820155
-0.0376402 0.863361 1.88029
-0.632772 0.874945 0.454022
-0.711504 0.0559087 2.15726
0.736803 -0.831943 -1.1549
-0.636079 0.605705 -0.745347
0 0 0
0 0 0
0.620481 -0.163965 -2.0168
1.60535 0.266838 1.31579
1.07373 1.30156 2.44952
0.428554 -2.11161 1.50222
-0.684936 1.50169 0.316403
0.0265422 -0.708746 3.16122
-0.461355 0.915031 1.61424
-1.75586 -2.32456 0.492611
-0.388497 3.44159 3.18735
-1.0553 -2.34166 1.55386
-0.196686 1.52634 1.27013
-1.31702 -2.63126 1.70659
-0.466215 0.161324 2.04356
-1.95588 -1.15648 0.126043
0.402804 0.413392 0.637699
-0.520868 0.090117 -0.0953427
0.510212 0.311814 1.92794
-0.140319 -1.59896 0.268346
0.883087 -0.147299 2.83568
0.145938 -1.02418 2.96298
1.0857 0.730549 2.96924
-0.428116 1.00343 2.67225
0.828614 -0.117704 -0.192649
-0.358381 1.03758 -2.27088
0.953649 -0.30256 1.92759
0.218141 -0.764787 -1.08624
0.671191 0.350069 2.57365
-0.168679 0.530394 -0.450417
0.763601 2.1168 3.18029
0.230844 -0.941676 4.14569
0.641961 0.377575 0.869867
-0.288462 0.0330849 0.690716
0.651506 -0.208522 0.337299
2.20174 0.877343 -0.549594
1.99352 -0.285283 -3.90691
1.45847 -1.15511 -2.46113
1.28425 1.21351 -2.51314
0.274142 -1.58343 -1.79483
-0.225944 0.569376 -1.48191
0.445153 -0.113727 -4.34358
0.935449 0.570631 -4.26199
1.61674 -0.185902 -2.85889
1.5741 -1.63981 -2.63121
0.980335 0.693849 -3.74264
2.20694 0.367885 -3.25684
1.50002 -0.148609 -3.49529
0.946152 1.19505 -2.91646
0.334797 -1.10987 -1.35272
0.816989 0.774175 -0.700216
0.818792 -0.289276 -1.33679
0.687197 1.07567 0.370625
2.80782 -0.0491796 -0.645218
1.37556 0.164891 1.19226
2.43056 1.0677 0.405684
2.35472 -0.678556 2.80489
1.37901 0.368238 0.397444
1.66036 -0.938924 -0.143208
1.0363 -0.30043 0.857294
0.277949 -0.0640327 0.404334
1.03687 0.477585 -1.37032
-0.449541 0.77159 1.8721
0.903903 -0.991985 -0.358236
1.36027 1.22178 -0.242713
0 0 0
0 0 0
-0.941911 0.503927 -0.504104
1.526 0.0920211 -0.516742
-0.453275 -0.350766 -0.184124
-0.325165 -1.68152 -0.722878
0.787395 -0.807909 1.31164
-0.44301 -0.391458 -0.360179
1.25043 0.334914 1.0688
0.0688759 1.90814 -0.523942
-0.90343 1.69615 0.368559
0.995262 0.898117 -0.061723
-2.26186 1.29631 -0.722989
2.30397 0.901304 -0.100801
-1.96649 0.179523 -1.02314
1.75955 1.29837 1.49316
-1.89809 1.53248 -1.13574
2.66351 1.49726 -0.578443
-1.32802 0.765133 -1.16272
1.44616 0.424547 0.953556
-0.38872 -1.36267 -0.370305
0.508517 -1.40128 -0.055842
0.322138 -0.181991 -3.02368
-0.225662 -0.79875 -1.15196
0.622358 -0.851896 -0.384045
-0.619814 -1.0376 1.94199
0.222136 -0.701605 1.18914
-0.339276 -0.73627 -0.0145103
-0.0131443 -0.319237 -1.69607
0.305696 -1.49554 -2.14324
-0.475063 -0.434848 -0.22847
0.527573 -1.3292 -1.21907
-0.36339 -1.29906 0.488926
0.013048 0.366203 -0.350079
0.620413 0.0852503 -0.874695
-0.639242 -0.702696 0.429277
0.132031 0.571122 -2.15061
-0.242005 -1.55688 -0.116964
0.757256 -0.715158 -3.84254
-2.21003 0.26079 0.284905
1.73101 -0.553363 -1.85996
-2.34851 -0.171264 2.0606
1.1084 -1.97489 0.800474
-0.30562 0.230595 0.686167
1.2729 -0.628171 -0.88228
-1.69256 0.725484 -1.06337
1.86546 0.29277 0.826418
-0.019937 1.28436 1.36322
0.624243 0.444873 1.69533
0.998164 0.791404 1.33899
-0.332865 -0.0670878 -0.167595
0.082147 0.184057 0.00249087
-0.25157 -0.0595887 -0.24182
1.54197 -0.269767 0.371194
-0.713666 -0.534588 1.14069
1.99345 -0.879956 0.895039
-2.56307 -0.1933 1.20511
2.40277 -0.826017 1.49442
-1.02335 -0.368063 1.24512
-0.190798 -0.0582692 1.9963
-0.196054 -0.678089 2.0132
0.364192 -0.879086 1.57942
-0.846894 -0.516197 1.83926
0.844214 0.0300756 0.388841
-0.857418 0.898747 1.13344
1.58868 -0.596654 -0.328623
0.310577 0.0764501 -0.0413885
0 0 0
0 0 0
0.519401 0.811959 0.246073
-1.2854 -0.48101 -1.16481
-0.716643 0.0798174 -0.113632
0.2866 -2.4894 -3.11469
0.645053 1.10257 2.55312
0.312703 -1.03091 0.25491
0.365583 1.13105 2.2648
1.14169 -3.17007 -3.12712
1.02743 2.17902 2.24189
-0.235505 -0.814766 2.52008
1.03599 0.12439 -1.31916
-0.322398 -1.75028 1.57125
-0.345985 0.828548 -0.0748371
1.07766 -1.13383 2.46543
0.511967 1.56296 -1.32666
-1.68706 0.124884 1.10248
-0.621242 -0.564421 1.73137
-0.251914 0.320181 0.1386
0.535725 0.119142 0.517342
0.638822 -0.664842 0.554993
0.972483 0.369506 -0.961418
0.767928 0.217704 0.275707
0.979191 1.27301 -2.70045
-0.517383 0.644668 -0.77401
-0.907033 1.78327 -0.386949
0.507902 -0.998705 -2.45015
0.0965203 2.53772 -1.89786
-0.222451 -0.0529447 -3.61818
-0.137402 0.357201 -2.04559
-0.495144 -0.155238 -2.9366
-0.904061 1.11106 -3.4568
-1.14157 -0.751266 -3.00434
-0.384435 -1.4956 -5.35911
-0.816455 1.46321 -1.9195
-0.494145 -0.278081 -5.48318
0.274727 -0.190649 -0.15817
-0.347995 0.513401 -4.31725
0.211204 -0.265167 -1.05456
-0.313024 -0.975269 -5.02667
-1.56663 0.292256 -2.33292
-0.608128 -0.639707 -5.25683
-2.87299 -0.325825 -1.01838
-1.54097 -0.475356 -1.34179
-1.0731 -0.0735459 0.437645
-1.89609 2.18122 -1.80003
-2.41907 -1.29383 -3.04155
-1.31612 1.65405 -1.1976
-1.04752 -1.07644 0.105171
-0.947197 0.572195 -0.868887
0.0714496 0.426567 0.966763
-0.266167 -0.00294582 -1.3789
-1.26344 -0.0318313 -2.81178
-2.52159 0.609691 -0.949748
-1.91657 0.508989 -0.501234
-2.23827 0.202993 2.13733
-1.80574 -0.0642402 2.03838
-0.812902 -0.682642 1.62673
-1.1486 0.397612 2.94401
-1.46626 0.344593 -0.729991
-1.28949 -0.0502422 2.21935
-0.949725 -0.254006 -0.36428
-2.4176 -0.736814 1.87205
-1.19481 0.539563 -0.369436
-2.20435 -1.38145 -0.392982
0 0 0
0 0 0
-0.709666 -0.439245 0.380244
0.0667384 -1.28269 0.603623
-0.416656 0.619441 -0.466021
-1.40055 0.361472 -1.48746
2.17867 1.28702 -0.343929
-1.1098 1.20779 -0.735535
1.59565 0.706503 2.83991
-0.0118525 -1.13725 1.39806
-0.709719 -0.686973 3.14163
0.130068 0.713565 -0.565547
-1.00322 -0.894105 1.23736
2.98142 -1.38389 0.631785
-1.95865 -1.68075 3.40056
1.46173 -1.24634 0.00688127
-3.25644 -1.75656 0.807496
2.78943 -1.30698 -3.47791
-2.00285 -0.737828 -0.128917
1.88544 -0.968354 -2.3583
-0.275021 0.0798218 2.28612
0.767598 0.0104365 -0.512321
-0.989585 0.686341 1.28189
-1.01131 0.634154 -0.950114
1.62997 0.0827927 1.57482
-1.21981 1.175 -0.135567
1.57043 1.37026 1.40924
-0.33222 0.810056 0.230953
-0.50059 0.684316 -1.07461
-0.0419163 1.90476 -1.39949
-0.384928 1.21143 -1.90604
-0.366662 0.0281137 -0.190942
-0.208245 0.434809 0.988512
-1.0048 0.456453 2.12494
-0.0910653 0.176767 2.67088
0.995298 -0.0567519 1.81775
0.345983 0.704852 2.1734
-0.420716 0.28129 0.538096
0.617725 0.697466 -0.612404
0.218629 0.9005 -1.8677
0.768292 0.999262 0.178999
-0.633827 0.674698 2.58456
1.1057 2.64188 2.40794
-2.08103 1.83617 0.568705
2.43463 0.554485 0.973786
-1.98157 -0.585645 0.811501
2.65412 -0.180386 1.58761
-0.8123 -0.139826 1.71254
1.39703 0.984371 0.110081
-0.0229328 1.75778 0.571407
0.289732 0.468873 -1.42634
-0.34604 1.59471 -0.99657
-0.131687 1.84473 -0.897364
0.984292 1.05717 -1.99168
-1.29972 1.09847 -1.71936
2.35792 0.224129 -1.85056
-0.9321 -0.0324725 -0.541551
1.30269 0.088657 -0.610601
-0.834872 0.362133 0.713498
0.867469 0.210532 0.452142
-0.616908 0.742574 -0.530411
1.54057 -0.554199 -0.849898
-0.544596 1.60879 -0.927933
1.28826 0.0677087 0.958102
-0.0362544 1.2786 -1.25206
0.780789 -0.077839 -0.183426
-1.5396 1.26048 1.12169
-0.924477 -0.236159 -1.91077
0 0 0
0 0 0
-0.0411565 -0.521592 -3.06162
1.00482 -0.181036 -0.14617
0.0931146 0.692168 0.101906
-0.185041 -1.44226 -1.40999
0.409651 -0.709439 -1.52872
-0.678842 -1.18372 2.57403
0.172629 0.566298 3.45171
0.535347 -1.20947 -0.570592
-0.106866 0.934226 3.32938
-0.664029 -1.50724 -0.620567
-0.98278 -1.10794 1.54161
-0.120948 -1.38203 1.96477
-0.162648 0.611027 5.20867
1.22251 -0.874992 1.44089
-0.998171 -0.351825 3.1444
1.28301 0.542976 1.68141
0.291101 -0.36695 6.54019
1.02539 0.404956 1.90654
0.162314 1.07947 4.45151
0.0417463 -0.224125 2.42186
-0.368164 -0.590369 5.21018
-0.378457 -0.256434 4.86244
1.10226 1.42035 2.05316
1.80141 -0.95186 -1.86872
0.285457 1.68868 2.0982
0.50387 -1.13791 -2.9424
0.0587722 1.15191 0.243317
0.271645 -0.748476 -5.02142
-0.71018 0.508647 -0.3289
1.46722 -0.348885 0.853698
2.29862 0.88659 -0.314449
0.927602 0.00566365 -1.76006
0.644669 -0.093199 -0.53458
1.18879 -0.134566 -1.69978
0.167916 -0.74348 -3.01987
-0.104845 1.083 -3.59828
-0.180736 -1.17442 -1.86101
-2.58343 0.88619 -2.96471
-1.18398 -0.0189277 0.283354
0.181407 1.40481 -4.47311
-0.317907 -0.184281 -3.54623
0.44608 0.192929 -4.59782
2.14895 1.18065 -1.17831
2.79218 -0.825941 -3.58486
3.86305 0.697558 -2.51558
1.57216 -0.642874 -3.102
1.35727 0.614583 -1.83497
1.47035 -0.123842 -0.259203
2.30793 1.11462 0.699971
1.85779 -0.928168 0.523393
0.697164 -0.0955865 0.992465
2.76777 -1.0143 0.676593
2.34836 0.604133 -0.224322
1.18241 0.278781 0.16332
1.28471 0.765799 0.956155
2.78163 -0.889721 -0.414104
1.8352 0.164212 -1.44575
2.90022 -0.225047 1.20561
1.72369 0.307674 1.33784
1.15094 -0.466402 -1.53223
1.01744 1.23005 2.31001
0.789677 -1.32485 -0.326288
1.85342 1.10981 -0.333631
2.27017 -1.10501 -0.993621
1.55922 0.0318075 0.124824
0 0 0
0 0 0
0.00751796 -0.201361 0.0362476
-0.457836 -0.74013 0.684225
1.34599 -1.53211 0.652917
-0.42271 -0.391364 -1.09589
0.565336 -0.942954 -0.595504
-0.667709 -2.21964 -1.71634
-0.885688 -0.561322 0.345014
1.73358 -0.893706 0.41238
-0.707323 -1.08739 1.44554
1.32788 -0.136481 -0.00312747
-0.959964 0.306654 -1.26648
2.43477 -0.970684 -0.499305
-1.48384 -0.192385 -1.88307
1.6612 0.795739 0.795896
-1.21526 0.649645 -2.37134
1.8041 2.37064 -2.19252
-1.1979 1.90029 -2.61497
1.44843 0.66845 0.296529
-2.42832 -0.0709696 0.292475
0.196256 -1.17763 1.12354
0.000733224 -1.24801 -1.33488
0.274562 -1.65042 -0.215597
0.507079 -1.07577 -0.312158
-0.147142 -0.879094 1.53918
0.92524 -1.51889 1.27674
-1.38636 -1.59835 1.2605
0.894763 -0.702886 0.566436
-0.792189 0.0519433 0.39418
0.48833 -1.0213 1.5793
-0.0917658 -1.15481 -0.13286
-0.0676557 -0.617314 1.5735
0.0511007 -1.46185 1.64589
-0.300879 1.10903 2.22872
-0.540062 0.665794 2.589
1.70966 -0.280438 0.105787
-1.94269 0.694087 1.53151
0.158606 1.01683 -1.57019
-0.150632 -0.747398 2.23377
0.679052 -0.373196 0.0848059
-1.93586 -1.09161 2.5355
1.85151 -1.61255 1.13114
-2.26751 -0.473092 0.488325
1.23559 -0.866712 -0.454791
-1.03563 0.750035 -1.692
-0.0213762 -0.582598 0.122826
-0.847195 0.25134 -0.559371
0.687015 -0.194545 -0.0172053
-1.13379 -2.04425 -0.973131
0.383106 -0.757104 0.277382
0.598532 -2.14984 0.000881168
-0.547723 -0.303355 1.25647
1.339 -1.91273 -1.58225
-1.44121 -0.696607 -0.32957
2.21688 0.440821 -3.1492
-1.61134 -1.24574 -0.845018
2.30639 -0.321213 -2.2134
-1.64778 -1.21363 -0.139272
2.84619 0.140558 -1.25837
-1.63073 0.32113 -0.296715
1.70197 0.0871832 -2.12793
-1.57821 0.44935 -0.78089
0.524543 0.385395 -1.55186
-2.0315 0.610349 1.41399
-1.23999 0.237637 -0.0635169
0.201932 0.734134 1.20373
-0.289322 0.881473 0.392585
-0.40716 -0.417236 -0.830505
0 0 0
0 0 0
-0.419544 0.779686 -0.0028973
0.174608 0.795001 -1.23068
-1.03472 0.824198 1.14159
0.514301 -0.373046 -0.621436
0.772684 -0.551942 4.0116
-1.22089 0.243491 1.53287
-0.67048 -0.0358334 2.69726
-0.433869 -0.992233 -1.10566
-0.730254 0.293642 5.64124
-0.0569823 -0.0341312 4.86763
0.227317 0.525195 0.483381
0.528541 -0.553299 2.49173
-0.693771 0.255291 1.51631
0.0422203 -0.0990133 3.68089
-0.190097 -0.664726 -0.917077
-0.605946 1.09536 1.2661
-1.18457 -0.600055 3.85275
-0.139498 0.660554 0.392802
-1.73469 0.161345 1.10242
-1.56221 -1.52062 -0.824677
-1.5755 1.86925 0.703703
-0.119024 -0.415551 1.3332
-2.08607 1.66768 0.665645
-0.660723 -2.08459 -0.243909
-1.04093 1.78896 1.33132
-0.708048 -1.44412 -1.95924
0.816692 1.28377 0.112323
-1.58706 -1.10491 -3.98687
-1.25328 1.05205 -3.02208
-0.926458 0.0500918 -4.91866
-0.805148 0.9018 -4.10963
0.15732 -0.245214 -4.90618
-1.16292 -0.690271 -7.01989
-1.01439 1.89264 -4.39472
-0.16236 -0.825714 -5.67747
-0.814815 0.358936 -0.553535
-0.479945 0.351841 -2.95045
1.96956 1.07215 -1.0606
1.02496 -0.786363 -2.46427
-0.274743 1.74055 0.149586
-0.0165409 0.124069 -4.16079
-0.882463 0.637541 -2.58178
-1.8538 -1.01996 -2.45941
-2.46593 0.663374 0.260255
-1.10057 0.446688 -1.70777
-1.12681 0.438377 -2.20374
0.311089 0.453199 -0.926397
-2.6842 0.294629 -0.440827
-2.32456 -0.616793 -1.41672
-2.33965 0.213554 2.02261
-1.13923 -0.0910058 -1.53097
-0.678434 0.0173323 -0.787715
-1.1177 0.311694 -0.0623636
-0.738187 -1.21047 1.26825
-2.82896 1.18126 2.27752
-3.2147 -1.22451 2.04106
-1.36082 0.525662 1.14098
-2.67844 -0.655936 1.81355
-1.80281 -0.0746781 -1.13588
-1.88845 -1.76238 1.54801
-1.39005 1.59803 -0.935475
-0.444188 -0.749203 2.29855
-0.596291 1.56669 -0.714021
-0.827683 -1.50756 -1.11028
-1.83778 -0.110441 1.13485
-0.930917 0.188516 -1.09635
0 0 0
0 0 0
1.16855 0.998392 0.755982
-2.37338 1.02908 1.1609
1.87043 2.59993 -0.401031
-0.802505 1.07258 -1.84098
0.439523 -0.0169283 -2.01036
0.10808 0.800391 -0.195975
0.654472 0.924695 1.60449
0.679048 0.43318 3.0406
-0.29553 0.918726 2.25441
1.0815 0.113663 0.170939
-0.974628 0.891579 -0.568625
1.34795 1.47151 -0.441809
-1.7714 -0.403365 0.582048
1.64614 -1.01537 -0.366857
-1.34849 -2.24454 0.909135
0.858921 -1.63044 -0.388289
-0.778364 -0.579409 1.20775
1.51235 -1.70247 -0.784076
-1.18845 -0.238204 2.001
1.02037 -0.179522 -0.139837
-1.05944 0.445666 1.79927
-0.458547 0.672181 -0.187465
0.780532 0.554159 1.19535
0.323701 0.668576 -0.704683
0.0933367 1.76985 0.742187
-1.18515 1.33727 0.333745
1.32912 0.914693 0.411488
-0.701224 1.18409 -0.0397104
0.471511 0.415985 -0.386063
-0.898375 0.628446 -0.884027
-0.134812 -0.340393 -0.101274
0.306198 -0.111959 -0.325206
0.550993 0.0409064 1.43613
-0.342179 0.343522 -0.819498
-0.38306 -0.983573 0.121173
-0.458463 -0.796461 -0.968816
-0.61227 0.617909 -0.79317
0.00399065 0.715855 -2.08147
0.257839 1.60131 -1.55268
-0.484596 2.02924 -1.45702
2.53556 0.89593 -1.67622
-1.4674 0.34211 -1.90904
1.92345 1.2847 -0.216053
-1.30084 0.480604 -0.0968386
1.05917 0.528861 -0.710702
-1.43863 0.469891 -1.0605
1.64954 1.63716 -3.6909
-0.93385 1.8466 -1.95654
0.65396 2.39155 -2.49711
0.559778 1.77088 0.98752
0.239217 0.452252 1.03313
-0.296105 0.244117 0.894359
-0.740631 -1.25181 -1.20551
1.32949 -1.47063 -1.49219
-0.579134 -0.293393 -2.14748
1.51076 -0.648247 -2.06112
-1.46122 -0.127564 -1.08398
0.692301 -1.32826 -1.01696
-1.57559 -0.743218 -1.76053
1.14121 -1.96901 -1.27625
-0.863885 -1.36884 -1.50816
0.620625 -0.0241646 1.70359
-1.02948 -0.360339 -0.500648
-0.432367 0.0452213 2.10386
1.31809 0.309186 -1.41464
-0.552838 1.77548 1.94479
-0.686409 -2.16389 1.75747
0.563203 2.16784 -1.03757
0 0 0
0 0 0
0.164699 0.0767509 -3.29382
-0.884094 -0.33418 0.509554
-0.43706 -1.00951 2.59419
-0.64334 0.852619 1.48967
-0.539732 0.759976 -0.738322
-0.296153 -0.362516 2.02555
1.02787 0.750989 1.13122
0.826524 -1.05814 0.783266
-0.655913 -0.233885 4.80789
0.386694 -0.316555 1.48404
-0.94158 -0.481495 -0.335142
0.0988388 0.957708 0.606341
1.16668 -0.92359 2.67929
-0.342339 0.221491 1.2887
0.420435 -0.215003 -0.575617
1.50479 0.22933 -1.11659
0.298952 -0.679009 1.47632
-1.7659 -1.17312 -1.55608
0.559845 1.92545 -0.364506
2.66721 -2.12374 -1.88193
1.21909 3.45966 0.378972
0.71652 -1.63479 1.25124
0.394809 3.40007 -1.23285
-1.27034 0.704709 -3.62669
-0.941811 0.802623 1.26876
0.236798 -0.782038 -1.84952
-0.264693 0.723752 2.7337
-1.1355 -1.35356 -3.03912
-1.0721 1.5381 0.713562
-1.14579 -1.17846 1.25279
-0.388749 1.30701 2.21981
-0.133304 -0.757753 1.17441
-0.770248 -1.10521 0.993436
0.842982 1.6482 -2.6991
0.149871 -1.01694 -4.11494
-0.274622 1.11724 -3.7114
-1.10655 -0.383418 -1.61603
-1.17085 0.6838 -3.55432
-0.187111 -0.436957 -0.154779
0.321454 0.689873 -1.70639
-0.210942 0.408955 -2.27836
0.757607 -0.473587 -2.65777
1.41844 -0.781105 -1.47499
0.567603 0.408354 -1.35328
2.22154 -0.0792288 -1.35011
1.08638 0.11108 0.143849
-0.590241 -1.02476 -1.37383
0.698113 1.98694 -0.785287
1.64441 -1.04355 -1.19644
1.92736 -0.399609 1.35394
1.22689 1.30074 0.845003
1.84414 0.0751093 1.67477
0.0818466 0.594339 0.215846
2.07012 0.298845 2.52811
0.624376 0.745703 3.21421
1.64851 -1.18516 0.917491
1.46711 0.831181 -1.70082
0.757173 -1.93327 -1.33451
3.0824 0.675283 0.0611811
2.45599 -1.67235 -3.59933
1.53769 0.68712 2.97607
2.97265 -0.800573 -1.64049
1.43402 0.514352 0.385612
1.26136 -0.630687 -4.07749
0.725744 0.381756 -0.196406
0.485763 1.70751 -1.26046
0.988261 -0.424009 0.329006
0 0 0
0 0 0
1.23627 -0.514808 -0.374943
-1.40474 -0.10719 -0.472006
1.96471 -1.31535 -0.602991
-0.932992 -1.43793 -1.58143
0.857714 -0.864526 -0.65581
0.467812 -0.817096 -0.562123
0.00470606 -0.0544107 -0.326898
0.0379673 -0.501484 -0.252953
-0.595161 -0.854775 -0.0967211
1.15024 -1.17897 -0.540646
-1.23571 -1.13706 -1.71891
1.62634 -0.110394 -0.472497
-1.04943 -0.0306378 -3.05962
1.04361 0.225264 1.05593
-0.760887 1.36083 -0.898093
0.27926 1.79946 1.66643
-0.415513 1.00205 -0.603786
1.42518 0.673561 0.995577
-1.43735 -0.358109 -1.46224
0.725598 -0.373179 0.10193
-0.463644 0.208596 -2.71452
-0.864403 -1.07009 0.187848
0.0387583 -1.15938 -1.0056
-0.876184 -1.25751 1.62954
0.378367 -1.56716 -0.0560878
-0.0730338 0.168483 0.771918
0.886622 -0.540244 -0.0744553
-0.844877 0.0189241 0.815489
-0.513709 -0.296546 1.32075
-0.0149554 0.627504 -0.685613
-0.26372 0.319703 -0.985424
-0.00388483 -0.577624 -1.55702
0.927053 -0.0871821 -0.912283
-0.428226 -0.697065 -0.695118
-0.283051 0.573034 -1.53295
-0.268603 0.206606 1.20286
0.596856 -0.370939 -0.112169
-0.745754 -0.111002 3.53356
0.527413 -0.38586 0.00898618
-1.10621 -0.500643 0.684152
0.850469 -0.880985 -1.1992
-2.51589 -2.82386 1.21926
1.32832 -1.20675 0.524247
-2.31022 0.0179698 1.00133
0.767752 -0.40812 -0.352081
-1.10742 -0.487584 0.848612
1.29324 -2.48439 -2.64092
-1.43304 -1.64901 -0.54417
-0.2598 -3.00467 -2.61538
0.437365 -1.74245 1.64279
0.259036 -1.31451 0.425378
0.252898 -0.623196 1.73056
0.0955486 0.184661 0.307936
1.05549 -0.208316 0.557873
0.0751586 0.597981 -0.519168
2.11755 0.326527 -1.00683
-0.0168962 0.829293 -1.62511
1.13055 0.760353 -1.50605
-0.714319 0.727198 -1.73147
1.51708 0.696362 -0.783369
-0.588648 1.60716 -2.17095
3.03887 1.90617 -0.82713
-1.70414 0.924434 -0.888476
1.63694 1.01647 0.529705
-0.516747 -0.255399 -1.34033
-0.22599 -1.44102 -1.05839
-0.497435 -0.728445 -1.3683
-0.328878 0.123711 1.75849
0.763156 -2.25319 -0.144233
0 0 0
0 0 0
0.244495 0.617952 0.090381
0.623372 0.497004 -0.253397
-0.445328 -0.364559 2.46352
1.05198 1.75884 -0.368748
0.867766 -0.416436 2.3686
0.481659 0.791761 -0.317796
0.110365 -0.448638 -0.249646
0.713301 -0.443373 -1.12226
1.08272 0.215135 5.56067
-0.857318 0.687475 5.26875
-0.985954 0.340266 -0.666219
0.105162 0.633553 0.787166
-0.168665 0.154039 0.319817
1.00223 0.517982 3.87475
-0.26683 0.136777 -3.33855
-1.12221 -0.734086 -0.622386
-0.197367 1.12387 -0.259925
-0.352915 -1.65709 -0.245857
-0.960265 0.582175 -0.570387
-0.669437 -2.66693 0.723512
-1.92545 1.79891 -2.3951
1.06216 -1.65673 1.1511
2.04042 3.56416 -2.07992
-0.272999 -1.17239 0.277007
0.994897 1.78653 -0.804729
1.32738 -2.4044 -1.103
0.343032 1.58839 0.108989
1.3669 -1.75904 -1.47791
1.1888 0.970034 -3.15699
0.222996 -1.75017 -2.86232
-0.341116 2.17795 -1.6517
0.139022 -0.409205 1.67308
-0.246075 -0.834638 -2.41288
0.4267 1.01356 -1.60238
2.37475 -0.0421532 -7.15041
-0.0366155 0.712341 -0.688752
2.30433 -1.94252 -4.98511
0.738285 0.132578 -3.05532
0.441683 -1.43241 -5.77121
-1.00705 -0.175809 -0.0958617
-0.547102 0.0285251 -4.31223
-1.45808 -0.366494 -2.18649
-1.7264 0.120626 -2.35561
-1.97445 1.01053 0.579308
-1.06448 -1.98718 -0.252699
-0.911828 1.3096 -2.09976
1.13234 0.136468 -0.429178
0.596476 0.321642 -4.3048
-0.691451 -0.935627 -4.40921
-1.79475 0.413331 0.15673
-1.3513 -1.42888 -0.667481
-0.764143 -0.523576 -1.01868
-0.725107 0.633321 -0.166302
-2.42051 -0.087611 0.162535
-2.29807 1.00786 2.32582
-2.01346 -0.739298 2.04044
-1.0947 -0.535396 1.08463
-0.769104 -0.376232 -0.624399
-1.78558 3.03714 -0.868917
-2.73068 -1.93898 2.53151
-1.0449 0.0837262 1.67704
-0.635715 -2.18316 4.74693
0.142028 1.78589 2.58265
-0.246263 -1.49455 -0.10549
-0.600581 0.624923 1.63785
-1.0427 0.952236 -1.90644
-0.505015 -1.5474 2.69723
-0.319012 1.14902 0.0655411
0 0 0
0 0 0
1.34816 0.456782 0.41882
-1.18764 2.41935 0.0727044
1.95301 1.1967 -1.32832
-2.18279 1.67737 -0.343811
1.39876 1.38269 -1.29969
-0.973876 -0.443821 2.41283
0.394597 -0.27598 -0.648809
-1.09698 0.694129 2.72158
0.530899 0.151345 -1.8072
-0.23728 1.1909 1.03852
-0.0245924 0.694956 -1.47815
0.574628 0.564016 1.3226
-1.17702 -0.418056 -0.615266
1.65875 -1.55398 0.675597
-0.349603 -0.22752 0.370274
0.386778 -1.37901 2.16944
0.0967366 0.567059 -0.174651
-0.749551 -0.706403 -1.44693
-1.17213 0.782722 -1.6955
0.5401 -0.419652 -1.43293
0.593526 0.0156109 0.162349
-0.562398 -1.37065 0.911556
0.300659 0.170647 1.00214
-1.58489 0.454348 0.835421
1.19214 0.39275 0.28937
-0.10189 0.710159 0.578453
0.176102 1.00627 -0.110938
0.39231 0.317088 0.221041
-0.169991 0.613518 -0.422723
0.0680509 0.00921537 -0.749733
0.350896 -0.154526 -1.83946
0.950266 -0.44836 -1.88216
0.125563 -0.766829 -0.63522
-0.491332 -0.892561 -0.824276
0.0763066 -0.848853 0.101867
-1.15725 0.384468 1.50995
0.165043 -0.455588 1.33155
0.73297 -0.0470356 0.937724
0.00797361 -0.216285 1.04631
-0.844555 0.232876 0.293879
0.737025 0.33405 1.53403
-1.15574 1.37845 1.17036
1.95218 0.970107 3.48558
-0.405518 0.540135 1.77411
0.835055 0.30524 1.00947
-0.62476 2.03912 -0.0647746
0.935497 1.07673 -1.92431
-0.728619 2.26666 -1.7198
-0.37403 2.01459 -2.01434
-0.926668 1.76814 -0.332968
-0.794236 1.10434 0.755936
1.04973 1.14767 0.810656
-0.567496 -0.404729 1.20277
0.750789 -0.427526 1.42815
-1.91831 -0.873378 2.33573
2.58897 -0.222164 0.0187818
-0.29423 0.0781453 1.6182
3.09729 -0.537514 -1.63933
-0.292561 0.32014 -0.344624
1.81986 0.0881989 -0.948368
-2.18807 -1.16557 1.02839
2.91279 -0.634514 1.89534
-2.22654 -0.298801 1.42033
0.878995 0.29108 1.41108
0.0501851 -0.353698 -0.302134
0.815797 -0.135409 0.959901
-1.38107 1.43874 -0.04044
0.0795291 1.56859 0.609912
-0.517058 -3.40634 -0.114187
-1.20144 2.46315 -0.470245
0 0 0
0 0 0
0.819759 0.289081 -1.90717
-0.275202 0.307889 1.03319
-0.458062 -0.36942 2.05434
0.348267 1.12131 -1.91841
0.122387 0.235748 -4.03833
-0.020378 -0.0510084 0.559636
0.12609 -0.304281 1.04271
0.633796 0.356895 1.15817
-0.528346 -0.457658 3.05044
0.324198 0.238594 0.936366
-0.311535 -0.573121 -1.69259
0.857052 0.801283 0.498442
-0.910911 -0.558271 2.57418
0.238983 0.932774 2.49051
-0.143468 -0.13485 0.417099
2.02963 0.295091 0.887147
0.731343 0.109294 2.99418
-0.960343 -0.612444 2.02002
2.08202 1.11702 4.12311
2.58992 -2.13393 2.43041
0.662588 1.99488 2.70289
-0.320013 -2.56935 3.30403
-1.22528 1.24145 0.234335
0.208031 -1.92006 -0.119318
-1.36452 1.19761 0.739223
-0.741421 -0.154574 -0.234373
-1.49906 -0.604885 0.924082
-0.494296 -2.68426 -0.0566431
-1.76863 1.10551 -0.624555
-0.554731 -2.96939 1.24323
0.569166 -0.601992 -2.26252
1.06952 -0.388765 1.59174
-0.633076 -0.922942 0.383329
0.0319508 1.15023 -1.84027
-0.156135 -1.82247 -6.85852
-1.00038 3.06059 -5.96057
-1.83574 -1.10729 -4.53793
-0.698626 1.01614 -6.22713
-0.295083 -1.71693 -1.81291
0.914053 1.97075 -2.50379
0.665517 -0.928366 -1.34817
1.89296 1.38487 -1.74995
2.34177 -1.3725 -0.238195
1.78153 0.637502 -0.0710261
2.05253 -1.83028 -0.490261
-1.37191 1.64854 -0.21622
-0.81941 -0.945212 -1.85051
-0.334851 0.0544639 -1.78863
-0.119681 -1.65612 -3.40302
-0.111944 2.08293 1.21033
-1.29573 -1.63211 0.693236
1.01169 0.528345 1.855
1.07423 0.467312 -2.10437
1.8188 -0.813394 0.895165
1.99561 -0.428064 0.585635
1.71708 1.01072 1.73495
2.23556 1.33827 -1.80696
2.16064 -1.35941 -0.580429
1.60119 1.54904 -0.504311
1.92732 -0.779222 -1.09591
2.73818 0.401354 4.00283
1.79601 -2.51434 0.803479
0.789977 0.714634 2.77132
1.21676 -1.90178 -0.783345
0.297056 0.442648 0.518804
1.15379 0.309744 -1.17493
0.983063 -0.436323 -0.721659
-0.548543 -0.335678 2.27886
-0.657608 -2.9787 -0.231232
0 0 0
0 0 0
-0.245878 -0.567116 -1.19383
-0.208365 -0.0630703 -2.11721
0.152709 -0.0286735 -1.51423
-1.46324 -0.575508 -0.341143
1.84421 0.193455 0.870854
-0.954507 -0.018384 0.210027
1.14804 -0.605466 -1.52335
-1.40712 -0.660168 -2.6022
0.116967 -0.387961 -1.79525
0.586484 -1.06955 -1.45301
0.361344 -0.495095 0.45781
2.27631 -0.19296 1.00273
-2.20524 0.684398 -0.157566
0.6 0.166423 0.828277
-0.578913 1.06797 -0.227716
0.550054 0.327345 0.288496
-1.28159 0.143108 -0.711666
1.86532 1.59866 -0.827852
-0.390337 1.37966 -1.7056
0.282712 1.27714 -1.15874
-0.561 0.408531 -2.67122
-1.0093 -0.357769 -0.207146
0.561334 -0.49401 -1.50827
-1.5617 0.55227 0.675356
1.43314 -0.449113 -1.17614
-0.526249 -0.111926 -0.174739
0.054627 0.127462 -0.745462
0.321229 -0.189911 1.38125
-0.254444 1.26924 1.27534
0.140608 1.22716 0.667637
-1.12124 1.20459 -1.91793
-0.0749299 0.669991 -1.41576
-0.0368299 -0.129567 -2.02
-0.208783 -0.156533 -1.17593
-0.116847 0.00629609 -2.32773
0.075428 0.505572 -0.336042
0.0205299 0.919827 -2.14459
0.853506 0.877778 0.230158
-0.570869 -0.141123 -1.65434
-0.206382 -0.00731303 -0.911723
0.6677 0.320697 -1.59763
-1.69657 -0.746038 0.834837
0.124436 -1.23972 -1.36477
0.0794289 -0.711504 -0.130305
1.17706 -1.84358 -1.99538
-0.573248 -1.55211 2.31381
1.03729 -2.00251 -1.22912
-0.0160685 -2.46732 2.55992
-0.293855 -2.52465 -2.42566
-0.265569 -2.58976 1.44287
0.225237 -1.03516 -2.59064
0.633785 -0.933444 0.837854
-1.10894 -0.379453 -1.16644
1.56117 -0.155705 1.98965
-1.15988 -0.0410354 0.426413
1.95944 0.601088 0.386423
-1.29684 0.34455 -0.823767
1.69156 1.27661 -1.66356
-0.463101 2.42234 -2.31683
0.288653 1.06643 -0.82124
-0.951735 0.278699 -2.28423
-0.51799 0.380917 -0.740243
-0.295198 -0.589496 -1.51511
0.152441 -0.246717 -0.195007
-0.908616 -0.723113 -2.04876
0.337915 -1.12337 -0.959923
-1.09611 -2.2923 -0.444529
0.0405673 -2.45717 0.0979176
-0.95638 -2.921 -0.477235
-1.37418 3.5807 -0.0516883
-1.73538 -2.53461 -2.68559
0 0 0
0 0 0
0.41059 0.233765 1.2968
-0.385121 0.170662 1.27764
0.309523 0.716934 2.26171
-0.184497 -0.630214 -3.02047
0.88295 0.502369 0.401464
1.16347 1.41118 -0.486613
-1.52973 -0.641318 -0.377002
0.881714 1.63747 -1.80632
0.484519 -1.81741 1.0148
-0.369222 0.503862 3.73941
-0.372643 -2.17829 -2.09853
-1.1433 -0.339931 1.4846
-1.66976 -2.1544 -0.748152
-0.188168 1.05804 4.06106
-1.67296 -0.123799 -2.16143
-2.39563 -0.525455 3.90603
-1.5547 0.0829502 1.99625
-1.30452 -1.61842 2.78833
-2.96273 2.79683 -0.169204
-1.85851 -2.3183 3.40698
-1.54396 0.856138 -0.859806
-1.06027 -0.907593 1.70781
-0.60911 0.70959 -0.126685
0.323054 -1.37867 -0.229476
1.10684 -0.130903 0.382385
2.26144 -0.882965 -3.01906
1.87143 0.51758 0.689226
0.364477 -1.20062 -2.9857
0.759721 0.519701 -2.6583
-0.10439 -0.779205 -6.91238
-0.779627 1.1347 -5.99047
-0.0796717 0.477628 -4.62731
-1.87264 -0.136466 -2.87755
0.025337 -0.56736 -2.58481
0.216371 -0.0781729 -4.31705
-0.0183932 0.7165 -0.551335
1.00061 -0.887808 -2.92845
1.63478 0.9849 -2.46438
2.16225 -0.125697 -4.32495
-0.804324 -0.496166 1.42484
-0.196863 -2.4946 -4.00483
-1.1104 0.689135 -0.728001
-0.623309 -1.16021 -2.61418
-0.101771 0.628915 3.12707
-0.224765 -1.94576 1.05134
-0.319755 1.66305 -1.23894
-1.04507 -1.30918 0.245286
-0.598318 0.380061 -2.18984
0.237349 -0.603135 -2.95405
-0.537171 2.65729 2.29829
0.163232 -0.579482 1.19013
-0.388909 0.263644 0.668803
-1.5304 0.242276 -0.0283612
-0.94228 -0.65247 -0.895687
0.19077 0.530361 -0.754102
-0.727356 -1.34946 2.37746
-0.373127 0.718171 1.97388
-0.978137 -1.16098 0.972013
-1.99951 1.47458 -1.10991
-1.45012 -0.0860678 1.98125
-0.977293 -0.81028 -0.968429
-0.599619 -0.360068 2.84391
-0.430856 1.01029 1.77763
-0.603462 -2.93208 0.681482
-1.11813 2.21738 2.272
-0.728684 -1.27953 -2.85501
-0.136333 0.459797 0.725175
0.53868 -0.670876 -1.8869
1.29689 -2.29935 -0.601541
0.90199 2.23639 -2.1401
0 0 0
0 0 0
0.563372 1.27966 -0.3953
-1.52181 0.0498243 -1.18952
1.12923 0.30824 -1.77796
-1.57745 0.343023 0.700095
4.28324 -0.00108371 -0.735894
-3.01678 1.0495 2.61587
2.28866 0.22229 -2.30113
-2.95773 0.914745 2.40609
1.23363 -0.368759 -2.81324
-1.02474 -0.2375 1.66272
1.03398 -0.282469 -0.683279
0.3253 -1.40916 2.03271
-0.660174 -0.700881 0.518089
0.129998 0.659339 0.2835
-0.821381 -0.203915 -0.167498
-0.239324 -0.536146 1.04097
0.562975 -0.555234 0.51725
0.56072 -0.907148 -0.321663
-0.874053 -0.133393 0.498413
-0.22015 -0.421545 -0.202171
-0.158653 -0.817147 2.08477
-0.853329 0.527317 1.31117
0.0856798 0.581476 0.529874
-2.74702 0.253345 -1.1043
1.72389 0.61217 -1.73859
-0.200897 0.926302 -0.923116
-0.817566 0.88634 -0.46047
0.330605 -0.403237 0.723857
0.424196 -0.910651 0.315654
-0.0501126 -1.32536 0.697489
0.260633 -0.789829 -0.835249
0.338953 0.254373 0.206725
-1.09362 -0.295943 0.0956627
0.0823936 -1.50669 0.827585
0.416544 -1.99423 -0.0915295
0.340654 -2.49828 1.17817
-1.01125 -1.93586 -1.40273
-1.72884 -1.69148 -1.45752
0.649331 -0.742931 -1.09511
0.217066 -0.967821 -0.944551
1.61214 0.788427 0.833033
-0.0711271 0.129421 -0.455783
0.375239 1.67065 0.239469
-0.775096 1.96069 -1.47068
0.539603 0.0655354 -1.30203
0.379313 1.57592 -0.0375134
-0.0717073 0.936213 0.1993
-0.378339 1.43498 1.58834
-0.35008 3.05268 0.795681
-0.321254 2.32487 1.20607
-0.456059 2.55485 0.0441587
1.62208 0.33536 0.59811
-1.39409 -0.681961 -0.442838
2.33537 0.172304 1.30549
-1.5904 -1.25661 0.48231
1.23337 -1.83916 0.739855
-0.454508 -0.488791 2.20156
2.91344 -0.947731 1.26987
-0.753379 -1.47075 0.644702
2.34352 0.786407 1.02432
-0.343577 -1.27896 1.04338
0.697589 -0.705835 1.93333
1.61919 -0.231248 0.765261
-0.129178 -0.731129 0.279614
-0.451926 0.47726 0.192362
0.880654 1.2932 1.34216
-0.702786 2.29208 2.15852
-0.03811 2.87378 1.61217
-0.705792 2.36409 2.02211
-0.218389 1.71431 0.87946
1.7057 -1.70909 -2.20025
0.0784265 1.41635 0.627699
0 0 0
0 0 0
0.324224 -0.575665 -0.0748304
0.00519759 0.0858599 3.3279
0.504207 0.9756 4.65316
0.165618 -1.3933 0.492069
-0.544314 -0.0516545 -0.083975
-0.429042 0.272844 3.7279
-0.923493 -1.85636 3.49955
-0.636209 0.197975 2.29047
-0.0133495 1.23031 2.58789
-1.48216 1.57858 2.9798
-1.28028 -0.339665 0.303754
0.505732 1.77132 3.60791
0.0518387 -1.83419 1.25595
0.85429 0.843117 2.42422
0.143724 -1.73073 0.851183
0.803625 0.326061 4.15622
1.42185 0.53211 2.65507
-0.35104 -1.22642 0.43416
0.305468 2.14591 -0.607442
1.4334 -1.83452 2.13194
1.95894 0.836984 -0.607712
0.961229 -0.568054 3.84695
-0.792658 -0.390848 -4.20079
-0.718364 -0.713472 0.79277
-0.304356 -1.18338 -2.74066
-2.57178 -0.277882 1.06128
-1.46676 0.439759 -2.28525
-1.58993 -0.380775 1.67732
-1.00462 0.981912 -0.512396
-0.36359 -1.01075 4.58555
-0.775971 2.44765 -4.25112
1.0955 -0.277398 1.42246
0.180694 -0.0495497 -2.63838
0.199808 -0.53376 0.655853
0.03479 -0.149353 -6.45676
-0.469079 -0.206588 -0.394232
-0.0670224 -0.971758 -3.63429
-1.22771 0.943504 0.153676
0.174103 -0.174535 -1.31297
0.626007 2.25848 0.816175
0.767303 -1.85867 -2.12182
1.40179 2.24982 -1.2637
0.804218 -1.69288 -2.25902
1.82326 1.24043 -0.0232087
2.00677 -0.818088 -1.03938
-0.694684 0.699353 0.0241093
-0.0732001 -2.87104 -2.25916
-0.122138 0.387794 0.134258
0.259395 -0.811191 -2.85445
-0.203107 1.79674 0.950791
-0.0687231 -1.46233 -1.19943
0.584699 1.69979 0.271283
0.448252 -0.0679744 -2.86662
0.451924 -0.152902 1.13652
0.708728 -0.584426 -1.0346
0.723464 -0.700173 1.73788
1.47873 0.627171 0.197015
2.15181 -1.04364 2.45386
1.54386 -0.0359673 1.0962
1.1942 0.254893 -2.14042
0.529775 -0.649341 2.70546
1.1598 -1.03401 -2.07346
-0.0330929 1.26143 3.59708
0.7975 -2.03799 -1.30031
1.46277 0.694288 3.92207
-0.232919 -0.277551 -0.785337
0.275221 0.247929 0.688941
-0.879658 0.453197 -0.458426
-1.37104 -1.28509 1.76257
-1.82093 1.34806 -1.08075
-2.64273 -1.98742 -1.33941
0 0 0
0 0 0
0.643533 -0.753776 -1.18825
-1.80869 -0.629527 -2.19813
1.44802 -0.589842 -0.461082
-1.62548 -0.0699258 0.276781
3.18936 -0.131923 1.72708
-2.83515 0.0956718 -0.505108
3.96243 -0.525054 -1.31877
-2.32152 -1.67752 -2.53656
1.2273 -0.966934 -0.535556
-0.777334 0.046856 -1.314
0.188731 0.538521 1.01276
0.753302 0.0865214 0.231846
-1.47683 0.349847 0.524973
0.63111 -0.35535 -0.811569
-1.30983 -0.25049 -1.31589
0.66747 -0.643403 -1.38672
-0.814899 1.45887 -0.00417594
-0.0406143 0.942236 0.420315
-1.1157 2.25565 0.351571
0.115625 1.38489 -0.360442
0.242727 0.437867 -1.38731
-0.192179 0.602793 -0.690263
0.125541 -1.34023 -1.80958
-0.659154 -1.52495 -1.68447
0.849357 -1.4722 -2.45501
-0.566621 -0.0895333 -2.0479
0.978975 -0.208687 -0.145194
-0.594428 0.935674 0.590429
-0.574058 1.07531 0.948317
0.538285 0.756858 -0.415276
0.312831 1.31609 -1.63784
1.35901 1.0485 -1.51989
-1.0336 0.903693 -0.755217
0.250478 1.58004 -2.09555
0.027647 1.75552 -0.613194
-0.0855133 1.94835 -2.08711
-0.617638 1.9024 -1.09623
-0.811498 1.76834 -1.63785
0.462067 0.732889 0.325114
-0.134329 0.722448 -1.15803
1.06488 -0.387727 -0.324689
-0.0773992 -0.474166 -0.363313
0.926715 0.110722 -1.971
-0.343199 -0.859601 -1.87768
0.395144 -0.055637 -1.43325
0.167437 -0.289625 1.50728
-1.5864 -1.62204 1.75156
0.472212 -1.75136 3.31655
-1.79308 -2.07409 1.24336
0.122892 -1.62387 1.10379
-0.921124 -1.89741 -1.0011
0.9221 0.431322 -0.37443
-0.309487 -0.14174 -1.16322
0.460625 0.689005 -1.24241
-2.08119 1.31791 -1.53714
1.10646 1.64296 -3.32736
-1.3078 2.05198 0.499146
1.74789 2.03637 -1.65953
-1.35106 1.63932 1.48795
1.31218 1.25564 -1.68415
0.829082 1.47091 -0.506898
0.573994 0.704858 -3.93917
0.420127 1.16704 -0.608464
0.0367418 0.277988 -2.91267
-0.125613 -0.445758 -0.527506
0.112127 0.521919 -2.81421
0.866071 -1.56925 0.0901201
-0.218198 -2.35282 -2.18891
-1.48019 -3.35347 0.116351
-0.553699 -1.99101 -2.38191
-0.433739 -2.00472 1.4042
-1.25141 1.25141 -0.103754
-1.58011 -0.766881 1.478
0 0 0
0 0 0
0.802626 0.785204 0.568003
0.861894 0.0112341 2.44559
0.931441 1.50828 3.71784
1.84205 -0.648394 0.228199
1.46512 -0.131159 3.31404
1.27968 0.891033 -0.164798
1.59787 0.190033 -0.970909
2.02739 0.327569 -2.19595
0.616586 -0.623343 1.22476
1.34471 -0.35445 4.98516
1.36764 0.269645 0.334532
1.26378 0.897658 2.44193
-0.980201 -0.833329 -1.2618
-1.58637 0.676119 1.54752
0.667233 0.260486 -2.43799
-0.184325 0.39054 2.31108
-0.859185 -0.0678836 0.00878564
0.232384 -0.55284 -2.91868
0.522745 0.604178 -2.9673
0.0162127 0.158761 -1.33004
-0.0563353 0.368157 -2.74725
-0.228075 -0.215213 -2.4578
-1.1351 -0.678652 -2.60249
0.560092 0.168572 -1.51521
0.614122 0.983943 -0.97529
2.9137 -0.798133 -3.0053
2.4645 -0.017318 -3.2399
2.32996 -0.386484 -4.00367
1.77866 -0.911528 -4.27034
2.42873 -0.403448 -3.86198
1.32861 0.521143 -6.54266
1.18 -0.805485 -3.69357
0.143216 2.17643 -4.81092
-0.415944 -1.13019 -2.02377
0.962173 0.89927 -4.09017
1.28699 -0.608515 0.620061
0.233873 0.283507 -0.431504
0.913533 0.2259 0.399281
-0.712729 -0.650316 -0.176557
0.0771125 1.48969 0.695241
0.347265 -0.100424 -2.18354
-0.541604 1.95118 -2.0962
0.648093 -1.88506 -3.42642
-0.494547 0.426459 1.80005
-1.43843 -1.2788 0.875879
-1.36963 1.88658 -0.981725
0.150324 -2.24189 1.65039
-0.00256913 0.802644 -1.76322
0.424145 -0.787921 -2.20377
0.875378 0.872746 0.769773
0.196594 -0.9677 0.685248
1.31384 0.481998 -1.18404
-0.587209 -0.61016 0.710899
0.392947 0.0212831 -0.121584
0.362642 0.0616479 -0.213036
-1.08834 -1.60159 1.36259
-1.24837 -0.0434121 2.33815
-1.17517 -0.705596 1.9933
-0.741993 -0.000369021 1.25417
-0.90141 0.715302 0.0395102
-0.221664 0.114852 -1.79513
1.18448 0.223251 0.741329
1.13291 0.922792 1.84997
0.77219 -2.37959 -1.71247
0.71074 1.1992 3.3624
-0.655636 -0.540991 -2.2913
-0.220895 0.281652 1.21857
1.54126 0.851163 -4.27605
1.21639 -1.84545 -0.982468
1.66848 2.38328 -2.15259
2.10994 -0.238419 -1.28591
1.69401 0.462237 0.40949
0 0 0
0 0 0
0.393342 -1.14146 0.182691
-1.25323 -0.696702 -0.0606818
2.27354 -0.107313 -0.069737
-3.23964 0.793246 0.59729
2.57055 0.0639472 -1.58418
-3.2034 0.240207 0.456286
2.72572 0.368034 -2.75484
-0.338497 0.482976 2.36662
2.46823 0.780517 -2.03328
-0.887198 0.0954421 1.58025
0.0553012 -0.770931 -1.86203
-0.233741 -0.676423 0.257842
-0.102348 -1.08173 -0.914256
0.966022 0.626653 -0.576369
-1.40894 -1.10836 -1.05262
-0.181455 0.488961 1.65569
-0.380303 -1.43128 0.99659
0.645611 0.0109078 1.71153
0.550625 -1.16536 1.29325
0.141138 -0.642568 0.712329
-0.999974 0.785716 2.28565
-0.846267 0.306767 0.950885
0.135757 1.96988 0.543543
-0.746432 0.193715 -1.30617
-0.0326176 1.15292 -0.885356
0.552417 0.48919 -0.751544
-0.183853 0.381017 0.803526
-0.28316 -0.496571 -0.108879
-0.114374 -0.869121 -0.221615
-0.0213824 -0.390751 -1.42846
0.973558 -1.40855 -0.932851
0.647153 -1.26396 -0.776397
-0.308447 -1.60628 -0.0697451
-0.807167 -1.76693 -0.844094
-0.834567 -1.98832 -1.26068
-0.0323665 -2.32849 -1.29081
0.507692 -2.49278 -2.60657
-0.935366 -1.44735 -2.19319
-0.313998 -1.61322 -0.828596
-0.98098 -0.607765 -0.760216
-0.127282 -0.410365 0.566887
-0.134992 0.0991099 -1.93979
0.591055 -0.931426 -0.746467
0.397536 -0.227155 -2.87525
-0.0991597 1.26786 -1.44253
0.410246 -0.291526 -1.97203
-0.490622 0.514831 -0.0690689
1.14256 1.23373 0.0370263
-0.639739 0.473125 0.858212
1.19671 0.711168 -0.252389
-0.033344 1.157 -0.221726
-0.52009 0.0725378 -0.474389
-0.129063 0.587824 -0.573795
0.526069 -0.66655 -0.860734
-1.14178 -0.468652 -0.941001
1.32765 -1.52708 -1.58443
-0.548803 -2.41405 2.71803
-0.167598 -1.95093 1.74488
0.2069 -1.35874 3.04821
0.42948 -0.891859 1.77608
1.47926 0.467609 1.8882
0.864493 -0.11272 1.68444
-0.948256 0.0350519 1.16453
0.542582 0.122245 0.765421
-0.533869 0.680996 -0.0109853
-0.0804186 1.1733 0.54687
1.01598 2.44587 -1.53382
-0.763858 2.12903 -1.21766
0.163496 2.35574 -2.07912
-0.459983 0.882348 -0.0948994
0.132121 0.664462 -1.31056
-1.04517 -0.686987 -0.146473
1.34024 -0.192135 3.45486
0.177057 -1.2509 -1.37904
0 0 0
0 0 0
-0.625353 0.349913 -0.607576
-1.29832 0.791893 0.270881
-1.09424 0.490603 2.7932
-1.30865 -0.897998 -0.364004
-0.228638 -0.684976 -1.36343
-1.73285 0.957803 -0.90582
-1.15485 1.04297 -0.120173
-0.247318 1.01797 -0.590262
-0.628998 -0.567055 1.732
-0.820417 0.112647 1.62581
-0.745488 1.55031 -0.272898
-0.661397 -0.927656 2.3477
0.611892 -0.300205 -0.445542
0.303505 -0.119163 -1.7347
0.948463 -0.531329 -2.01637
1.58872 -0.36185 -2.46731
-0.692303 -1.08715 0.386968
-0.277459 -1.80519 -2.61599
-1.26151 0.567657 0.481913
1.07349 -1.9979 -1.87598
0.672115 -1.03977 0.319008
-0.0167421 -0.579999 -1.42693
0.221914 -0.380107 -1.7754
-0.974539 -2.13987 -3.08469
-0.861944 1.18769 -0.515954
-2.79459 0.51843 -3.91103
-2.83956 -0.809459 -4.1802
-2.11152 0.188207 -6.56995
-1.49371 -1.42757 -2.0631
-1.52692 -0.896301 -0.936669
-0.740258 0.824218 -3.2594
-1.24791 0.293269 -3.95415
-0.546085 1.09324 -2.68558
-0.406349 -0.85344 -5.22501
-1.00444 0.322796 -5.62451
0.277667 0.268096 -6.89378
-0.0175806 -0.0169456 -2.60723
0.485239 -1.09054 -2.46627
2.26692 -0.877713 1.75201
0.77569 -0.210749 -2.3189
0.582914 -0.52797 -1.07068
-0.355033 1.28654 -2.14613
0.576174 -1.69992 -0.397911
-0.165362 0.738168 -1.95228
1.82372 -0.81032 -0.424998
1.0645 1.51806 0.0919298
0.550469 -2.28078 0.922444
0.354733 0.782839 1.03785
-0.182682 -0.704243 -1.62672
-0.413455 -0.382182 -0.937075
-0.873766 -0.690023 -0.608002
-0.313173 0.523832 -0.227503
-0.746675 -0.394096 -1.63059
-0.571502 1.36335 3.15904
-1.13856 -0.71067 1.57704
-0.0723356 -0.553162 2.2716
-0.646328 -0.856354 -0.524802
0.198077 0.6873 2.42724
1.77106 -1.0881 1.65049
-1.13241 1.67587 -1.94555
0.135553 -0.626845 2.0243
0.7554 -0.456645 -1.34909
-0.782145 0.128844 3.77988
-1.78604 -0.217897 -2.98042
-0.318909 -0.377659 2.22122
-0.169433 -0.774448 0.601974
-1.08195 -0.00238538 0.06895
-0.971527 1.00381 -1.16594
-0.673095 0.227166 -0.0246124
-1.05302 1.44999 0.115636
-2.24607 -0.978627 -1.96619
-0.720632 0.399493 0.230126
-1.22549 1.13638 1.72311
0 0 0
0 0 0
0.443289 0.255234 -0.28657
-1.51987 1.33522 -0.193841
1.26027 -0.760222 1.36607
-2.06919 -0.536246 -0.415258
1.1422 -0.808334 0.395027
-2.43758 -0.418343 -3.15311
2.37041 -0.517471 -2.02164
-1.40757 -1.06721 -3.62498
2.68005 -1.76842 -0.606761
-0.82625 -0.45452 -1.82785
0.368531 0.263828 0.147425
0.892016 -1.37094 -0.652818
-0.486557 0.660289 0.158381
0.265075 -0.0503726 -0.247593
-1.89729 0.642317 -1.05423
-0.00707058 0.572407 -0.825626
-0.999018 1.15209 -0.852412
-2.11463 0.525555 0.432079
0.756671 0.125951 -0.577569
-0.150837 0.0361522 -1.24178
-1.37284 -1.39403 -2.03362
0.25159 -0.893465 -2.2797
0.467528 -1.72161 -1.21469
0.179944 -0.520227 -1.31555
-0.0262492 -0.0936415 -0.235703
1.19811 0.640878 -1.05838
0.557823 0.494672 0.602035
-1.1561 -0.248769 -0.305878
1.79689 1.04421 -0.490336
-0.713692 0.79505 -1.2157
0.676482 1.18143 -1.51041
0.527458 2.02728 -0.884526
-0.566294 1.55481 0.121797
-0.468995 1.79519 -1.89268
-0.912669 0.510281 0.441092
0.306214 1.25959 -2.81621
0.316736 1.87862 0.0731188
-0.149398 0.126416 -1.03278
-0.604484 1.37739 2.58548
0.896561 0.5772 -0.189711
-0.422511 0.154592 1.12918
2.27711 0.89282 -0.244392
-0.532139 1.12255 0.324659
0.779458 0.0240103 -0.307331
-0.154237 -0.572473 2.09241
0.896022 -0.328826 1.12507
0.227035 -0.819815 3.09417
0.0837701 -1.01277 0.506016
-1.16101 -1.33233 2.33436
0.664592 -1.14343 -0.608901
-1.51657 -1.12263 1.84694
0.822232 -1.25147 0.804877
-0.887539 -1.17472 3.16244
-0.114223 -0.0585521 1.89895
0.105978 -0.0107118 2.64697
0.00994708 1.3135 -0.322668
-0.565936 2.07207 2.29745
1.33021 2.22384 -0.466886
-0.99513 0.411878 1.7999
1.85511 1.81717 -0.525395
-0.989167 -0.186624 0.386784
1.02467 0.391633 -1.8965
-0.208824 -0.00734401 0.978986
0.718994 0.0473331 -0.229671
-0.213007 -0.837346 1.24252
0.226883 -1.52967 -0.932389
0.00352315 -2.10291 0.333688
-0.557632 -1.48356 -1.60185
0.522865 -1.3072 0.38677
-0.38959 -0.725934 -0.664755
0.0350173 -1.6861 2.15678
0.0341489 0.330388 0.645663
0.973711 -0.723142 0.531619
0.949294 -0.367549 1.44913
0.377503 0.535061 -1.43909
0 0 0
0 0 0
0.872224 -0.0864942 -0.954665
1.7131 -0.601667 0.237367
1.15308 0.188492 1.65462
1.7636 -0.764553 0.011973
2.23291 0.0435091 1.79376
-0.709136 0.989049 -3.48279
-0.369664 -0.721428 -2.29565
0.812726 0.829452 -2.8242
0.547699 -0.903035 -0.0859901
1.33207 0.381996 2.32559
1.19432 1.09628 -2.53172
1.40485 0.887932 1.25225
0.46669 0.225944 -2.59766
-0.781434 -0.498613 0.111749
-1.26653 -0.0694611 -5.93627
-0.830322 0.623957 -0.119901
-0.753952 0.142517 -0.0990179
-1.01309 1.15651 -0.587739
-0.238821 -0.184715 -0.130191
-1.83372 -0.111125 -0.840231
-1.52883 1.01766 -1.39562
-1.16436 0.681684 -1.28237
-1.00654 -0.946977 1.27421
1.61975 -1.72636 -1.97867
0.84068 0.94376 1.02285
1.55904 -0.586713 -3.30891
2.07789 -0.129698 -0.116607
1.40804 -0.551187 -3.2471
1.44483 1.32578 1.37218
0.245225 -1.35364 0.639306
2.3232 0.257122 1.87324
2.25881 -0.820757 -1.55734
0.348524 0.250251 -2.66095
0.314453 -1.09491 -4.56066
0.427576 -0.35156 -3.82122
0.380608 0.0247715 -5.09621
1.53609 0.0357462 -3.08845
0.193427 0.102734 -3.28368
0.411066 -0.235245 0.0881689
-0.665473 0.412807 -1.66702
-2.29462 -0.582302 -2.74518
-0.746645 0.76393 -3.97148
-0.0335612 -0.394359 -1.68855
-0.0891801 -0.809949 2.31939
-1.07059 -0.27602 0.736145
-0.762797 0.338479 0.152939
-0.85791 -0.954076 4.71185
-0.899282 0.522556 0.0114318
0.84047 0.0281858 -0.158705
-0.598984 0.0214667 0.269471
0.171887 0.603943 3.24635
2.32114 0.0137916 0.305098
1.6947 -1.5736 1.05981
2.4241 -0.150102 -0.381228
2.18692 -1.37804 0.562435
1.80767 1.11793 2.1801
0.252696 -0.943941 -0.670678
-1.13558 1.2167 0.291429
-0.724048 0.151866 0.137436
-0.557565 -0.583319 0.347439
-0.176063 -0.817981 -2.73253
0.70943 0.34156 2.07759
0.663037 -0.819752 1.07398
1.49404 0.327838 -1.25024
1.461 0.31791 1.18216
-0.114846 -0.243056 -0.265626
0.341715 0.598223 0.631465
1.91344 -0.579977 -1.69458
1.62138 -1.54172 -1.72775
1.20007 0.287242 1.35245
0.360751 2.89163 -0.727017
0.520655 0.1759 1.08876
1.08381 0.169264 2.87657
1.44504 -0.26873 1.17867
0 0 0
0 0 0
0.606874 -0.743999 1.31444
-0.120099 -0.495183 2.83111
0.637808 -0.895277 3.04916
-0.78967 -0.0533012 2.34248
0.711472 0.0236204 -0.0939836
0.193639 0.700467 0.996747
1.47472 0.451053 -1.12986
-0.841227 0.474089 2.7118
0.696908 1.24603 -0.828643
-1.02728 -0.0582873 1.91526
0.784918 -0.313327 -1.97551
1.20913 -1.0149 -0.200983
-0.990759 -2.34222 -1.43316
0.835932 -0.800753 1.11402
-1.71703 -0.905113 -0.152412
-0.249463 -0.206619 2.75924
0.327322 -0.629639 -0.865119
-1.15723 0.0766691 0.365339
0.511063 -0.87093 -1.13226
-0.797349 0.211845 -0.279577
1.23129 1.65082 1.77093
-0.785517 -0.498248 0.348317
0.742243 0.0799309 1.48782
-1.45596 -0.369488 -0.163209
-0.144457 0.11059 1.53768
0.691926 -0.633159 0.0850067
0.98139 0.0506741 0.545129
0.743562 0.63541 -1.91266
-0.365722 -0.548124 -2.02395
-0.256895 0.242223 -2.9922
-0.359889 -1.17683 -0.983842
0.00143698 -1.17134 -0.29302
-0.600084 -0.618003 0.00570618
0.898804 -0.0814129 0.279408
-0.191042 0.180659 -0.929519
-0.364836 0.352464 0.919454
0.23205 -0.317852 -1.35672
0.183535 -1.26633 1.87278
0.936524 -1.59787 -0.00037842
0.95585 -1.19538 1.90347
-0.950306 -1.2943 -0.239415
1.76485 -0.0504171 -0.297326
-2.09384 -0.142899 -0.921786
1.88004 0.049223 -0.414616
0.282449 0.321207 -1.04793
0.185942 -0.18754 -1.53502
0.36743 -0.102869 -1.76044
0.156054 -0.824125 -1.98707
-0.0791485 0.855134 -1.44947
-0.675795 1.29412 -1.27653
-0.204133 1.58393 -0.797114
-0.0637315 1.6659 0.19659
-0.852271 0.701849 0.11373
0.43374 -1.18197 1.12095
-0.204525 -0.788757 0.615613
-0.508635 -0.40472 -0.122657
-0.203526 -0.726413 0.907827
0.432838 -1.0086 -1.41415
-1.59 -0.854496 -0.94129
1.25701 -0.110029 -2.17184
-0.970843 -0.478671 -1.36305
0.374544 0.93635 -1.53428
-0.5354 -0.420164 -1.35085
-0.37094 -0.0683982 -1.49312
-1.10438 0.531306 -0.868259
-1.05241 0.956373 0.346431
-0.563264 0.545272 -0.810561
0.346944 0.963331 -0.207043
1.43475 0.906611 -1.14328
-0.987873 -0.656865 0.587553
0.908425 0.143059 -0.737498
-0.901309 0.283049 -0.492786
1.31957 0.130747 -2.24225
-0.978693 1.10138 -0.409972
0.638286 0.985221 0.42994
-0.33088 -0.478437 -0.917102
0 0 0
0 0 0
-0.81652 0.844513 -0.705185
-0.24945 0.117502 -1.19156
0.729756 0.205435 1.67613
-0.423811 -1.36199 0.0593117
-0.535324 -0.252469 -1.55983
-1.29159 0.347736 -2.56091
1.22316 -0.312803 -1.15608
-0.256497 0.21851 -2.68046
0.0652309 -2.20187 -1.05126
-1.16991 0.357468 -3.9438
-1.05098 0.618505 -4.71896
-1.08439 -0.611178 -2.72201
-0.93271 0.225807 -4.502
1.39462 -0.224668 -7.55934
0.235179 -0.210357 -6.09774
1.29375 -0.160272 -6.61724
-0.202316 -0.605849 -2.66254
0.923307 -0.0543247 -2.42989
0.160653 -1.16444 -1.41502
-0.309868 -0.675052 -6.35824
0.0601989 -0.0558715 -5.40738
0.0205121 0.471158 -5.18509
-0.174185 1.79671 -5.45946
-0.440605 -0.219102 -8.51561
-0.00136637 0.383749 -4.60541
-2.16587 1.27395 -7.67077
-2.1752 -0.856244 -5.47161
-1.33209 0.75593 -9.29532
-1.59848 -0.593176 -3.69554
-1.31375 0.612488 -3.14649
-1.82834 0.228933 -1.65928
-0.427564 -1.04771 -5.38385
-1.1262 -0.740214 -3.509
0.153505 0.155435 -7.15565
1.48472 0.0148877 -5.10691
0.511674 0.0805502 -10.2817
1.01316 -0.88483 -6.13117
0.675256 0.944196 -6.47544
2.1083 0.50158 -1.86381
0.744636 0.199283 -4.15103
1.66818 -1.66535 -2.18654
1.10898 1.18453 -2.62424
-0.0482937 -0.963747 0.0547223
-0.132568 -0.520899 0.137361
0.693479 -0.283253 1.68993
-0.32922 0.870106 2.74961
-0.212713 -1.17971 4.70544
0.571978 1.6347 4.76623
-0.198915 -0.0586781 1.5216
-0.849106 1.02557 0.350567
-2.05518 -0.579439 1.62715
-2.53632 0.358994 2.99649
-1.88581 -1.58939 -1.58124
-2.19091 0.866578 2.68207
-0.60596 -1.26752 1.04484
-0.353651 0.762114 4.27838
-1.12669 -1.54049 -2.02269
-0.597935 0.676277 1.95526
0.132776 -1.0285 0.0610072
0.0136555 0.947523 0.261772
0.484911 -0.762266 0.693593
-0.685375 0.107362 -0.239784
-0.948186 -1.40855 1.06032
-0.929222 0.511455 -1.64133
-2.14367 0.00487618 -0.249123
-0.765711 -0.127419 1.92831
0.218581 0.416212 -1.90204
0.077057 -0.0980318 1.45054
-0.926387 -0.156776 -1.01074
0.075528 -0.45092 3.42271
-1.23509 1.71176 -3.01602
-0.823889 -0.475936 -0.16671
0.0653581 1.33065 -0.964495
0.871552 -0.319888 3.919
1.18523 2.29605 -1.30755
0 0 0
0 0 0
-0.45542 -0.0785378 -0.386096
-1.14681 0.19895 0.345948
0.320482 -1.11797 2.19919
0.29193 -0.625089 0.156993
-0.240159 -1.45542 2.14979
-0.065506 -2.04378 -1.78344
-1.80674 -1.66313 -0.274023
-0.00449684 -1.10285 -3.8099
0.0985589 0.705528 -0.160126
-0.10058 0.543567 -2.10951
-0.460467 0.916386 -0.0817113
0.506088 1.55013 -1.89189
-1.82743 2.15994 -0.174277
1.39834 0.491436 -0.559787
-1.49742 1.39233 -0.498556
-0.505968 0.814973 -1.17849
1.39167 -0.211511 -2.06604
-0.264571 0.891596 -1.2129
0.916817 0.125977 -2.17815
-0.94023 -1.30075 -2.06451
-0.0695035 -1.21502 -1.46639
-0.259372 -0.37351 -2.58172
-0.00963076 -1.00219 -0.0198004
-0.763369 0.397115 -0.824718
0.737348 1.15965 1.08035
-0.262376 0.600201 -0.14767
0.704546 0.0733107 0.456175
0.0747183 0.823939 0.03566
0.397118 2.60422 -0.752655
-0.978045 1.35785 -0.250592
0.282815 1.37375 -0.337147
-1.37867 0.0884269 1.08166
-0.200911 -0.843358 1.32529
-0.676195 0.106157 -0.0432459
-0.277104 -0.48894 2.02888
-1.36745 0.531232 -0.141032
0.624969 -0.0723447 2.57273
-0.617334 0.473416 1.64166
0.581662 0.976295 2.58701
0.669302 0.0555028 -0.0906393
-1.17591 0.423615 -0.952941
0.682889 -1.33326 -0.821327
-0.694306 -0.753342 -1.2932
1.25014 -0.345177 -0.272431
-0.49538 1.33109 1.32815
1.05317 0.475345 0.00263023
0.0582086 1.06474 1.85193
-0.327741 0.511591 -1.79949
0.731798 -0.141068 0.968939
-0.774944 -0.421229 -2.92664
-0.91723 -1.15665 0.0601469
0.71141 0.0209033 -2.39592
-0.145462 -0.0699735 0.409706
0.895342 0.198972 -0.912108
0.599735 0.610035 0.770632
0.0654933 -0.83732 -2.40938
-0.49256 0.0201227 -0.905063
-0.255118 -0.203128 -3.58607
1.12255 0.558929 -0.641936
1.2734 0.743884 -1.79598
-0.00766411 1.618 -0.777286
0.309177 -0.27882 -2.66351
-0.557865 0.166906 -0.486545
-0.160589 -0.603835 0.208664
0.136484 -1.12049 1.86158
-0.111534 -0.374914 2.10462
-0.292366 0.474743 2.38639
0.597641 -0.595999 1.6614
1.0391 0.485741 -0.332196
-1.00792 -0.562424 -0.291844
0.762498 0.330096 -0.457512
-2.00545 -0.262329 0.752533
1.49094 -0.0279607 -1.14263
0.189616 2.01166 -1.4904
1.41741 0.788508 -2.9001
-0.596006 -0.393709 3.14477
-0.937681 0.543693 -2.58355
0 0 0
0 0 0
0.202582 -1.14029 -1.82642
-0.610056 1.02952 -0.0285012
0.341212 0.890797 1.47973
0.022246 -1.36928 0.804813
0.0525518 1.10789 3.61706
-0.474765 -0.112483 -1.87242
-0.907696 0.308759 -1.06957
-0.916948 -0.0621057 -4.19455
-1.89081 -1.69937 -2.27325
-0.541167 0.388078 -1.89621
0.215345 1.39346 -4.08349
0.0624935 -1.17511 -2.44265
-0.802879 -1.0895 -5.766
0.001168 -1.32667 -3.37334
-1.30728 1.4739 -6.82301
-1.17185 1.30799 -2.23278
0.106267 -2.7748 -2.08344
0.43004 1.57351 -3.87481
0.280371 -1.75523 -3.98155
0.519384 -0.931783 -5.88304
0.99225 -1.22905 -5.97729
0.430222 0.518417 -3.58716
-0.767646 -0.477727 -3.10951
0.527414 0.224939 -5.29441
2.24434 -0.458369 -2.78136
1.80434 0.99128 -4.63134
0.312228 -0.584476 -1.77411
3.12912 0.667854 -6.46162
0.885969 -1.39126 -6.48399
2.08396 -0.999187 -7.06713
0.0562053 0.681277 -3.53867
0.386769 -0.946978 -4.95953
0.518501 0.450093 -4.52662
-0.0414388 -0.0286431 -2.76659
-0.241022 -0.315148 -2.40078
-1.21194 0.160954 -3.62398
-0.433834 -1.21147 -4.51378
-1.12759 0.891129 -2.12317
-0.605015 1.28391 -0.786461
-0.564067 -0.377773 -0.319921
-1.02107 -0.374914 -2.39151
-2.12549 0.612616 -4.1001
-0.815588 -1.36207 -2.21588
0.354446 0.471088 3.17051
0.221297 -0.33648 0.803641
-0.863938 -1.55044 3.17681
-2.05306 -1.73846 5.85476
0.262932 1.26766 2.76291
1.18904 -0.700847 1.38022
0.732507 0.604963 1.51298
2.61598 -1.04358 4.04448
2.21972 1.46807 2.15628
1.73056 0.180819 1.01267
1.20851 0.997992 -2.24437
2.27698 -0.969885 -0.835336
1.66745 0.525161 3.05139
1.52001 -0.759744 -0.541727
0.525849 0.774155 0.518848
-1.8036 -0.0616755 0.19898
-0.788972 -0.340447 1.16209
-0.0785618 -0.715791 -2.51095
0.366994 0.50051 0.866746
0.695868 -1.47746 -1.98783
-0.274951 -0.384534 -0.996078
-0.471928 0.808003 1.24823
-0.366125 -0.691851 -0.33984
-0.327674 1.25481 -0.904762
-0.672087 -0.843591 -0.872814
0.5562 0.928411 -1.16904
1.64111 -1.16221 3.34056
0.891145 2.08382 -0.196044
0.0114028 -0.964464 -1.0462
-0.210763 1.91781 1.24128
-0.0277799 -1.30157 0.699154
-0.65103 1.01362 0.943972
-0.777247 -0.570897 0.908681
0 0 0
0 0 0
-0.545791 0.776915 0.642038
-0.323492 -0.611596 2.24104
0.5257 -0.46904 2.43232
2.16879 0.420254 2.87497
-0.36479 1.44175 1.21117
1.03246 2.12359 1.85991
-0.280112 0.78945 0.435187
0.00502493 0.624686 1.39932
-0.389276 -0.345155 0.341561
-0.409052 -0.267221 0.702952
0.35429 -1.83057 -1.38381
1.17413 -2.04788 -2.40343
-1.00613 -1.87309 -2.13643
1.61814 -1.65425 -1.22333
-0.201124 -0.666353 -0.143863
-1.1656 -0.604066 1.46472
-0.21649 -1.07014 -0.470915
-0.227363 -0.626455 -1.29431
-0.248107 -0.89928 -0.954526
0.121064 -0.392974 -1.62248
0.779448 0.77163 3.04392
-0.953448 0.220006 -0.655341
-0.117518 0.480028 2.49392
-1.00228 -0.377089 -1.78534
0.710695 0.580651 1.36515
-2.12968 0.278747 -1.85902
0.298219 -0.731621 0.000239957
-2.2079 -1.36158 -2.97085
1.48388 -1.48312 -0.739381
-1.10704 -0.754569 -2.83747
0.168688 -0.878952 0.877708
-1.22002 0.0727745 -0.598858
0.891909 -0.575337 0.518295
-1.59501 -0.226544 -0.611368
1.28224 -0.0311899 -0.665697
-0.0619115 -0.201487 0.368269
1.04274 1.05817 -0.594109
-0.200339 -0.60578 0.607858
0.762449 -0.474022 -2.25097
-1.37958 -0.425765 -1.18437
0.312134 -0.972165 -2.94487
0.11678 0.337393 -2.14648
0.862131 0.566727 -2.78775
-0.0601889 0.93325 -2.4276
-1.23926 0.401963 -2.81753
1.52768 -0.802816 -3.30069
-0.997758 0.223628 -1.87133
4.28371e-05 0.41894 -2.46149
0.0395648 0.185134 -0.480088
-1.13861 0.709615 -1.95069
-0.611498 1.22675 -1.10409
-0.523851 -0.152215 -2.29607
0.70088 -0.095995 -1.03371
0.0713843 1.21848 -1.30567
1.46765 0.145791 -0.103817
-0.820411 1.18253 -1.18238
-0.00836645 1.3388 0.630103
-0.246558 0.0303438 -0.495777
0.435595 -0.518527 2.0971
1.10652 -0.303873 1.68159
-0.492582 -0.762095 2.64
-0.396887 -0.14405 1.30957
0.699076 -0.203238 0.744306
-1.27182 -0.160257 -0.357332
0.42979 0.681495 0.950074
-0.184501 0.169731 0.992902
-1.53823 0.629034 1.11774
-0.277854 0.598718 0.0524375
-0.666522 0.12641 0.370295
-1.15736 0.183301 -0.767348
0.441975 0.424348 0.391004
-0.204706 0.12597 -1.7536
0.510895 -0.579566 0.901094
0.255845 -0.362927 -0.833016
-0.642277 -0.726174 0.53209
-0.427421 0.828996 0.300816
0.897632 -0.205102 -1.32701
1.51115 0.680179 0.527276
0 0 0
0 0 0
-0.0523044 0.289152 0.0569651
0.21038 -1.10953 -0.240248
0.33753 1.63139 1.21538
-0.194135 0.707372 -0.18711
0.00249033 -0.775641 -0.708151
-0.172809 -0.45109 0.968
1.07294 1.02993 -0.258476
0.538859 0.77321 -2.77519
0.670187 0.72455 -0.729016
0.663825 -1.03596 -1.20556
-0.153782 1.43244 1.47526
-0.192107 -1.68416 1.48415
0.783765 2.3609 -1.87687
1.11722 -1.97747 -3.36749
0.340664 -0.259065 -0.307702
0.8421 0.520546 -1.53111
-1.1553 -1.14086 -2.72294
0.8181 2.6671 -0.434638
-1.13969 -1.66077 -1.70549
-0.981707 1.18 -5.45839
-0.747203 -0.955928 -6.32222
-0.398329 0.36251 -3.61507
-2.66922 -0.599279 -5.1025
-0.740187 0.0773237 -2.53851
-1.35663 -0.207384 -0.641955
-1.79798 2.85406 -0.911164
-2.13196 -1.60925 -1.31687
-2.77764 1.96747 -4.14627
-2.80491 -1.05944 -4.44274
-1.62457 0.177334 -1.94085
-0.205471 1.33095 -2.68614
-1.59877 -0.783626 -5.4499
-1.05005 1.23116 -4.82785
0.26782 0.350021 -3.11231
-0.568932 -1.27166 -2.52942
0.295768 -0.463515 -7.94991
0.26711 2.02198 -6.94701
1.1463 -0.722137 -5.43083
-0.538205 1.15446 -0.604826
0.609648 0.37425 -0.581723
2.14766 0.185806 1.29095
1.2403 -0.3735 -1.25534
1.31504 -1.24388 -0.821466
-0.342745 -0.0667161 -1.4994
0.709163 0.777192 -0.253941
0.278522 1.04525 0.644279
-0.320476 -2.11441 4.67163
0.695049 1.20334 2.4292
-1.13138 -1.69739 1.61269
-2.26949 1.91594 -1.7605
-1.35705 -1.11324 1.20441
-1.87202 1.98023 1.54571
-1.92992 -1.16243 -0.351227
-1.8925 0.858525 -0.417475
-0.516548 -1.4222 0.725687
-0.576997 0.397757 1.68577
-1.58902 -0.343139 0.230846
-0.297129 -0.684603 0.144339
-1.35238 -1.61703 2.02175
-0.344641 1.26487 -0.909492
-0.309116 0.502444 2.48205
0.30286 1.12734 -2.48536
0.274185 -0.412943 0.154211
1.09739 -0.106296 -3.06427
1.23044 -0.0328854 2.8157
0.953152 -0.344578 2.15595
1.05591 0.701436 -1.07309
-0.159836 -1.61179 0.288637
-0.536227 0.671506 0.721024
-0.217215 0.172376 4.29318
-1.36919 1.13734 -2.41846
-1.7148 -1.9927 -0.915284
0.452868 0.738325 -0.809494
0.56372 -1.12507 2.78962
0.834689 1.96518 -2.74214
0.0012215 -1.72665 3.98644
-1.40193 0.552745 -1.41455
0 0 0
0 0 0
-0.681502 -0.886515 -1.09829
0.414494 0.093809 -1.5761
-1.13735 0.0935006 0.309083
-0.178138 0.000300841 -0.704166
-0.612182 -0.668125 2.86313
1.18674 -0.71981 -0.606337
-1.40815 -0.353445 1.79371
1.20641 0.810571 -2.96709
-1.6704 1.50611 1.92743
0.596304 1.70322 -1.54788
-0.906057 2.62977 1.86586
1.30579 2.18531 -1.87108
0.0999905 3.03595 0.913911
-0.066232 1.90066 -1.21074
0.223474 0.2042 1.03666
-0.713299 1.0208 -0.620736
-0.536108 0.691754 1.53963
-0.184076 -0.659057 1.1433
-0.684982 0.378611 1.06548
0.0747066 0.109877 -1.31042
0.403601 -1.36718 -0.355948
-0.704573 1.14892 -3.21158
0.620933 0.418945 0.476243
-0.570181 0.39108 -1.85821
1.58731 -0.0693935 0.224865
-1.26612 -0.450926 -1.43714
1.88989 -0.623082 -0.535983
-1.3094 0.284449 0.170085
1.43608 0.92582 0.70137
-1.05511 0.692527 0.821555
0.908952 1.29968 0.679279
-2.06349 -0.253559 -0.908693
1.21409 0.0445721 0.144589
-2.17983 -0.108743 -2.86519
1.35714 0.785429 0.645377
-2.39292 0.96059 -3.05789
0.723121 0.825904 0.615791
-2.43618 0.806434 -2.07831
1.34972 -0.586464 -0.47953
-0.990047 0.743219 -2.05303
2.07743 0.240945 -1.65187
-0.443907 -0.116777 0.0515777
0.976709 -0.990931 -0.718833
0.253481 -1.36845 0.930455
-0.496668 -0.0436491 1.61707
1.55121 -0.519678 1.282
-1.44302 1.67466 3.50422
1.58239 0.334619 0.532289
-0.207237 1.72766 3.21557
0.245715 -0.225499 -1.37021
-0.312064 0.759263 1.07687
-0.617647 -0.399087 -2.43588
1.66215 0.197597 1.02523
-1.04504 -0.27594 -1.20257
1.20316 -0.569813 1.45728
-0.743651 -1.4447 -2.35384
-0.00781295 -0.950078 -0.378966
0.426093 0.38582 -2.37338
-0.263856 0.301845 1.74599
0.563376 -0.656882 0.659191
-0.45332 0.128664 2.0895
0.340817 -0.305013 -1.01281
0.925791 0.290431 0.607869
-1.04983 0.605037 -0.59342
1.04862 1.52014 1.3192
-1.31009 0.322074 -0.925892
-0.130014 1.1932 1.10941
-0.0590394 1.31972 -0.802203
-0.685439 1.65129 0.151604
-0.200764 1.48137 -0.386687
1.3723 2.11401 1.76736
-0.0115823 0.941242 1.43878
0.174422 1.60245 2.36217
0.728842 -0.520203 0.548947
-0.13023 1.10484 0.66902
0.016458 -0.651331 -1.53718
2.2894 0.56179 1.4384
-0.77213 1.16924 1.19947
-2.81134 -1.47742 -0.421831
0 0 0
0 0 0
-0.0918584 -0.495008 -1.6776
0.0838958 -0.0684624 0.369778
-1.08321 0.452873 -0.81248
0.248545 -0.418217 -3.00294
0.742175 0.502224 1.49236
0.84124 0.770208 -0.48098
0.115798 -0.0188967 -1.24002
-0.229658 0.821294 -5.90563
-0.943516 -0.5521 -2.12057
-1.66848 -0.456952 0.887572
-1.55705 1.938 3.39562
-0.476573 -3.41002 0.683903
-0.865197 0.614702 -3.9032
-1.05779 -0.852002 -2.50361
-1.19618 0.517446 -3.19202
-0.0435119 1.53654 -2.49282
-0.756177 -1.01792 -1.52653
-0.0317836 3.29412 -3.58979
0.191045 -1.98424 -3.84182
2.0721 0.812528 -6.87363
-0.973828 0.095628 -5.90042
0.197517 0.892782 -2.99662
1.12064 -2.14963 -0.999074
2.06538 1.62414 0.0406846
0.565959 -1.74258 -1.51652
-0.445606 1.16389 -3.6321
0.919612 -1.7548 -3.3182
0.984233 1.04797 -3.71284
1.00299 -1.27364 -6.72255
0.48636 -0.979026 -3.39897
0.762024 0.953799 -4.33145
2.10603 -0.994331 -7.11453
0.861443 -0.258441 -10.2522
-1.42208 -0.169653 -3.83879
-0.587269 0.509657 -3.94115
0.902814 -0.371629 -3.89772
-1.453 0.703397 -7.4949
-1.22556 0.129277 -3.94212
-0.841069 0.212883 -1.48772
-0.924774 -0.582655 0.677626
-0.522378 0.462716 -0.476657
-1.25524 -1.46074 -1.51437
-0.917391 -2.3032 0.844836
0.0625908 1.37168 3.85027
-0.186468 -0.139661 -0.954419
-0.43956 0.484292 2.73819
0.712564 0.406585 5.00641
-0.353058 1.12043 1.51041
-0.427855 0.0102987 -0.781432
1.60474 0.974893 0.979823
2.1983 -2.04165 1.73257
1.21144 0.887295 1.91455
0.690535 -1.24283 1.91554
1.77041 0.829493 -2.34977
0.415115 -0.843262 -0.152563
-0.680926 0.476218 1.69019
-0.894522 -1.48494 -0.437757
-0.917456 0.723821 -0.513677
-0.332472 0.316911 0.0398396
-0.351431 0.0414675 -0.574297
1.36385 -0.205529 -2.17598
0.696087 0.127402 0.816611
0.363814 0.752619 -2.6151
-0.508427 -1.04416 -1.8885
-1.66767 -0.6101 2.77346
-0.888745 -0.329033 0.878323
-0.819855 -0.219055 -1.37944
-0.0887641 0.293968 -1.90125
0.416693 -0.367832 -1.21155
0.197272 -1.51972 3.36618
0.261273 0.95867 -1.56551
-0.344171 -0.69977 -1.31604
-0.243382 2.02401 2.15891
-2.16585 -1.82154 -0.260542
-1.26607 1.78835 -1.5682
-0.649263 -0.615448 0.901336
0.868915 0.751073 -0.311919
1.18411 0.386808 0.574316
0 0 0
0 0 0
-0.243036 -0.13015 0.356344
0.899266 0.780615 0.769843
-0.532081 -0.593722 0.0513983
1.98052 -0.465464 0.842236
-1.37844 -0.0412868 -0.458263
1.01538 0.0278453 1.48193
-1.72275 1.04404 0.948571
0.914359 -0.249786 1.56573
-0.970202 -1.98966 1.04347
0.70383 -2.017 0.239644
-0.47698 -1.89641 -0.931
1.38695 -1.8205 -2.30448
0.395722 -2.60816 -2.26383
-0.816411 -0.912782 -0.790617
0.69129 -1.87269 0.140381
0.288798 -1.46021 2.66934
-1.37008 0.36507 0.864066
-0.34545 -0.956968 1.15628
0.593443 -0.905708 -0.47794
-2.07106 -0.518069 -0.315978
0.123483 0.304765 0.798373
-1.16543 0.405028 -0.411472
1.326 0.54459 0.127664
0.500442 1.04002 -0.586863
0.550707 -0.109246 -1.18209
-1.05606 0.541504 -1.4023
0.507935 0.539667 -3.15122
-1.31086 0.565908 -1.64125
0.64479 -0.865361 -1.37982
-0.815269 -1.03321 -0.0470697
1.13143 -0.343264 -0.0417016
-2.82955 -0.337163 -0.273233
1.33556 -0.492681 -1.7395
-1.84082 0.747374 0.351785
1.61043 0.548287 -1.28087
-1.66306 -0.304702 1.38571
2.52332 -0.155529 -1.46146
-2.30207 0.315877 0.453403
0.646946 0.175293 -2.73727
-1.33656 0.1937 0.724376
1.12332 -0.0563632 -1.25214
0.136851 0.137508 1.54996
0.629168 0.138433 -0.688407
-0.788449 0.471154 0.253491
-0.882058 0.702446 -2.48986
0.404149 0.140624 -1.95314
-0.498987 0.634196 -2.08624
0.355865 0.451962 -1.44398
1.324 0.651595 -0.792559
-0.605934 -0.626505 -0.268009
1.12481 -1.48985 -0.0736683
-0.295742 -0.824238 0.935181
0.713661 -1.47841 0.417544
0.140718 0.428849 1.08152
0.145762 1.17634 -0.758362
-0.0471326 0.481764 0.783924
0.580858 0.931337 -1.63544
0.449103 1.01645 0.902767
0.999481 -0.34237 -1.53488
0.089732 -0.0740206 1.75494
-1.35787 -0.252427 -1.57652
0.475902 0.00055898 1.49972
0.57366 -0.855705 -2.20343
-1.64803 -1.45732 0.690301
3.02193 -1.06906 -0.989815
-1.58482 -1.95606 1.29166
3.06582 -1.99036 -1.30792
0.26321 -1.84243 0.291328
2.09872 -2.48891 -0.904301
-0.910076 -2.25125 0.601503
1.04266 -1.56022 0.463389
-0.901403 -1.18765 0.278062
0.763807 -1.38256 1.80042
-0.506216 -1.21585 2.14718
1.51172 -0.892233 1.59193
-0.423516 -0.668692 3.54173
1.08325 0.949786 1.95834
-1.63222 1.70928 6.31157
1.24796 -0.738799 3.24471
1.52703 1.23086 4.33285
0 0 0
0 0 0
-0.50381 0.645147 2.25327
1.10103 -1.58432 1.95065
1.0561 0.830032 0.676924
-0.611463 -0.257475 -2.21684
0.744792 -1.24915 -1.58044
1.6447 -1.29101 2.9164
1.28458 -0.450671 -1.91132
-0.0266652 0.376718 -4.83718
1.00422 -0.17506 -2.85898
1.33374 -0.642279 -0.860969
0.438469 1.69694 2.30817
-0.0775686 -0.347078 -0.701709
1.30653 2.44762 -6.66883
1.38079 -2.97321 -7.13944
3.3877 1.68219 -4.19611
2.18736 -0.664656 -5.38211
1.92265 0.448289 -6.3741
1.8046 1.46274 -0.872541
0.460533 -1.06735 -2.9698
0.768426 1.90141 -6.72663
0.791804 -1.85011 -6.85185
-1.71408 0.416983 -5.85535
-0.772367 -2.30053 -5.34126
-0.730721 2.37893 -2.88743
0.116808 -1.82062 -4.90909
0.126895 0.867219 -9.07617
0.339609 -1.11943 -8.14231
-2.17748 2.07386 -8.03388
-1.23491 -1.0392 -6.55792
0.434854 -0.461787 -3.08727
-0.135866 0.790235 -2.84491
0.0281334 0.180936 -6.78062
-1.96586 0.8908 -6.56445
0.0373872 -0.179576 -4.20452
0.247183 -1.06959 -2.55652
0.273606 -0.583754 -7.70644
0.982682 -0.0595494 -7.53667
1.43405 -0.232883 -8.49812
1.48084 0.447993 -2.47759
0.503573 -0.696607 -2.70614
0.262687 0.875534 -0.359125
0.793034 -0.743859 -0.718014
1.36207 -0.975963 1.64863
0.349295 -0.588671 0.842332
2.08591 0.299107 -1.83443
0.0466245 0.727171 -0.280216
-0.357778 -0.477136 4.72255
0.440129 -1.04115 2.28084
-1.38042 -0.0338615 1.88253
-0.176617 0.476081 -0.983895
-0.0383999 -1.48284 1.23027
0.366706 0.0768896 2.90839
-0.519852 -0.932381 1.45051
-0.609863 0.661737 0.0232987
0.476993 -0.721201 2.72028
0.653659 0.959402 0.977297
0.00674884 -0.578849 -0.158692
1.18631 0.756689 -0.802819
0.0591719 -1.92235 1.79058
-0.89619 2.06109 -2.11004
0.271891 -1.77714 2.80519
-0.321324 1.36336 0.0714151
-0.335836 0.411916 1.94192
0.47948 -0.758679 -3.42066
0.123521 -0.83152 4.00755
0.109267 0.352899 3.60001
0.271191 0.897183 -0.659036
0.340811 0.143359 -1.06322
0.740356 -0.443917 1.41956
0.0847243 -0.0592906 3.34535
-0.491351 1.30951 -4.05024
0.281712 -1.9973 -0.981362
1.23561 1.75979 1.31404
1.5008 -1.76431 2.32899
0.581807 1.59335 -3.93333
0.131956 -1.3775 2.56203
0.129541 1.3627 -1.71449
-0.478107 0.605969 -1.45675
-2.16006 -1.49482 -0.960696
0 0 0
0 0 0
0.473456 -0.540559 -0.830894
0.166794 0.71328 -1.69807
-1.18197 1.31138 -1.55108
0.456125 0.20455 -2.38991
-1.97439 0.667899 -0.172539
2.38189 0.888339 -0.478853
-1.38301 0.148677 1.33022
1.28025 1.65657 -1.43806
-0.378808 0.340409 0.987349
1.35343 1.60658 -1.22451
-0.267757 2.95374 1.2251
-1.17869 2.28223 -0.925919
0.531546 2.32875 0.687335
0.222372 2.21149 -0.624943
-0.690997 1.27506 0.476341
0.712516 0.495882 -1.04981
-1.35564 0.593911 0.70269
-0.0235786 0.370847 1.05349
0.576405 -0.591784 -0.0978377
-1.10811 -1.24358 -0.82659
1.14185 -0.607116 -2.41757
-1.04285 -1.26685 -2.58246
0.845444 -0.472073 -1.44659
-0.0519364 -0.739631 -0.241269
0.755629 -1.09749 -0.828861
-1.38957 -0.67738 0.421441
0.929326 0.389758 -1.54096
0.118475 -0.0555763 2.25471
0.566 -0.139062 0.916292
-2.02007 -0.111211 3.78592
1.33805 -0.405297 1.52362
-3.60055 0.540977 0.996246
1.3438 0.441705 1.24103
-2.9867 0.912005 0.264819
2.3027 0.103852 2.97645
-3.33016 -0.0171495 -0.553161
3.94035 -0.925404 1.73146
-2.11658 -0.0971039 -0.992776
2.44327 0.0146589 0.977827
-1.10996 0.479503 0.258754
0.910016 0.0150972 0.24146
0.304821 -0.0566236 1.5351
0.272645 1.15521 0.707831
-0.297244 0.31952 1.80358
0.696589 -0.264568 2.15542
-0.0738517 -0.17457 1.29032
-0.78994 -0.483393 2.64512
0.699703 0.16392 -0.344704
-0.878832 0.137483 1.54603
-0.563463 0.556051 -0.797986
0.769665 0.433911 1.60162
-1.21714 -0.300046 0.492406
-0.500174 0.594494 1.89123
-1.12186 -0.397009 0.296602
0.388448 -0.70025 1.01762
-0.915945 -1.47737 0.285435
0.715379 -2.462 -0.305416
-0.163417 -1.09203 0.805698
-0.244851 0.148108 -0.457896
0.21628 -0.167637 1.16439
-0.502307 0.671233 -1.50013
0.726715 -1.04179 0.376718
-0.587917 -0.946593 -1.39451
0.128417 0.802215 2.07453
1.38716 0.756391 0.162915
-0.821376 0.566518 1.29562
0.94089 1.72983 -0.487496
-0.119943 0.59952 0.997857
0.666079 2.36769 -2.59661
0.0568295 2.47337 0.717344
0.989926 1.86887 -1.97713
-0.838212 2.57575 2.10818
0.110028 2.65844 -1.14833
-1.12118 1.38411 3.25934
0.702757 0.859947 -1.23024
-1.07837 0.0155461 1.65437
1.79501 -0.601788 -1.49286
-1.29844 0.349282 1.26911
0.422381 -0.525393 -0.362546
-0.5416 0.0712339 5.62252
-0.809099 -0.108578 0.511633
0 0 0
0 0 0
0.168113 -0.186851 0.551837
0.43968 -1.14014 2.17477
-0.14462 0.244502 -0.390967
-1.90747 -0.242513 -3.12583
0.0463275 0.0290603 3.39472
-2.16187 -1.0203 1.06645
-1.88866 1.51528 -0.880509
-1.74489 -0.832922 -7.039
-0.803594 0.458993 -1.45877
-1.68527 0.0386794 -1.6401
-0.384513 0.806741 2.40269
-0.744248 -1.35328 -5.28014
-1.94168 -0.280216 -6.97017
-3.27846 -1.59078 -7.22835
-2.95852 1.09583 -4.81564
-0.594078 0.189045 -7.36502
-0.710306 0.397349 -2.57248
-1.80984 2.20232 -3.93293
-1.66091 -3.00802 -3.92875
-0.284875 1.97373 -8.18031
0.0284857 -2.57594 -4.26087
0.278973 1.9794 -4.8651
-0.250607 -2.22826 -0.0733395
0.597539 0.965289 -2.11805
0.643569 -2.81029 -4.17515
0.809636 0.367806 -9.36944
-0.288247 -2.53484 -5.97974
1.1371 1.50839 -5.24139
0.959004 -2.44097 -6.76411
0.160559 -0.712315 -4.69864
-0.619485 -1.41037 -4.59489
1.08204 -1.00407 -8.57928
1.15457 1.13996 -9.92557
0.571753 -0.325999 -6.04545
0.187748 -0.919182 -5.87802
-0.368892 -0.629994 -6.14426
0.0631462 -1.11636 -7.35061
-0.362793 0.00641474 -7.07444
-0.0813228 1.13773 -4.53886
-0.836545 0.0763241 -5.15455
-1.16449 1.84574 -5.08414
0.715876 -0.507988 -3.19691
-0.0197909 -0.603284 3.37809
-1.34253 1.50287 5.04368
-0.866628 -1.78915 0.942054
-0.49868 -0.272257 3.08906
-1.11948 -0.196715 6.54338
0.229715 -1.22922 3.43784
0.465777 1.21181 1.69991
-0.623155 0.635717 2.98716
-0.30213 -0.500261 3.2278
0.498492 -0.89256 4.72528
0.652379 -1.33276 2.5574
0.97904 0.858109 -2.44969
-0.0729125 0.0392434 0.517104
-0.504336 -0.532198 1.34655
-1.25356 -0.824437 -3.04978
-0.566565 1.89785 -0.756862
-0.585842 -1.86272 -1.01989
0.85073 0.745019 -0.423636
1.48003 -1.23597 -2.35652
-0.23577 0.77011 5.25676
0.223427 -0.781712 -2.29379
1.08062 -0.344959 -1.78681
0.279501 0.949426 0.214241
-0.765826 -0.651108 1.65123
-1.51374 1.13872 -3.47506
-0.655023 1.25908 -1.49817
0.430007 -0.490885 -1.57062
-1.79763 -1.65197 3.48287
-0.605977 1.34418 -3.56813
-1.91312 -0.780234 -0.454691
-2.14387 1.79459 3.705
-0.823125 -2.40743 1.28445
-1.48861 1.02168 0.375115
-1.39358 -0.639634 2.13373
-0.0269079 1.90082 0.326252
-1.24487 -1.05646 -1.41277
0.409808 -0.605932 2.64943
1.40717 0.274078 1.81131
0 0 0
0 0 0
0.21758 -0.605728 0.912688
1.10698 -0.329633 0.835213
-2.31665 0.749698 -0.709669
0.949391 0.0184707 -1.06155
-1.97814 -2.44551 -2.71554
1.62713 -2.70825 0.461839
-1.3281 -1.88791 0.926786
0.103442 -1.59304 2.0293
-0.400049 -1.63976 1.79467
1.67771 -2.69741 1.161
-0.483688 -2.5191 0.748187
-0.501144 -1.83797 -0.49617
-1.49448 -2.5886 -0.329036
0.54449 -1.9321 -0.0849385
0.117595 -0.865513 0.09149
1.10301 -1.80831 0.774378
0.458918 -1.5966 -1.04264
-1.76728 -0.446104 -1.37974
1.37594 -0.590069 -1.06776
-1.3689 0.539514 0.752297
1.3984 0.463625 2.37006
-1.401 0.801936 2.4289
1.42429 0.691903 1.68079
-1.38623 1.44971 1.70862
1.59741 0.676945 0.686587
-0.559112 0.675466 1.00299
1.00898 -0.185237 -0.363219
0.531311 0.124674 -0.212833
0.259041 -0.316905 0.38206
-1.8413 -0.547841 -0.0446224
0.776328 -0.275337 1.27433
-2.27656 -0.530519 -1.27641
1.15013 -0.63991 -0.305136
-1.17411 -0.990758 -1.20682
2.37928 -0.458427 -0.158562
-2.65945 -0.783034 -1.69564
2.43322 0.206387 -0.502982
-3.78306 0.158937 -2.77076
2.35002 -0.21903 -1.0872
-0.650243 0.669298 -2.08527
-0.620039 0.0918141 -0.515314
0.275766 0.308896 -0.917933
-1.15898 0.30901 0.861159
0.281108 0.0714122 0.461853
1.84549 0.471574 0.24102
-0.197839 0.507882 -0.26278
0.490453 0.537659 -0.710585
-0.231908 -0.46617 -1.43483
-0.127405 0.145869 -1.04086
0.0701932 -0.386622 -0.132181
-0.143662 -1.25924 1.60439
-0.740824 -1.25755 2.55677
-0.174972 0.0182776 2.49257
-1.58958 0.198128 1.2989
0.659187 2.00308 1.35442
-1.42936 2.30735 2.7699
1.44116 2.30106 2.20431
-0.42352 1.82018 2.74044
0.73844 1.46001 0.272187
0.658077 -0.240647 0.242506
-0.881431 -0.0301024 -0.826857
0.694396 0.128746 0.429943
0.528349 -0.263178 0.145413
-0.228261 0.228215 0.157653
1.11254 -0.0430579 1.24876
-0.395402 -1.18107 0.438933
0.499875 -0.987442 1.497
-0.292582 -1.62055 0.567749
0.402837 -1.20903 2.13296
-0.519639 -0.993975 -0.579779
1.95968 -0.682654 0.757887
-0.268859 -1.14596 -3.86915
-0.230993 -1.66943 0.95176
0.361142 -0.474735 -1.64239
1.07795 0.114786 1.71364
-1.33659 0.0249186 -1.37199
1.40397 0.563781 -0.424349
-0.61915 0.589798 -2.38951
-0.426932 0.563996 -0.774402
-1.4167 -0.310586 -2.9333
1.35911 -1.15965 -1.44137
1.40912 0.712312 -1.62304
0 0 0
0 0 0
-1.16975 -0.2876 3.41809
-0.059118 -0.0949917 0.4393
-0.233191 -0.746745 -2.09816
-0.253325 -0.689776 -3.73557
1.57861 -0.206976 -0.916248
1.51823 -1.28898 2.86595
0.312219 1.18449 -3.0146
1.35325 -1.66739 -5.12994
1.19223 1.86491 -2.7211
0.624904 0.887341 -3.30901
-0.940098 0.423804 -1.49156
-0.64891 -2.5497 -4.84442
1.2529 0.298998 -8.05282
2.40146 -1.30753 -8.20814
0.815759 0.886366 -4.65933
1.98883 -2.08303 -6.78606
2.14154 0.273664 -7.71773
-1.45296 0.291386 -1.63557
-0.537755 -0.362992 -4.71369
0.144829 1.59423 -8.05659
0.848451 -2.12893 -6.68356
0.0318215 1.81474 -7.26149
-1.13133 -1.36149 -7.41785
0.106045 1.88292 -4.62265
-0.239735 -1.65382 -6.55156
-0.35836 2.32805 -8.96959
-1.39149 -1.61891 -8.05883
-2.31982 2.75232 -6.03587
-0.978746 -2.14979 -5.30043
-0.32474 -0.860717 -2.02957
-0.711245 0.655491 -5.40127
-1.59582 1.99737 -9.12711
-0.738198 1.08168 -9.48632
0.389851 1.13677 -6.50767
-0.871381 -0.398219 -7.10616
-0.722134 0.365794 -10.359
0.306372 0.427355 -8.29614
0.348771 -0.430567 -8.16132
0.464968 0.20983 -2.93851
1.97474 -1.48103 -6.13181
0.599555 0.401249 -4.36348
0.239753 0.809144 -1.13384
0.738564 -1.03667 1.25235
-0.171959 0.88978 2.92505
1.18228 -0.0998335 0.07975
-0.262501 0.320445 2.54026
-1.16957 0.297862 5.5441
0.551619 -2.58968 6.09688
1.79627 1.03302 3.762
1.279 -1.14068 2.2719
0.830561 -0.0193479 2.12395
-1.03945 1.24755 6.31547
0.532837 -1.01103 -0.21264
0.0469306 1.45294 0.0708263
0.0176225 -1.43233 1.93172
1.77167 0.1508 2.32855
1.49448 -0.134795 -1.40155
0.463397 0.177519 0.805757
0.544352 -2.28252 0.577698
0.585921 1.79588 -1.09652
0.373435 -2.60137 1.0785
-0.757999 2.71637 2.10525
-0.627284 0.244497 -0.341656
0.862884 0.716335 -4.76098
-0.00962685 -0.541399 -0.108811
-1.03436 -0.221228 2.13605
-0.661201 1.82225 -2.87009
-0.00754076 -0.425462 -0.949347
0.145044 0.990607 1.39684
0.686714 -1.93391 2.74965
0.251251 1.1151 -4.20597
2.22579 -1.86745 -0.32264
1.69989 0.434168 1.8716
0.673092 -1.11485 3.33428
2.03201 1.55923 0.559503
1.44749 -0.14664 4.15457
0.393036 0.572492 0.188667
0.177117 -0.392403 -2.79234
-0.872385 -0.0661556 -0.778639
-0.689572 -0.633667 1.87959
-1.72218 -0.708102 -0.424061
0 0 0
0 0 0
-0.104793 0.797103 -0.238923
-0.528696 -0.137045 -0.767037
0.202954 -0.835654 -1.3461
0.139835 1.37736 -2.27508
-0.689383 -0.215705 -2.0013
1.25373 0.414798 -1.21505
-1.29121 1.52566 -1.34709
1.04137 1.61255 -1.85075
-1.0811 2.01231 -1.33294
0.645939 1.70041 -1.10503
0.0883192 2.00544 0.58277
-0.647605 2.19352 0.749038
-0.58815 2.30072 1.21133
1.90902 2.44122 0.281249
-0.585359 1.92399 -0.716249
-0.289609 0.942142 -2.7744
1.17749 0.0402329 -1.70943
-1.58853 0.118908 -0.991235
0.759277 -0.468814 -0.102958
-1.03469 -0.30372 0.503312
0.5433 -0.362207 -0.74565
-1.73611 -1.17137 -1.06793
0.737729 -1.21322 -1.61721
0.563536 -0.649847 -1.32961
0.771046 -1.43466 -1.79865
-1.00701 -0.949055 -0.350829
0.133824 -0.367143 -1.38587
-1.28221 -0.19908 0.441681
0.532917 -1.69807 -1.54696
-1.01956 -0.0370148 0.434322
1.31504 -1.28927 -1.26723
-1.26046 -0.513265 -1.20786
2.2906 -0.571828 -0.413295
-2.02316 -0.357525 -1.6403
2.47931 -0.00355044 1.30086
-2.61544 0.163624 -1.79161
1.50263 -0.71882 1.78416
-3.52886 -1.14621 -1.22873
1.527 -0.588267 0.882794
-2.15835 -1.59698 -1.15949
-0.142189 0.0912892 -2.04994
0.20002 0.849858 -0.850505
1.14722 0.297177 -0.888815
-0.815805 1.72785 2.30227
1.22554 0.347774 2.84669
-0.0724421 0.770492 3.76939
-0.840798 0.774693 2.59321
1.24749 -0.351717 1.09735
-0.593665 -1.09868 -0.0833676
-0.743291 -0.230653 0.0447305
-0.381176 -0.747752 -0.756139
-0.247272 0.67432 0.160344
0.0337547 0.484784 -1.54834
0.293146 0.102479 -1.05174
0.670332 -1.10642 -0.845491
-1.66308 -1.35715 1.29324
1.00465 -2.43165 -0.517912
-0.783021 -1.91544 1.68452
0.727087 -0.977595 -1.48098
1.09084 0.21977 0.999228
-0.057604 -0.270863 -1.57753
1.07565 0.576093 1.22365
0.578978 -0.670999 -0.882325
0.0979914 0.461156 1.42119
0.402597 0.412511 -1.29227
0.0180964 2.1471 -1.06534
-0.508278 0.625083 -0.913573
0.145616 1.81917 1.19845
0.763026 1.77751 -0.112814
-0.147474 1.7151 1.4826
1.5132 1.54865 -1.20965
-1.06919 1.82365 -0.64667
0.912529 1.34848 -2.94931
-0.871019 0.488218 -0.664769
2.86497 0.65596 -3.08407
-2.12983 0.722469 -2.64638
2.30838 -0.099623 -3.94715
-1.56406 0.660829 -3.67865
1.31254 -0.822254 -2.03954
-0.460986 -0.0115396 -1.44715
2.24894 -0.286433 0.380582
-1.05027 -0.142159 -4.055
-1.2221 0.30542 -0.126167
0 0 0
0 0 0
0.47165 -2.15287 0.314614
1.33305 0.23069 1.18689
1.63386 -0.00937534 -3.36195
-0.359125 0.0799821 -2.91183
0.0588222 0.903447 2.88894
-0.163537 -2.18641 2.16797
-0.483664 2.35728 -1.69756
-1.18697 -1.06219 -5.35016
-0.806524 0.76832 -0.781901
0.437486 -1.1661 -0.662479
0.774522 1.28288 -0.602474
-0.625053 -1.41561 -3.3278
-0.524864 0.58078 -6.66497
-0.866036 0.566031 -2.56363
-0.208804 1.47082 -5.75346
-0.846536 -0.228604 -4.72592
-1.25027 0.732256 -7.46567
-0.295259 -0.761915 -4.23286
-0.511407 -1.59606 -11.6832
-0.315213 1.38091 -10.3584
-0.695486 -2.11345 -8.85518
-0.979206 0.943909 -6.26958
-0.5829 -1.61634 -7.24566
0.804565 0.39431 -6.09123
0.555253 -0.460871 -8.76922
-0.097955 1.24179 -10.5856
0.844159 -1.40085 -10.699
1.18763 1.5859 -7.12483
0.629029 0.0764777 -9.49823
1.54768 -0.100129 -5.91619
0.0367 1.23527 -8.11981
1.49597 -1.031 -10.0461
0.975422 1.06361 -11.7954
1.06419 0.330812 -6.88547
0.660971 -1.12405 -8.95232
1.18189 -0.676547 -8.05763
1.7545 -1.11456 -8.19041
0.754173 -0.0189028 -3.73691
-0.873707 0.858839 -1.78768
0.209209 -0.291812 -4.684
0.381492 0.142277 -6.57338
1.23948 -0.776921 -1.81944
-0.312215 -0.0412991 0.799471
-0.648792 0.954581 3.66352
0.617873 -1.48749 0.88206
1.20264 0.807955 2.9992
-0.0926065 -0.428129 4.55585
-0.68184 -1.05882 1.97472
-0.408199 0.24108 0.231845
-0.198106 -0.809673 2.09311
0.839425 0.442183 3.18674
0.99636 -0.195034 4.40131
0.167564 -0.34517 2.17757
0.595395 1.52121 -2.9511
-1.37629 -0.930375 2.49478
-1.45939 -0.59051 2.00563
-0.610268 -1.51071 0.398789
0.0539723 1.15413 0.512469
-0.677332 -0.49897 1.41043
0.789124 1.41402 -0.13483
0.305347 -0.237253 -0.596225
0.263572 2.78479 3.97249
0.329332 -2.02601 -2.75566
0.478469 1.39353 -2.8933
-0.306072 0.0733658 0.104486
-1.35171 -0.865022 -0.183661
-0.364609 1.20626 -1.87841
-0.904111 -0.438897 -1.04515
0.306626 1.66983 0.114126
-0.391672 -2.87836 2.16419
-1.33101 1.37058 -0.659034
-1.63919 -1.356 -0.950361
-2.287 1.02629 2.82449
-1.47467 -3.01635 -0.630218
-1.32792 0.261886 4.06456
-1.0378 0.847551 1.71813
-1.04104 0.176175 1.7434
-0.616861 -0.261923 -2.76066
0.48438 0.364969 2.77578
1.13327 0.736812 -1.71762
2.20537 -1.13992 -1.35453
0.703869 -0.0388043 -2.04869
0 0 0
0 0 0
-1.01233 0.586329 0.731951
1.0348 -0.0179348 -0.240382
-1.31447 0.425499 -0.474071
0.198745 -1.18302 -1.24134
-1.60494 -1.02102 -2.14379
2.43671 -0.7443 -0.541628
-0.857245 -1.30487 -0.28069
1.68808 -1.22164 1.02716
-0.0335383 -0.390826 0.883655
0.553844 -0.958085 0.912711
-0.948188 -2.08814 0.524195
-0.227976 -1.94505 0.97997
-0.194193 -0.927292 0.102347
1.36945 -1.80075 1.1017
-0.685022 -2.47038 -1.21332
0.873129 -1.3096 0.468516
-0.0136082 -1.84751 -2.90963
-1.02691 -1.7821 -1.30359
0.508279 -0.250047 -1.32743
-1.17835 -0.773963 2.63005
1.01314 -1.39666 2.18634
-0.717678 0.0433728 3.31959
1.2375 1.83016 -0.0938303
-1.12177 0.450541 0.338966
0.842868 0.731268 -0.652575
-1.16153 -0.0370718 0.338718
1.15953 -0.162273 0.419322
-1.24269 -0.214801 -1.1067
0.464319 0.601936 -0.699875
-0.551827 0.955789 -1.56914
1.07014 -0.203391 0.496299
-1.53671 0.762266 -0.535809
1.54096 0.106496 0.394366
-2.86323 -0.478883 0.0271036
1.65357 0.187172 1.03078
-1.74595 0.876796 1.53687
2.26337 0.0321387 3.02116
-0.921024 0.703765 1.59738
1.3081 1.16999 1.47902
-1.61346 1.04423 0.473263
-0.127793 1.21493 -0.102888
-0.946098 0.542301 1.0545
-0.00320429 0.262644 1.53218
1.31108 -1.1426 3.53955
-0.283025 -0.208778 1.29026
0.182708 -0.452107 3.2876
0.195404 -0.545385 -0.21771
-0.288352 -0.432282 1.64964
-0.484159 -1.37564 -0.781884
0.26435 -0.846858 1.7418
-0.740359 -0.116697 -0.617942
0.052805 -0.15021 0.654069
1.12823 -0.174186 -2.09279
-1.03623 0.163582 -1.53423
1.52546 0.426249 -1.93394
-0.333152 1.07658 1.49637
0.672657 0.814519 -0.447735
-0.989203 1.19239 1.47412
0.188419 0.236395 -2.2482
0.0567381 -0.347954 -0.335577
1.43849 -0.59081 -2.54631
0.220806 -0.157063 0.568261
0.228694 -0.0514429 -2.07471
0.817636 -0.17066 0.00768157
-0.162086 -0.816036 -2.62171
0.992933 -1.69792 -0.34838
-0.802693 -1.53559 -2.18175
-0.0857595 -1.36254 1.90185
0.80922 -1.47851 1.24484
0.934604 -1.72164 2.70391
1.17258 -2.74392 0.271441
-1.03175 -1.84566 -1.23372
0.866015 -1.21532 -1.02038
-0.573406 -1.52135 -0.116746
1.89056 -1.36581 -0.754366
-0.500842 -0.62834 0.813465
2.41904 0.146355 -1.46062
-1.65455 -0.606944 1.39102
0.582722 1.57418 -0.460414
-0.380004 1.13278 3.51414
2.6273 1.26845 0.587714
-0.876642 1.15793 3.43509
1.75236 0.352679 1.527
3.35423 1.1961 -0.282551
0 0 0
0 0 0
0.165817 0.521153 2.48583
-0.733992 0.680677 -0.949411
-0.846553 0.290762 -2.37501
-0.967293 0.384632 -3.42084
1.73111 1.02422 -0.529589
2.33012 -1.762 3.67582
2.47573 2.51175 -2.64706
1.03188 -2.02001 -4.95917
0.752538 1.8197 -1.87497
-1.04349 -0.843559 -4.3177
0.273073 1.64913 -2.61707
-0.489476 0.490865 -5.73566
0.87639 1.26896 -4.96264
1.71017 0.256325 -6.60528
1.71661 1.50758 -3.6091
2.17463 -0.700659 -6.61771
1.49853 0.569255 -9.53849
-0.54651 0.103006 -4.5781
1.4578 0.383325 -9.39504
2.40958 0.362117 -10.4503
2.5845 -0.906314 -8.14843
1.36548 0.307393 -7.17882
1.56906 1.16056 -11.5522
-0.499911 2.31866 -6.74792
-0.643419 -1.39895 -7.24283
-0.912634 1.23234 -6.98365
0.0876826 0.0530438 -8.10753
0.343041 0.575571 -5.27985
0.0819254 0.443607 -5.80079
-1.42384 -2.05826 -3.12335
-0.284753 2.08704 -7.11312
-0.46549 0.215693 -6.31207
-0.996944 1.90729 -7.94519
-1.77447 -0.422136 -4.11788
-1.7104 -0.945106 -8.27366
-0.614023 0.702729 -9.4479
-1.65407 0.505355 -9.76806
-1.82142 0.454208 -5.07944
-0.947355 -0.0149143 -1.19311
-0.645109 -0.290621 -3.81659
-0.391422 -0.00559919 -3.59853
-2.01817 0.276787 1.37671
0.146205 -1.92223 -0.319072
0.111543 0.323009 2.24384
-1.30559 -0.0818875 0.264587
0.0953261 0.805604 3.36561
0.025647 0.615041 3.4823
-0.448044 -0.382914 4.07537
-0.56201 0.824009 0.771807
-1.44413 -2.21241 3.22217
-1.10367 -0.334168 0.555511
0.0969792 0.509744 5.91003
-0.115507 0.652804 -0.542942
0.315312 0.574448 2.19877
1.17951 -1.96313 4.44959
1.16565 1.63729 4.87388
0.224421 0.0827696 2.35754
0.889025 1.06047 1.85641
-0.578901 -1.43124 0.490735
-0.713588 1.09741 -1.17634
-0.538154 -1.02207 -0.151381
-0.832256 1.99712 -1.36864
0.254369 -1.83447 -2.57566
-0.0917559 1.02973 -5.40978
0.126517 -0.226415 -0.220937
-1.31261 -0.664289 0.255469
-0.711362 2.31575 -1.34229
-0.657039 -2.8306 -0.850268
0.718504 1.83929 1.89766
0.581317 -1.97717 2.28069
-0.798087 0.403299 0.128685
-0.156916 -0.614122 0.857388
0.712577 0.416926 0.752576
1.75642 -0.667383 1.34401
1.7434 0.116736 2.00553
1.17594 0.315653 2.60095
0.00390001 0.0947832 1.42875
0.640395 -0.477263 -2.71871
0.427447 -0.252751 0.321338
-0.684966 1.0996 0.176008
-1.74619 -1.57669 1.09918
-0.999245 0.806424 -3.4305
-1.80708 0.628861 0.173399
0 0 0
0 0 0
-0.535243 -0.128252 -0.472376
2.19567 -0.811162 -0.547934
-0.410067 -0.749042 -0.16775
1.34935 0.196795 0.674839
-0.199905 0.364724 -0.0208183
-0.278188 0.554146 1.13663
-0.281804 0.0690303 -0.972905
1.52304 0.855875 0.824145
-0.566853 0.395887 -1.02017
0.105907 2.29924 0.831771
-1.13297 1.97014 -0.116985
0.0394321 1.92741 2.60934
-0.792782 0.823241 0.991483
0.839374 1.0502 2.36258
-0.543104 1.6216 -0.800103
1.19714 2.68696 -0.600636
-0.382077 1.40377 -0.496759
-0.808112 0.793172 1.25848
-0.439496 0.417747 1.15611
-0.476929 1.91409 1.47418
-0.00270152 1.34617 -1.56288
-1.207 0.957987 -1.19135
1.14506 -0.185156 -2.65135
-2.118 -0.474328 -1.16716
1.52702 -1.03869 -0.908656
-0.031596 -1.68284 0.878137
0.0452634 -1.31185 0.709901
-0.0391317 -0.718204 1.2337
-0.684104 -0.51027 -1.39234
-0.0530492 -0.806713 0.184681
0.192829 -1.03988 -1.8013
-0.806366 -1.75365 -0.157177
1.544 -1.19714 -0.545586
-0.82192 -1.11187 -0.511542
2.11882 -0.692155 0.621608
-1.12605 -1.24008 0.360412
1.73426 -0.329565 1.81378
-0.902852 -2.0528 1.49072
1.57197 -0.865113 1.0818
-1.19745 -1.03374 2.04084
0.73542 -0.881304 -1.05993
-1.14154 0.834324 2.16336
0.0667015 0.0787459 -1.24148
0.88309 -0.893911 2.70149
-0.366185 -0.578423 -0.556639
0.502592 0.309249 1.83363
0.45664 0.0875198 -1.27664
-0.0563974 0.946353 0.608851
-0.474773 -0.0786817 -0.82493
0.96844 1.05955 1.02202
-0.49616 -1.06497 -1.98466
-1.1445 0.602784 -1.60537
0.616142 -0.272989 -3.26257
-1.51273 -0.325283 -2.52187
1.15071 -0.552783 -0.733072
-1.0358 -0.227517 0.228574
1.10736 -0.081606 -0.448715
-0.88074 -0.338915 0.550369
0.728931 -1.14528 -0.936673
0.357021 0.307801 0.586273
0.779291 0.163179 -1.03804
0.0334427 0.110915 1.11408
0.0395348 0.873764 -0.82858
1.25821 -0.340112 1.97568
-0.507995 0.90443 -1.09732
0.23767 0.646884 -0.0114935
-0.145947 1.73126 -1.05473
-0.996797 1.24365 1.14398
-1.76167 0.741023 -0.405602
0.0612788 0.103774 2.76926
-0.582686 1.7424 1.99357
-1.0815 2.01823 4.12211
0.20893 2.06708 3.07661
-1.48104 0.847268 5.2924
1.47412 1.50894 3.22237
-0.741254 -0.317206 2.4719
1.43844 0.306344 0.218306
-1.47195 -0.819789 -1.52626
1.29074 -1.23404 -1.67261
-1.26777 -1.29623 -1.08678
1.65723 -0.882254 0.181021
-1.52389 -0.987614 1.88184
2.54961 -1.20383 2.73903
-1.75707 1.13797 0.828393
-2.09834 -1.78202 2.12256
0 0 0
0 0 0
0.343268 -0.307181 -0.637938
0.290179 -0.513752 0.929764
0.216542 0.579378 -0.233963
0.644219 -0.774151 -0.526139
-1.13689 0.979646 3.15069
-0.394509 -1.60589 2.20415
-1.34756 1.67875 -2.21241
-0.0617449 -0.80824 -5.43494
-0.257819 0.0797274 -1.94576
1.38395 -0.0992664 -1.39832
-0.0230723 0.341474 -2.24212
-1.07524 -0.818327 -4.06941
-0.44955 0.342575 -4.33948
-0.40737 -0.0223137 -1.41526
-0.108586 0.145718 -5.0086
-0.583971 0.969643 -6.28205
0.123417 0.0286534 -7.58718
-0.984122 -0.665111 -7.11448
0.594119 -1.69645 -12.9741
-0.735688 0.811647 -11.6805
-0.260609 0.95359 -8.74783
-0.089386 -0.0276568 -6.92497
0.863149 -0.371089 -9.0622
0.238253 0.433695 -10.4683
0.598712 -1.68687 -10.3122
0.964469 -1.60116 -9.90829
-0.000677437 -0.660543 -9.05165
0.857274 -1.84714 -7.19685
0.836333 -0.120712 -9.68893
0.466412 -1.22203 -8.9438
0.545584 0.913256 -10.9544
1.27959 -0.721569 -10.5703
0.394186 0.310313 -9.36875
0.977789 -1.05352 -6.65905
0.950768 -1.31504 -9.3063
1.68699 -0.685009 -9.69563
2.02989 0.0168857 -8.1646
2.15296 -1.03977 -6.20692
2.40889 1.09457 -2.04319
2.00708 0.921285 -5.21852
2.16969 0.338134 -3.01692
2.15844 -0.819335 -0.245801
-0.0237589 -0.254396 2.22815
0.784318 0.389033 2.33603
2.112 0.010918 1.57491
0.898995 -0.230777 3.49083
0.512058 -0.762085 2.02946
0.510031 -0.599649 -0.594505
1.41223 0.336902 -2.55327
-0.0279583 -0.324777 4.12444
-0.825731 2.66653 2.27411
-1.76242 0.00380491 2.8428
-1.15684 0.929351 2.64374
0.014466 0.490322 -1.84566
-0.301637 1.12784 3.88971
-0.123215 -0.013025 2.86833
-0.684368 -2.01018 1.69161
0.0404137 0.0827847 -0.221407
-0.818848 -0.597346 0.156858
0.0984535 0.134757 0.331196
0.502176 -0.615698 -1.55193
-0.0562775 2.69489 2.74145
1.4229 -2.19124 -2.98212
0.403549 0.687056 0.484891
-0.656136 0.308327 0.855323
0.564938 -0.221742 0.875127
-0.104768 0.377705 -1.17591
-0.111371 -2.15366 0.339741
0.791454 2.06812 -1.6332
-0.171571 -1.66142 2.62981
0.0984351 2.01938 1.01976
-0.766769 -0.0142287 1.39005
-1.99521 -0.337848 -1.01393
-0.259046 -1.31847 -2.44059
-1.66549 -0.768912 0.29837
-1.16591 0.406418 -0.464758
-1.04659 -0.0392786 -0.0965743
0.253697 1.57012 -0.761303
0.834728 -0.972864 2.05543
-0.663083 1.29886 0.302206
-0.0246392 -1.5699 -0.393613
1.39861 1.49369 1.42449
2.52113 -1.20612 1.2123
1.62273 0.456156 -0.874437
0 0 0
0 0 0
-1.10863 1.05778 0.290054
0.854807 1.16337 -1.21362
-0.788017 0.491446 0.318741
1.20621 -0.410202 -0.701243
-0.499504 0.616447 0.0234685
1.05311 0.500509 -0.929613
-1.76601 0.806478 0.646435
1.72783 1.08407 0.678914
-0.778926 -0.43879 2.12379
1.46385 -1.97426 0.352696
-0.957901 -1.18028 0.830939
-0.436961 -1.07558 0.564736
-0.785492 -0.056423 1.30847
0.129678 -1.09883 2.07347
-0.21589 -0.777634 0.474012
0.142396 -1.6644 2.58013
0.111259 -0.892714 -0.0329489
-0.222181 -0.799825 1.61642
-0.750024 -0.938486 -0.15239
-1.09293 -1.43756 2.49736
0.455296 -1.91134 -0.210167
-1.92269 -1.11738 2.33855
0.978179 -1.44429 -1.15329
-1.00212 0.579955 0.973365
0.885802 0.850958 0.252794
0.749667 0.137973 1.09003
-1.07039 1.03251 2.13667
1.61418 0.0982355 0.243263
-1.66512 0.264863 1.29918
1.24722 0.366224 -0.324254
-1.25029 0.179887 0.992154
-1.01066 -0.118786 0.136133
1.03433 0.988117 0.392096
-2.68247 1.05416 -0.0639701
1.26343 0.840408 -0.538381
-1.33708 0.877981 -0.358022
0.217444 0.969331 -0.1615
0.562167 1.81042 -0.667928
1.7483 1.44163 -0.563376
-1.29533 0.900779 -0.17689
1.12228 0.983601 -0.586562
-0.556867 0.0583568 0.318341
-0.272 0.115976 -1.46606
1.08303 -0.539071 -0.940577
-0.353333 -0.791052 -5.62132
0.531823 -0.153495 -3.03577
-0.451905 -0.546431 -6.09224
1.32243 -0.420694 -0.798362
-0.173711 0.0422042 -1.65114
0.323238 -1.26883 2.52859
-0.615999 -0.699821 -0.15161
0.0705746 -1.70744 1.8143
0.216891 -1.22874 -0.198368
-0.508771 -1.16944 1.1508
-0.0705902 0.213613 0.0225659
-1.31892 1.13573 2.42224
0.734972 0.694092 0.146324
0.605461 0.819989 2.51449
-0.444689 -0.111734 0.633446
0.138445 0.227881 2.61977
0.69653 -0.995559 0.8137
-0.498536 -1.27467 2.20801
1.1823 -0.589617 -0.380715
0.0692189 -1.32039 1.28708
1.06453 -1.47023 -0.0334891
-0.222122 -2.19067 2.05407
0.255667 -2.36329 0.40344
0.889777 -1.37974 0.506795
-2.11952 -1.2802 -0.0869042
1.49206 1.0158 -1.26031
-0.885196 -1.70583 0.73903
0.667381 -1.06036 -1.418
0.179308 -1.59748 2.88872
-0.934927 -0.902315 0.312771
-0.83195 -1.88031 2.69777
-0.282624 0.125628 0.176901
-0.670873 -0.669956 1.088
-1.30718 -0.615389 -1.18898
1.69271 0.676462 -0.361474
-2.45857 0.990846 -0.706125
1.5896 -0.245791 0.346681
-1.71059 1.20872 -0.0302234
0.907726 0.453471 1.4675
-2.43413 0.331432 -0.893206
1.9038 -1.01002 0.0509151
0.292325 -0.599801 1.58436
0 0 0
0 0 0
0.326331 2.85486 1.25874
-0.32979 -1.20282 -1.07004
0.211277 -0.762129 0.611155
-1.2802 0.895346 -0.0870067
-0.118723 -0.370544 -1.22626
0.82754 -1.84928 2.45361
1.06902 1.82452 -2.73667
-0.855595 -0.617442 -2.9629
0.535033 -1.49191 -2.65576
-0.896708 0.652425 -2.63592
-0.279026 -1.46863 -4.32581
-0.527157 1.36318 -4.85082
1.77502 -0.391088 -6.09358
0.560704 -0.454537 -6.01887
-0.846817 -0.782037 -6.25265
-0.727421 0.888994 -6.66782
-0.788092 -0.671572 -8.50892
-0.510392 0.410925 -3.93436
0.219488 -2.2259 -7.27479
-0.592644 0.713276 -7.82632
-0.547487 -0.421636 -7.0805
0.422957 -0.471129 -5.2112
0.329101 0.870327 -8.1241
-1.13884 -0.361553 -7.29034
-1.16743 0.243991 -7.12073
-1.12859 0.162679 -6.85401
-1.14924 1.39903 -5.69215
-1.11951 1.01124 -7.37609
-1.06131 -0.615595 -5.12088
0.443197 -1.10006 -7.11189
-0.111691 0.682971 -8.57329
-1.24484 0.214824 -8.7627
-0.450444 -0.763652 -5.36898
-1.61685 0.278914 -5.3172
-0.788774 0.967596 -8.46158
-1.58992 -0.214791 -10.6663
-0.529157 -0.434905 -8.37276
-2.78428 -0.222477 -9.35794
0.26834 0.482647 -4.83386
-0.245172 0.360433 -6.48798
-1.60552 -0.341699 -1.76133
-1.05009 1.23719 0.834759
-0.525737 -0.281968 0.111084
-0.720866 0.276851 0.79322
-1.26853 0.825447 1.27493
-1.35105 0.341354 3.4774
-0.567552 -0.232942 2.15501
-1.11154 -0.362321 1.6606
-0.875608 0.339834 1.57078
0.336694 -1.23115 5.02701
-0.199991 1.59335 2.79268
-0.047846 -0.76316 2.74424
0.575658 1.38259 0.406814
0.61794 -1.24113 0.0160329
0.373867 0.486784 4.20646
0.833495 0.197531 2.25375
-0.894614 0.0537234 1.50896
-0.373631 0.926198 -1.64815
-1.56487 -0.861355 -0.938462
-1.89145 1.66618 -1.73044
-1.24357 -0.96649 -0.224393
-1.13321 0.898063 -1.79019
0.0305628 -0.507931 -0.39499
-0.471442 -0.711006 -2.40547
-0.999115 -0.48357 0.889201
-2.02579 0.639472 -0.0531217
-1.48593 0.672052 -1.11739
-1.06423 -1.70596 -1.13827
-0.457116 0.863151 -0.238368
0.903117 -0.499097 2.06674
0.305681 0.675312 1.09727
-1.73811 -0.527048 3.72462
0.638458 -0.26774 -0.929699
0.870751 -1.33048 1.55631
0.949396 -0.137221 -2.08891
1.05452 -0.19997 0.587029
-0.145979 -0.318598 -0.472093
-0.48092 1.40669 -0.195124
-0.559574 -0.374259 -0.394797
-0.202841 0.702167 1.98044
-0.443402 -1.4339 1.2388
-1.38784 0.686582 0.375491
-1.50541 -1.21197 0.550729
-0.326854 1.17701 1.17975
-1.36318 0.0695486 -1.16429
0 0 0
0 0 0
-0.120344 -0.830384 -0.664298
0.41277 -0.768958 -0.261093
0.419433 -1.60741 -0.078272
0.736429 -1.37527 1.21896
-0.772925 -1.41091 0.208239
0.816857 -0.995345 0.780779
-0.992369 -1.43947 -1.69296
1.03699 0.151983 0.656349
-0.849154 1.17096 -0.696058
1.69417 1.12157 0.838936
-0.362713 0.6641 0.000854733
0.697448 1.20276 1.33776
0.191559 1.08652 0.68422
-0.527645 1.53485 0.976323
-0.513113 1.67069 0.319492
0.396806 0.826258 -0.629739
-0.772849 0.339181 2.41984
-0.607869 1.07348 1.39897
-0.0770237 1.1912 3.07616
1.04596 1.48005 -0.594615
-0.874075 -0.208082 -1.81063
-0.435774 0.266915 -3.03235
0.792715 0.113655 -1.73913
-1.70026 -0.465249 -1.18078
-1.41587 1.07317 -0.182988
0.591591 0.612059 0.255799
-2.35346 0.369438 0.670527
2.00359 1.28072 1.86079
-2.08675 0.706184 -0.40712
2.30482 0.277264 2.22996
-1.48689 0.697598 -1.70993
-0.561011 0.171648 2.13365
1.78304 0.0647356 -0.605636
-2.30672 0.0240851 1.72683
2.30234 -0.759446 -0.612607
-2.21193 -0.429604 0.340174
2.13184 -0.806206 -1.18327
0.268635 -0.0521779 0.30337
-0.341776 -0.761718 0.0409013
-0.156793 -1.849 2.00697
-1.18282 -1.12762 0.593322
-0.423225 -1.5325 1.42831
-0.262988 -0.00953531 -0.700756
1.99561 -0.111675 -0.65427
-0.921862 -0.0825328 -1.59455
1.75957 0.37008 -1.81258
-0.330529 -0.826938 -1.13406
1.29783 0.880652 -0.0918774
-0.203466 0.208501 1.14762
0.60598 1.16198 1.97026
1.2017 0.0751128 0.39072
0.35023 0.563363 0.688973
0.0560298 0.46103 0.986781
-0.171253 -0.0305435 0.60176
0.201486 -0.115978 1.39067
-0.380273 0.51792 -1.2387
0.379945 -0.261271 -1.7484
0.529685 0.491511 -2.32198
0.248427 0.217134 0.165338
-0.924584 0.856541 0.395429
0.684652 -0.779849 1.88155
-0.0737505 0.615522 0.68779
-0.627607 0.424876 0.467603
0.569599 0.868377 0.423155
-0.550723 -0.614873 0.454952
-0.186261 1.53076 0.5444
0.469382 -0.041326 1.38462
0.83713 -0.0503462 -0.34258
0.231609 0.183061 -2.60226
1.46305 0.727011 -2.94735
-0.208531 0.036161 -2.93652
0.0600405 0.0952961 -2.01579
1.98783 0.538216 -2.72182
-2.0461 0.349348 -1.91209
-0.312084 0.499266 -2.72051
0.620606 0.176315 -1.82036
-1.57035 0.808656 -1.72821
-0.129962 0.486147 -1.25298
0.479022 1.43475 -0.844816
-1.2981 0.380977 0.0865774
0.671032 -0.467288 -0.820943
-0.589454 -0.00625995 0.05245
0.311305 -1.27821 -0.925624
-0.715912 -0.816976 0.301779
-0.376163 0.176836 -1.65067
-1.81552 0.793077 -1.96089
0.250497 0.237037 -0.446051
0 0 0
0 0 0
-1.10771 0.642972 -2.42924
0.185558 -2.35613 -0.987731
0.924946 -0.129856 0.823678
1.55808 0.00418217 0.425314
0.554367 0.960316 1.81282
0.879448 0.536019 -0.935284
0.940675 -0.841228 -1.33968
-0.940809 -0.389404 -2.57507
0.214116 -0.345391 -0.432451
-0.153697 2.5577 1.16371
-0.739098 -2.05668 0.0816459
-1.19962 1.22066 -0.9001
-1.19023 0.364144 -3.19437
-1.03853 1.40204 -0.221979
1.85811 -0.733007 -4.40557
1.81958 2.5167 -2.18242
0.68601 -0.723971 -2.2688
-1.03285 0.593816 -3.46798
-0.30353 -0.861289 -8.20933
-1.28701 -0.353161 -6.32707
0.673711 -1.04959 -7.34145
0.474113 0.517876 -4.23014
-0.843915 -1.18174 -4.62932
0.548163 0.666249 -7.37529
1.38605 -2.21282 -9.5521
-0.712032 -0.185624 -11.4652
1.20531 0.627706 -10.854
1.05013 -0.0277048 -11.0796
0.208875 -1.17447 -13.1015
0.166491 -1.10009 -13.5137
1.63691 0.126929 -14.1207
2.23732 0.850271 -13.0261
1.451 -0.450181 -11.2626
-0.300372 -0.593949 -9.73197
-0.367769 0.0442984 -11.7491
-0.0280484 -0.551423 -7.96177
1.07235 0.138544 -6.35766
2.21668 0.217345 -6.08034
2.75709 0.855451 -4.39401
1.71288 -0.858891 -3.29134
0.518573 0.329148 -0.768344
-0.757054 -0.838305 1.66528
1.03368 0.276234 2.19161
1.71868 1.05555 3.11419
1.37521 -0.926298 2.12412
0.785714 -0.266911 5.75733
-0.0797637 -0.0488329 1.35833
0.745465 0.197004 0.963372
0.705885 0.474905 -1.15838
1.53115 -0.744423 7.86597
1.00835 1.36461 3.86478
-1.28742 -0.481594 2.88055
-1.32248 2.19026 1.67214
0.902214 -0.299016 -2.66395
0.945925 0.462064 0.792414
-0.550489 -0.129754 1.25236
0.570753 0.481969 -1.25639
1.29334 -0.788539 -0.928495
1.50371 -0.372925 -1.80691
2.11489 0.157966 0.338935
3.30122 -1.2553 -3.87448
1.60095 0.323076 3.23822
-0.245073 -0.210994 -2.03711
-0.572343 -0.287968 3.11906
-0.853761 0.245256 -0.0129848
0.963892 -0.448537 1.59273
0.379714 1.55139 -1.64862
0.385326 -1.27659 1.14672
0.230491 1.00848 -3.13968
0.98812 0.158113 2.18201
-0.238669 -0.368459 0.254906
-0.706887 -1.14425 3.82427
-1.3005 0.671883 -0.844403
-0.655672 -1.46419 0.00672165
-1.21153 -0.498712 -1.03459
-0.635334 1.02249 -1.20794
0.178176 -0.340677 -0.231162
0.426034 0.39606 1.02523
0.514998 -1.04675 1.21321
0.902544 1.32332 0.605193
1.10208 -0.763134 -1.28982
0.530896 0.745515 2.59649
1.7898 -1.72739 1.98997
1.28637 1.1772 -1.34166
0.152662 -0.430809 -3.12703
0.629349 0.0520833 -0.821283
0 0 0
0 0 0
0.101706 0.815701 0.0669572
-0.710996 -0.330326 -0.945816
-0.868776 1.4729 0.996534
0.989098 1.69461 0.171439
-1.54194 1.74748 1.89103
-0.701981 1.03197 -0.507232
-0.439757 1.06772 1.06367
0.906187 -1.01064 -0.639337
-1.11711 -0.0692587 1.91492
0.354643 -0.314007 -0.92404
-1.11847 -0.121273 0.932976
-0.780101 -0.132109 -2.02671
0.387941 0.0507061 -0.582263
-0.752649 -0.523912 -1.10645
1.09181 -0.181386 0.174943
-1.439 -0.179321 1.8076
0.802058 0.0264526 1.35467
-0.345605 0.101607 1.61629
-0.408411 -0.00374068 0.90196
0.512224 0.0882268 2.20467
-0.367276 0.589054 0.963696
-0.278402 0.0103478 2.96532
0.0621441 -0.29227 1.08187
-0.917073 -0.87529 1.73392
-0.254475 -0.721982 0.51675
1.82977 -1.04213 -0.964755
-2.02274 -0.262513 0.314249
2.51818 -1.18299 -1.97333
-1.57403 -0.608581 0.731624
0.852113 -1.63044 -1.08102
-0.743819 -1.75284 0.839914
0.113556 -0.519231 0.153029
1.16286 -1.59147 0.837283
-1.31226 -0.333694 0.0990664
1.49655 0.047083 0.180963
-2.08373 -0.261101 -0.547011
0.752906 0.633781 0.651946
-1.41926 1.22306 -0.674421
-0.924483 0.660289 1.25299
-0.150409 1.03956 0.0035757
0.47021 0.0957667 1.63735
-0.13451 0.219401 0.201445
-1.21141 -0.591214 0.271259
1.1795 0.787986 -0.595716
-1.05653 -0.349512 -2.2002
1.83896 -0.132037 -0.353481
-0.612448 -0.957339 -1.41519
1.75967 -0.666979 1.04571
-1.61407 -1.25726 -0.0562527
0.519755 -0.881628 1.19778
1.87938 0.393862 0.228462
-0.10702 -1.64306 0.908698
0.397965 0.608023 1.63694
-0.128238 1.18995 0.596909
0.369756 -0.249254 -0.427891
-0.152805 0.282249 -1.30155
-0.025005 0.594173 -2.23424
0.593633 -0.569159 -1.40956
-0.317243 -0.0152339 -0.239634
-0.272923 0.0242849 0.289307
-0.573178 0.396051 0.463377
0.207234 -0.506245 0.231869
-0.425487 -0.69972 -1.57952
0.158665 -0.677822 -1.1744
-0.00384506 -1.35265 -2.12281
-1.15963 -0.499545 0.723231
-0.464864 0.0018283 -0.456488
-1.30224 0.890374 0.288472
0.745453 -0.176051 -1.43953
-0.992635 0.271078 -2.18208
0.0909036 -1.147 -1.96335
-1.43088 -0.927935 -3.03419
-0.122906 -1.57181 -1.46796
0.255581 -1.39792 -2.95676
-0.711687 0.74501 -1.54556
1.48023 -1.4638 -1.16793
-0.802083 -0.331666 -0.333799
0.235679 0.480642 -0.568802
0.359694 -0.602741 -1.27497
-0.871757 0.116565 -1.5346
-0.0139301 1.17423 -2.92179
-0.871599 0.672814 -3.67747
0.3438 0.308195 -3.69488
-0.520484 0.877052 -4.1943
0.634133 -0.22486 -0.738155
0.708036 -0.604931 -1.57456
0.314302 0.0240885 -3.02111
0.561164 -0.630166 0.592554
0 0 0
0 0 0
1.06024 2.07077 -0.319226
0.110686 -0.858132 -2.28323
0.554847 0.605633 0.87822
-1.34292 0.43384 -0.097486
-0.711148 -1.15503 -0.385028
-1.00003 1.32354 -0.352936
-0.710343 -0.694174 0.0797642
1.10741 1.40922 -1.03645
1.04309 -1.72377 -1.04561
0.806518 2.60929 -1.66815
0.529193 -1.14371 -1.95304
2.16408 2.89919 -2.53075
0.594203 -0.725637 -4.44322
0.935546 0.586624 -5.82073
1.2273 -0.763652 -4.35354
1.03334 -0.209485 -3.80785
-1.03869 -1.28717 -5.5895
0.00149196 1.11742 -5.44436
1.8763 -1.61664 -7.85984
1.68262 1.47216 -8.21701
-0.443801 -1.17614 -10.3088
0.0439414 1.57963 -8.05973
1.21011 -1.58738 -9.80833
-1.58966 1.52956 -6.87195
-2.11785 -1.294 -7.67331
-1.39196 1.40542 -7.95214
-1.15006 0.335218 -6.7818
-2.19307 0.203539 -7.7747
0.243589 0.244166 -6.05322
0.362813 0.35367 -8.96876
0.0602212 1.60216 -9.85862
-1.1044 0.231062 -10.3959
-1.16336 -0.306483 -8.65401
0.481422 0.552421 -8.48233
-0.287276 0.700331 -9.31933
0.164675 0.866565 -7.80832
0.889204 -0.113917 -6.92059
-1.94848 -0.0715447 -9.32555
-0.321722 0.626655 -5.91673
-2.28395 -0.698436 -4.54892
-0.458125 0.0450545 1.10546
-0.789763 -0.891243 1.5936
0.535273 1.23239 1.88264
-2.24553 0.0818353 0.7676
-1.57627 1.05784 3.75255
-0.455162 2.22968 3.8933
-0.443066 0.267282 2.70359
-1.12765 0.864348 1.37764
-1.7586 -0.0282934 2.61427
-1.08893 0.460131 4.07376
-0.800055 0.340384 3.65051
0.134203 -0.687262 0.932008
0.378299 -0.824329 1.14564
-0.474495 -0.452087 -0.206205
-2.39579 -0.303109 3.21519
-0.12028 -0.833897 1.76307
0.84525 2.24967 1.65313
-1.76741 -2.08902 0.973214
-1.89843 0.201007 0.770133
-1.88154 0.192329 -0.991905
-0.3655 1.82244 -1.16085
-0.291768 0.34709 -1.47466
-0.543093 0.00982209 0.965593
-0.68779 -0.585005 -1.01918
-0.434425 -0.175963 0.418536
-0.628741 0.216476 -0.883007
-0.980569 0.0496128 -1.4664
-0.541649 0.096938 -2.00884
-0.590914 -0.583908 -1.80652
-1.30081 0.338729 -1.18431
-0.560268 0.707143 -2.00029
0.24617 -1.23929 2.43447
1.47015 0.410609 -0.836613
1.90754 -1.44898 2.98102
-0.449115 -0.566232 -1.62705
-0.66302 0.302632 0.146208
-0.209945 0.223505 0.377235
0.0461736 0.483939 0.381343
-0.472403 -1.88614 -0.263779
-1.19765 -0.208365 1.24152
-0.236012 0.0159306 1.14674
-1.41349 -0.0559305 1.05569
-0.39604 -0.931382 2.58791
-1.31565 0.518914 1.16225
-0.962362 -0.0028554 -1.85809
-1.57444 1.3012 -3.53478
0.238257 0.457003 -0.913651
0 0 0
0 0 0
-0.282226 -0.919851 -0.794599
-0.268559 -1.01631 -0.175566
-0.699633 0.142662 -0.754892
0.887165 -0.77223 1.38731
-0.599773 -0.759476 0.410212
0.637125 -1.19562 1.86617
0.60658 -0.477444 -1.90883
-0.151532 -0.810105 0.489746
0.385653 -0.610765 -2.06887
-0.0748106 0.436395 1.03679
0.962758 -1.01488 -1.05431
-0.125595 -0.385778 -0.0341376
1.1669 -0.283621 -2.34364
-1.71475 0.477686 -0.916423
1.82541 -0.366166 -0.77706
-1.61078 0.984624 -0.733734
1.32273 1.00286 1.4948
-0.912735 0.0741946 -0.450383
0.270357 -0.885683 1.2432
-0.817322 -1.25041 -1.50938
-0.378032 -0.289804 -0.596696
0.903539 -0.523563 -0.922291
-1.00009 -0.283501 0.814569
0.16937 0.881419 1.29227
-1.43056 0.138838 1.3093
1.883 0.778035 1.33979
-2.783 1.02721 0.36097
1.97425 0.430508 1.46368
-1.90086 -0.0422339 -0.762069
0.934244 1.49322 2.43338
0.427181 0.752163 -1.07497
-0.142706 1.19324 3.47651
1.4136 0.470709 0.059735
-1.47317 -0.364389 2.67498
2.23613 -1.01335 -0.0556564
-2.05374 0.7019 1.21964
1.0977 -0.241002 -0.802968
-1.55723 0.453407 0.16693
-0.291797 0.401679 -0.979167
0.609761 -0.252556 -0.122409
0.716072 0.252005 -0.779199
0.823683 0.187928 -1.27128
-1.19173 -0.321167 -1.12372
0.820123 -0.338244 -1.67187
-1.72007 0.113123 1.1878
1.3621 -0.10414 0.28821
-0.179846 1.73036 2.98945
1.60682 0.713075 0.476508
-0.144368 1.12115 1.85948
1.69571 2.8462 0.493961
0.366328 1.60384 1.4617
-0.805035 2.28842 0.537673
1.34024 0.628929 3.2744
-0.5247 -0.613964 1.19152
1.77893 1.47456 3.68276
0.55271 -0.396544 0.868197
0.583144 1.03473 3.23863
-1.29924 0.36395 0.561458
0.364145 -0.4643 4.25748
-1.62981 -0.855894 -0.0433764
0.0414854 -0.114605 3.37914
-0.389471 -0.387813 -1.04455
0.169428 0.423177 2.18152
-0.0659909 0.691604 -1.75657
-0.597597 0.903752 0.931597
0.761936 0.728459 -2.30841
-0.514087 -0.0322755 2.32312
-0.0923206 -1.11649 0.134581
1.49984 -0.663205 3.22451
-1.30011 -1.56247 2.66728
-0.215785 -0.615505 5.75792
0.956161 -0.575652 4.65693
-0.0401864 0.433417 4.9316
1.58365 0.0421742 3.2203
-0.288745 -0.44954 3.61684
-0.268681 0.978915 2.72538
-0.0492774 -0.437436 2.84877
0.46671 1.52724 0.872903
0.682575 0.557321 -0.0491603
-0.964239 0.718182 -1.06
0.606319 -1.39155 -1.58841
-1.54932 -0.187179 -0.957281
1.17274 -0.543642 -1.26326
0.504189 -0.105507 0.449731
-0.275992 -0.253809 -0.772115
0.811356 -0.101421 1.7782
-0.753857 0.434854 0.69767
1.14923 -0.992475 -1.84642
1.11327 0.347691 3.27384
0 0 0
0 0 0
-0.281978 0.00303613 -2.38545
0.0815463 -1.03809 -1.73749
-0.041453 -0.0457519 0.96587
1.24395 -0.170862 0.371732
0.631519 -0.217439 1.69527
1.43077 0.512833 -1.94828
0.295785 -0.823233 -0.936432
0.0513499 0.214092 -2.76103
0.492769 -0.433156 -2.71987
-0.137843 1.81336 -2.32771
0.66298 -1.44614 -2.33312
-0.641189 0.642505 -3.60321
1.05753 -0.126705 -4.84932
0.508307 0.165244 -3.76723
0.504541 0.259575 -5.59575
0.025426 0.139664 -3.99595
-0.482859 -1.04629 -3.74063
-0.251597 1.53081 -7.5351
0.367663 0.0596521 -9.69679
-1.37288 -1.10315 -6.18844
0.50328 -0.883883 -8.45604
0.48272 -0.0233075 -5.96323
0.299799 -1.75754 -8.06928
0.107103 0.56303 -7.91484
1.33584 -0.149296 -8.76178
3.43638 0.0238545 -8.68643
2.38197 -0.324883 -7.89429
1.91013 -0.630821 -7.24677
0.574364 -0.426041 -9.43559
0.660218 0.0171636 -8.92221
1.27653 -0.16835 -10.3839
0.163468 -1.51513 -10.9924
0.844803 1.19569 -10.8149
0.780182 -0.926639 -8.42733
-0.727064 -0.308402 -9.28194
-1.02546 -1.99664 -4.98676
1.12543 -2.02417 -6.32848
0.78207 1.378 -6.83422
1.68475 0.679253 -4.52378
1.96567 0.320338 -2.38423
1.44037 -0.0771791 0.683536
0.697406 -0.460293 -0.0305925
2.03908 0.704609 2.99628
2.13473 0.617251 1.67334
1.04163 0.44843 3.0995
1.86732 1.12737 4.98812
1.63477 -0.0668659 2.9436
1.55857 0.325492 1.65417
0.108653 0.427852 -0.101917
-0.559744 0.608361 4.93922
0.43164 -1.38835 2.61354
-0.267513 2.47634 1.3261
-0.403539 -0.707379 2.8973
1.62792 -1.3907 -1.30684
2.14708 0.105378 1.20493
1.8859 -0.389526 0.292742
2.27745 2.23754 0.812063
1.47087 -2.71926 0.727185
0.343827 0.995532 0.794618
1.45905 -0.533829 -2.01357
1.34009 -0.500094 -5.51677
0.570732 0.138058 -0.336193
1.67456 -0.831849 -1.58466
2.50365 0.637285 1.14537
-0.386731 -0.19024 -0.531398
1.29872 0.408709 -1.07491
1.40939 0.353973 -1.467
1.07562 -1.07596 -0.0522725
0.70853 -0.663245 -1.83961
-1.27938 -0.149868 0.00146062
-0.991001 1.48799 -0.159989
-0.361633 -0.06184 4.01407
-0.893495 0.30806 1.56784
-0.382703 -0.627578 3.00551
-0.437167 -1.10985 2.01872
-0.333687 -0.306826 -0.556104
0.466895 0.363156 0.569915
-0.589921 0.198647 -0.219909
0.207208 -0.517824 -0.0426597
0.76806 0.543586 -0.916032
1.2272 -0.695589 -1.35689
2.16803 0.107367 1.87691
0.641588 -0.386938 2.79719
1.59716 -0.0920359 -1.9592
1.40428 -0.184034 -2.18226
0.59999 -0.101197 -0.985238
-1.2971 0.966635 -2.02527
-1.56965 -0.696209 -0.245808
0 0 0
0 0 0
-0.23676 -0.57 -0.197304
0.111336 0.474345 -1.55622
-0.390514 0.0209642 -0.486041
-0.0605014 0.457962 -1.1013
-0.493293 1.43883 1.52327
-0.661517 0.629542 0.0691243
0.982359 0.757496 2.07394
-0.500091 -0.464822 -0.390028
0.201364 0.251679 1.93837
-0.712775 0.617318 -0.768351
-0.622961 0.507408 1.33008
-1.07051 0.558858 -1.77231
2.16787 1.05066 -0.388081
-2.67021 0.129339 -0.961999
2.25916 0.00678876 0.629516
-0.953842 -0.402071 2.0763
0.995529 -0.799054 0.846216
-1.24239 -0.667914 0.579456
0.729968 1.02147 -0.516007
-0.796301 2.494 1.55895
-0.15273 2.08561 0.587121
0.367003 1.22652 3.13836
-0.509266 0.050368 1.18099
0.95524 -1.34788 2.26402
-1.57767 -1.57084 0.487814
0.962558 -1.15014 -0.39737
-1.47559 -0.487393 0.204439
3.03151 0.449962 -2.21662
-1.16407 0.0566602 0.938432
1.92988 -1.23445 -2.10507
-1.04543 -0.624299 1.69903
0.829315 -0.753986 -0.52202
0.554751 -0.0620584 1.62244
0.100173 -0.889162 -0.774042
0.602098 0.0189628 1.58928
-0.501713 0.443733 -0.534644
0.565419 -0.0346434 2.13119
-0.601497 -0.641229 -0.432261
-0.260694 0.323028 2.58441
1.15535 0.390101 -0.0128371
-1.44868 -0.468127 2.81277
0.725349 -0.390703 -0.291629
-0.386006 -0.420228 1.84813
0.371373 -0.34659 -0.0361478
-0.63132 -0.0490104 1.13068
1.39428 1.05042 1.22592
-0.545584 0.131871 1.21701
0.902594 -1.14842 0.366956
-0.758152 -1.24634 -0.741225
1.26378 -1.61236 -0.853389
0.191903 -1.57153 -0.150594
-0.892239 -0.354505 -0.680657
2.13879 -0.071636 0.424185
-2.51023 0.564712 -1.47498
1.50327 -1.68463 -1.42844
-0.550714 -0.662998 -0.992864
-0.896213 -1.21001 -0.0948488
-1.96028 -0.346126 -0.150569
1.06216 0.672339 1.30065
-0.734687 0.408428 -0.881719
1.1592 0.66841 0.672059
-0.66212 0.487591 -0.471791
0.432007 -0.178126 0.973409
-0.111539 -0.65963 -0.0330869
-0.472405 0.662873 -0.265627
0.372852 0.0579125 -0.834418
-0.0484716 0.117772 -1.52548
-0.712337 0.0148699 -1.32856
-0.755928 -0.642439 0.0800946
-0.674065 -0.796274 0.0791346
-1.33498 0.139042 1.6691
1.26046 0.25894 -0.21084
-0.874436 -0.534229 0.486799
0.255104 -0.891005 -1.97704
-0.874097 -1.4677 -0.288745
-1.75272 -1.54494 0.645369
0.306348 -1.74496 2.72297
0.979819 -0.714019 3.10307
-0.428288 -1.13903 2.69516
1.06957 -1.43557 1.52418
-0.968125 -0.0401464 1.01552
-0.372354 -1.33328 -0.0813895
-0.536235 -0.509585 0.448048
1.27851 -2.30789 -2.04846
-1.37384 -1.95546 0.193973
1.15952 -1.57532 -2.03671
-1.43691 -0.682369 1.54604
1.52015 -1.1004 -0.754248
-0.692398 1.35151 1.18446
-0.265943 -1.0581 2.05643
0 0 0
0 0 0
-0.265777 0.421299 -0.298498
-0.88477 0.00421893 -2.1675
-0.0931948 0.0722279 -0.0347665
-1.06113 -0.724391 0.0778764
-0.615963 -0.451289 0.0049522
-1.51117 0.24157 1.3378
1.15801 1.05901 2.21733
0.98635 0.238238 1.17802
0.673782 0.351242 -0.871689
-0.251103 2.04421 -1.03502
0.0465761 -1.59825 -3.29613
1.1391 1.36693 -1.61214
0.923976 -0.767175 -2.99823
0.0910275 0.748477 -3.28947
0.068556 -0.520774 -2.45338
-0.619204 -0.582679 -4.01896
0.468669 0.532101 -5.22952
0.40299 1.25538 -4.96249
1.64507 -1.22016 -6.09216
0.572674 1.01707 -5.28468
2.00085 0.559222 -8.43937
-0.63227 -1.15484 -6.07879
0.103848 -0.000543657 -10.4915
-0.699321 -1.14938 -7.50076
0.772717 2.22263 -7.61925
-0.792972 0.911578 -5.24579
-1.6615 0.587467 -6.13649
-1.55049 1.39127 -8.52997
-0.431147 -0.899284 -10.0145
-0.832137 1.39659 -9.63417
-0.47897 0.818445 -9.52296
-0.750134 -0.342138 -8.62459
0.579365 1.75202 -7.92554
-0.628472 0.0957257 -5.61305
-0.0641036 1.08751 -7.00306
0.10404 -0.949286 -4.7168
0.18747 -1.27364 -6.64141
-0.616102 -0.420126 -7.25205
-1.29277 0.746894 -5.11865
-1.0653 -0.2288 -1.16705
-1.86845 0.489263 1.79952
-1.06375 -0.585373 3.50935
-1.03544 -0.257021 2.77344
-1.36071 0.166725 0.730718
-1.71594 -0.600516 0.747554
-1.6517 0.0725686 2.45961
-0.684751 -0.886667 -0.397672
-0.434085 0.814667 2.67235
0.160057 -0.199898 0.491537
0.211536 0.255797 1.55935
-1.01923 -0.650262 -0.988018
-0.44675 1.24669 -0.376219
-0.691662 -1.01429 0.80648
0.670363 1.34002 1.66779
-0.140193 0.211576 2.67752
-1.16526 -0.854947 0.819223
-0.681293 0.664248 1.65709
-1.6797 -1.81103 2.73732
0.14663 0.0150356 2.02251
0.117664 -0.66579 -1.86447
-0.991964 -0.0147796 -2.06473
-1.18776 -0.370754 -3.30708
-0.737372 -0.121217 1.75605
-0.800325 0.445605 -0.396381
-1.83983 -0.293514 1.91093
-0.848992 0.419156 -2.25023
-0.854832 1.25036 -0.181937
-0.910143 0.419392 -2.644
0.096737 -0.708213 0.447423
0.381162 0.402871 -2.05415
0.50583 -0.664717 -1.09707
0.182517 1.30642 1.88872
-0.00225982 -0.883604 1.00363
0.403095 -0.635672 3.06724
1.43779 0.352249 0.2134
0.0359686 -0.406486 -0.502777
-0.380063 -0.75773 0.465853
0.237339 0.148756 -1.35911
0.31402 -1.35204 -0.866605
-1.20544 0.858934 0.529534
0.350642 1.1962 2.45672
-1.75716 -1.36059 1.53613
-2.16112 0.257763 2.25724
-0.928282 0.186718 0.00267921
-1.9446 -0.0997637 -0.796405
-0.473427 -0.128879 -1.85778
1.29714 0.137338 0.492143
1.75475 -1.0116 -2.3658
1.57337 1.66655 2.09906
0 0 0
0 0 0
-1.18873 -0.447769 -0.624601
-0.0678468 -1.17834 -0.122566
-0.800221 0.237915 -2.02692
1.40231 -0.406936 -0.566732
0.81851 0.383824 -1.49857
-1.57925 -0.290369 1.29308
1.31043 -1.23543 -1.28491
-1.69885 -1.33129 1.8922
1.72631 -0.935119 -1.79705
-0.213144 -1.19011 1.4132
-0.28298 -1.90428 -1.43148
-1.66818 -0.970728 1.44765
1.22322 -1.63856 -1.08995
-1.7516 -1.29468 1.17351
2.3076 -0.701128 -0.10191
-0.738154 0.133543 -0.266831
2.41655 -0.254628 0.385336
-0.219773 -0.649789 -1.46463
1.77189 -0.337443 0.220926
-2.86025 -1.38274 -1.93149
1.77575 -0.867129 -0.896408
-1.08371 -0.0998839 -1.61819
-0.700498 0.837944 0.421975
1.05977 1.27895 0.90937
-1.90686 0.641535 1.75337
2.02046 1.3803 1.47211
-0.722228 0.535638 1.48864
2.44882 0.405399 0.815182
-1.13238 -0.106139 0.808507
1.70253 -0.184061 0.753986
-0.581795 0.656631 0.234871
-0.224459 1.87412 1.73188
-0.516512 0.808717 0.704356
-0.534831 0.700273 1.66931
1.95771 1.10168 1.50705
0.0978056 0.169529 1.31066
0.954841 -0.91868 0.136974
0.837279 0.454401 0.0445614
0.0938274 -0.772245 0.0656572
-0.459097 0.347306 0.330466
-0.472705 0.534996 0.686814
-1.22553 -1.04158 -0.842805
-1.01998 -1.46222 0.954489
-0.356611 -0.807301 -0.33549
0.0227639 -0.684129 3.00221
0.454671 -1.15479 0.524118
-0.858255 -0.961493 2.59823
-0.345266 0.0788208 -1.69126
0.747671 1.60601 -0.336979
0.918168 0.907024 -2.30325
0.192274 2.20726 0.0761861
0.148555 0.362925 -2.73138
0.776872 0.534168 0.536154
-1.17867 0.678688 -3.12914
0.0849844 0.510794 0.579527
-0.555365 0.257752 -2.36051
0.332208 0.990864 1.15815
-1.25198 0.709406 -2.2905
1.69263 -0.265947 2.54824
-2.1264 -1.4199 -2.82259
0.248736 -0.585329 2.43376
-1.96455 -0.970144 -2.57075
0.294915 -1.49553 3.74457
0.021229 0.347694 -1.27762
0.135628 -2.333 3.47664
0.586156 -0.900009 -2.50794
0.116165 -1.30575 2.2429
-1.97975 -0.455695 -1.71345
0.710241 0.00120359 2.96603
-2.00764 0.644402 1.24095
0.434805 0.319066 4.47803
-0.231164 -0.0573523 1.49578
-0.960757 0.280493 1.64892
-0.927085 -0.170971 -1.25897
0.448299 0.482411 -0.30628
-1.62627 2.23862 -1.21586
-0.278892 2.0069 1.04315
-0.288978 1.23648 0.560452
0.127169 1.36517 1.58332
-0.895092 0.102965 0.06835
1.46614 -0.744483 0.847541
-0.144646 0.0139462 0.268336
-1.19366 0.782125 0.561924
0.7581 2.42704 0.40277
-1.80734 2.0288 -1.06263
0.80509 0.724053 -0.480777
-1.59191 0.892932 -1.14716
0.452446 0.353425 0.670408
-1.48153 0.0748865 -0.887046
0.941458 -1.45606 -0.95364
1.38534 0.8977 -0.216374
0 0 0
0 0 0
1.82515 -1.13772 -1.64578
-0.0426628 0.27829 -1.59574
1.47176 -1.28279 -0.999773
0.87802 0.212415 -0.459041
2.09785 -0.660157 0.548815
0.546738 1.2434 0.150173
-0.551447 -0.733334 0.0503613
-1.24581 0.691239 -0.383566
-0.672829 -0.123839 -1.64305
-1.62117 -0.178331 -0.510578
-0.54708 -1.14117 -2.17206
-1.30435 2.10135 -1.83887
-0.285101 -2.4629 -1.61077
0.230538 -0.817531 0.0029279
0.427923 -0.308155 -3.93455
-0.220168 0.547377 -5.31961
0.73786 -0.402879 -6.20032
-0.903974 0.490378 -7.73207
-1.8191 -0.311149 -7.24065
-1.45651 -0.268387 -3.83916
-0.811581 0.371971 -4.95285
0.188267 -0.847662 -3.88471
-0.48605 -0.684361 -5.83616
0.547554 -0.334004 -10.5615
-0.43554 -0.382144 -8.81323
-0.012443 -0.460872 -9.56748
0.247467 -0.247229 -4.90074
-0.987219 0.294845 -9.67738
-1.39149 -1.69807 -11.0555
-1.45541 -0.0972668 -12.8233
1.12493 -0.462073 -8.11685
-0.462436 -0.387881 -10.3778
-1.3696 0.539764 -7.56083
0.306484 -0.557986 -9.23302
1.82629 -0.513428 -8.24104
-0.467705 -0.484773 -6.59513
-0.226196 -0.484214 -4.85374
-0.261279 0.0487138 -6.27555
-0.260962 1.14191 -3.13333
0.0452417 0.168135 -1.75326
2.29225 0.926216 0.670225
1.25875 0.472214 1.24165
2.20136 -0.520312 3.87491
0.940571 0.382308 2.57309
1.12107 -1.09115 -0.2631
1.17301 0.921564 1.88372
-0.375197 0.0715578 -0.14407
0.505204 0.343215 2.4111
0.908993 -1.1899 -0.864677
0.039254 1.59548 3.10583
-0.669953 -1.93675 -0.869251
1.43602 1.19888 1.37878
0.14317 0.287306 2.68941
0.354787 0.362573 0.536177
0.421077 0.231196 1.14626
0.607057 0.0592003 -0.305677
0.550545 0.581506 1.14277
-0.219238 -1.17476 0.899836
-0.761377 0.721399 1.65848
-0.154148 -1.31698 -1.92786
1.34482 0.769167 -3.97075
2.36014 0.690612 -0.339311
3.25977 -0.919339 0.388556
1.75837 -0.384837 2.48721
0.318129 -0.896373 1.77808
0.0918605 1.07423 -1.12077
-0.144926 1.06519 -1.14337
-0.800352 0.735243 -1.28762
0.0931577 -1.74311 -1.15031
-1.26311 0.761846 -0.568233
-1.05618 6.79648e-05 -0.153316
0.0543592 0.243654 3.58204
-0.982911 -0.730448 1.1963
0.423825 -0.283881 1.99237
-0.215651 -0.710737 0.858006
0.253278 -0.673413 -1.47037
-0.869287 -0.834685 -0.786485
0.486353 1.19855 -1.89003
0.322791 -1.93604 -1.42682
1.20533 0.528523 -0.243636
1.64662 0.0341961 0.593171
1.67726 0.125035 2.99443
0.858365 1.61199 2.06123
0.0279622 -1.28333 -2.74399
-0.601442 -0.180203 -1.11186
-0.420943 -0.761717 0.623108
-0.683254 1.8352 0.0548307
-2.03836 -0.775613 -0.556922
-1.51261 1.67496 0.137769
-1.67705 0.207231 1.00749
0 0 0
0 0 0
0.0382198 0.42529 0.415406
0.0826506 1.74387 0.622148
-1.3903 -0.025671 0.714451
-0.0122637 0.153274 -0.526729
1.05668 -0.254581 0.825202
-0.887481 -0.308931 0.044179
1.55707 0.447786 2.40343
-1.31892 0.519447 0.191991
2.1483 -0.0917016 1.60376
-1.9168 -0.414921 -1.00423
1.53561 0.406815 1.82178
-0.310364 2.23827 0.43873
-0.0955909 1.18051 2.3983
-1.5923 1.51788 0.731417
1.35225 1.07471 1.01676
-0.946487 0.217068 0.803438
1.4374 -0.280524 -0.0778012
-1.29782 0.618897 0.295995
1.86622 0.808271 -0.159414
-1.66173 0.434099 1.77648
1.11605 0.204779 0.204884
-1.16163 -0.111773 2.47198
1.1088 -0.199146 0.493214
0.323159 -0.82435 2.19502
-1.12565 -0.42652 0.432544
0.835748 -0.552494 0.23308
-1.55893 -1.2955 -0.0220058
0.741157 -0.646658 -1.61726
-1.53203 -0.0890727 1.34946
1.33628 0.353671 -1.94238
0.318776 0.399842 0.641284
0.762111 -0.0762079 -2.55195
1.15248 -0.298432 -1.06069
-0.924429 -1.23898 -2.62961
1.16482 -0.624999 0.069432
-1.34778 -1.2467 -1.49169
1.10338 0.223423 0.653191
0.535528 0.675995 -0.917868
0.683485 0.947091 1.76544
0.133459 -0.137531 0.114351
-0.147038 0.727363 2.4864
-0.636676 1.0647 -0.0137019
-0.414044 0.910897 1.9654
-0.291766 2.09428 0.894276
0.50505 2.06639 1.22809
-1.57407 1.34677 1.15357
2.16838 1.39365 -0.283824
-0.868301 1.35979 -0.411633
0.367478 0.573752 -2.63552
1.40162 -0.0263804 -1.29129
-0.489183 -0.582287 -1.7821
-0.332863 0.528005 -0.150443
1.65625 -1.01345 -0.359461
-1.69492 -0.78528 0.859846
-0.084573 -0.813467 -1.65247
-0.610714 0.0344295 1.4749
1.13573 -1.66192 -1.9792
-2.30778 -1.36783 0.543446
1.74788 -0.162625 -1.24689
-2.99206 -0.124602 0.525861
1.09701 0.307431 -0.115118
-1.14748 1.29394 1.55187
0.591892 1.50437 0.972488
-0.373219 1.25182 2.14377
0.0681723 2.68516 0.533661
-0.835352 1.63475 1.43953
0.613833 1.49413 -1.64242
-1.48512 0.910262 -0.69208
0.843104 0.74473 -2.50345
-1.05205 1.2937 -1.8377
1.40851 1.39188 -3.0834
-0.840001 0.611739 -2.19117
0.528251 1.09832 -3.24443
-1.83149 -0.0789437 -2.83553
0.299951 -0.422662 -4.24986
-0.648187 0.167522 -2.60137
0.109593 -0.539972 -3.75727
-0.00933761 -1.02409 -1.22793
0.992641 -0.309299 -2.29197
-0.406918 -0.183148 -0.816572
-0.413329 0.89844 -1.94928
0.535161 -1.1996 -1.46194
-1.53906 -1.50774 -1.59957
1.39724 -2.09916 -1.67437
-1.77075 -1.66929 0.0409661
-0.327558 -1.26062 -0.278905
-1.50422 -0.387863 1.39547
0.594738 -0.235117 -0.715491
-2.05203 -1.28338 -0.596865
0.123237 -0.614276 -2.88078
-2.12727 0.000705251 -1.32105
-2.10442 -2.34521 -1.26102
0 0 0
0 0 0
-0.15443 0.689743 0.783303
-2.50119 0.0359871 -1.11185
-1.18255 -0.0163339 0.266813
-1.06507 0.361608 -0.493913
-2.08398 -1.63434 -0.152104
-0.286088 0.337338 0.791438
0.44405 -1.09403 1.3093
-0.821669 0.131753 1.35398
0.911069 -0.6132 -0.161514
1.40883 1.69893 0.255506
0.116714 -2.75017 -2.86935
-0.091105 1.24427 -2.06532
0.738102 -2.52145 -1.16823
1.46454 0.23157 -0.882657
1.92787 0.340196 0.0252456
-0.0168875 0.393737 -3.98828
0.593917 -1.98901 -3.73812
1.21137 -0.0882338 -4.14901
2.2294 0.555411 -2.00353
0.933759 -1.72616 -2.60134
1.34666 0.972122 -1.75273
-0.234721 -0.587506 -2.69132
0.186324 -0.298245 -3.82647
1.1961 -0.266832 -8.36537
0.672108 0.37815 -5.50495
0.680209 -0.299572 -6.92446
0.795669 -1.94541 -0.793177
1.44131 0.491773 -6.3124
0.561508 -0.795537 -3.19555
-0.561015 -0.0740262 -8.53925
0.979951 -0.611448 -4.14584
1.09185 0.362628 -9.16112
1.07803 -0.216909 -5.16939
-0.11011 -0.972886 -9.45963
-1.9129 -1.17284 -5.961
-0.610441 1.24132 -6.94566
1.38341 -0.688264 -2.58919
0.558523 1.10939 -7.46887
0.53235 0.00127062 -4.17551
-1.19099 0.0251429 -5.06676
0.403101 0.116714 0.112248
-0.680808 0.769342 1.94462
-2.10297 -0.151598 5.10815
-1.78554 -0.0967108 1.20993
-1.34901 -1.14095 1.14239
-1.19084 1.53591 0.669523
-0.202138 -0.200234 -0.0371609
1.65416 1.42883 3.90983
0.308674 0.242577 2.20194
1.18852 -0.517342 1.28683
0.279678 -0.545061 -1.01651
-0.267678 0.999095 -0.0296918
0.311212 1.37464 1.67141
1.261 -1.02036 0.751151
-0.820707 0.727341 2.22227
-0.346048 -0.834117 -0.786128
-2.79551 -1.22273 1.15131
-1.187 0.162584 1.6802
1.26136 0.0354445 0.864083
-0.351796 1.33629 -1.5635
-0.702136 0.24168 -0.710069
-1.01094 -0.269912 -1.81924
-0.844254 -1.14901 1.72267
-1.74626 0.786731 1.24355
-0.786398 -1.43269 2.75423
0.44168 0.150233 -0.949081
-0.682752 -0.0476264 -0.710366
-1.68768 -0.384716 -2.98002
0.256125 -0.0241764 -1.21944
0.903617 2.18655 -1.35512
1.2425 -0.520915 -1.75238
1.54757 1.35356 2.36232
0.807256 -0.737906 -0.615296
-0.699176 0.365014 2.65262
0.352148 0.310839 -1.39844
0.813387 0.398451 0.61651
-0.174914 -0.92424 -0.794066
-1.4507 1.1348 -0.816265
-0.519091 -1.52228 -2.38962
-0.39929 -0.950912 1.54642
-0.552964 -0.0843659 2.57692
-0.847117 -1.00708 3.37261
-0.707815 -0.831588 0.486183
-0.649786 1.12618 -0.934017
-1.00016 0.9503 -1.63318
-0.336176 -1.89346 -0.342678
1.07087 1.44042 1.85929
1.77529 -1.05849 -1.09308
1.23882 0.232699 1.39238
1.00403 -1.17952 -1.10579
1.63572 0.784694 0.127406
0 0 0
0 0 0
0.442747 0.610033 0.888574
0.278466 -1.28308 2.75663
-1.15825 0.135575 1.64822
-0.321256 -0.647919 0.56963
-1.21339 -0.0795564 -0.620947
-0.00221273 -0.987729 -0.432578
0.972262 -0.309751 -0.509393
-0.818234 0.308176 -0.355635
0.671539 -1.02206 -1.79102
-1.91555 -1.01869 -0.436994
1.1118 -1.22695 0.114971
-1.21411 -2.01285 1.91993
1.47186 -1.96913 1.33073
-0.544069 -1.36746 -0.0461804
2.99395 -0.392462 -0.600454
-1.88238 -1.5048 -3.08108
2.78993 -0.521433 -0.532666
-0.806322 0.285518 -2.71117
1.10931 0.0551858 0.666581
-1.4005 0.239376 -1.36572
2.26876 -0.00950706 0.453831
-1.28179 0.468444 -0.178011
1.39296 -0.570327 0.894966
0.0867359 -0.0740061 1.55214
-0.360119 0.265939 1.43896
0.670687 0.926242 1.80759
-0.511505 0.217888 0.711089
0.306647 1.39804 1.32083
0.676583 0.549768 0.938008
0.1505 0.874533 2.10849
-0.205866 0.835552 -0.219834
0.548996 -0.46931 1.34733
1.66997 0.595404 -2.47246
-1.51865 0.863944 0.714168
1.60953 -0.393232 -1.2153
-0.36299 -0.368749 2.44605
0.052875 0.794493 -1.2244
0.827749 -0.450676 2.51661
-0.716217 0.112817 -1.26056
0.762275 -0.317223 2.29788
0.0436661 -0.385236 -0.722836
-0.298814 -0.72461 1.67663
0.313461 -0.904558 0.495747
-0.00590931 -0.78656 2.18358
-0.589392 -0.833392 1.13589
-0.871696 0.150712 1.81961
0.833534 -0.292296 0.512445
-0.735458 -0.33646 0.448563
0.232742 0.464087 -2.14394
-0.570253 -1.02759 -0.74726
0.659576 0.684218 -2.40878
-0.72443 1.4688 -0.0226687
1.05089 1.63647 -0.609595
-0.68275 1.53283 2.37725
-0.803289 2.11669 0.1185
-0.108926 2.40765 3.78883
1.63636 2.92677 -1.53475
-1.2797 0.148836 1.541
1.84559 1.11672 -2.79067
-2.36605 0.135937 0.394393
1.91234 0.911287 -2.34217
0.0588135 -0.448286 0.542265
0.330368 -1.04946 -1.23159
0.0444598 -1.36386 0.710298
0.530385 -1.42154 -0.650746
-1.78549 -1.12436 0.893961
1.22508 -0.575849 -0.1477
-0.731587 -0.591286 1.06971
0.279713 -0.902429 -0.870976
-1.13557 -1.08615 0.651296
-0.072906 -0.702826 -1.2107
-0.716091 -1.42136 0.407679
0.212028 -1.12111 -2.16593
-0.728108 -0.3577 -0.515707
0.504371 0.105019 -3.10674
-1.58789 0.0862642 -1.76523
0.0545461 1.38753 -3.38987
0.067068 0.579533 -0.841987
-0.299208 1.02686 -1.4505
-0.499643 1.09054 -0.110765
0.138049 1.61333 -1.42155
-0.83557 1.40565 -1.66748
-0.425726 1.28981 -3.06981
0.698803 2.12569 -1.55262
-1.44497 1.97431 -1.10931
0.598369 0.576671 1.3103
-0.621733 1.39697 0.794409
-0.617398 -0.212401 1.4467
-1.06571 1.02548 -0.441737
0.54816 0.759131 -0.454795
-2.21697 1.17722 -0.53839
1.95039 0.813925 -1.35866
2.27708 0.0603577 0.341879
0 0 0
0 0 0
0.832036 -0.210212 0.59813
0.217364 0.493191 0.898953
1.29929 -0.775346 1.83421
0.880137 1.34864 1.5419
0.748188 -1.77716 1.54416
0.10102 2.20143 1.16924
0.522666 -0.819176 0.459936
-1.56935 1.21017 1.92082
-0.312835 -1.14756 0.161064
-0.871533 2.0506 1.24192
0.15954 -1.08488 -0.840407
0.0429151 1.48914 -2.54047
0.643299 -1.20353 -1.47244
0.668957 -0.217723 -0.269515
-0.821681 0.981904 -2.13565
-0.833089 0.0367272 -2.29724
0.260432 -1.16067 -3.90605
-1.5861 0.680707 -4.76176
-1.28883 0.588647 -3.6779
-2.51022 -0.237153 -1.43372
-0.663854 0.654582 -1.09675
-1.19523 -2.05622 -3.8864
-0.684398 1.46568 -2.88217
0.102285 0.221022 -9.12594
-0.62926 1.46848 -4.11449
0.680986 -0.068186 -7.36684
-0.708361 -0.479392 -0.281629
0.710844 0.162231 -4.90877
-1.12044 1.24644 -1.33316
-0.726717 -0.913917 -4.99812
-0.0439033 0.297427 0.146158
-0.456743 1.24327 -6.11689
-0.709925 0.589378 -2.08487
-0.167108 -0.116568 -7.5512
1.05011 -1.48173 -3.78228
-0.563233 0.654821 -5.34584
0.661826 -1.18781 -0.335531
0.877184 2.27094 -5.99126
0.884133 -1.67033 -2.58227
-0.095099 1.06912 -4.97585
-0.506636 -0.491214 -1.44827
-0.19666 0.276756 -0.242989
1.26494 -0.750312 3.13495
0.686775 -0.445529 2.77935
0.737316 -0.0880825 -0.0923085
0.30052 0.755868 -0.385061
-0.549052 0.315607 -0.0260378
-0.357447 -0.0724164 1.84025
-1.04766 -1.00649 -0.89048
-1.93518 0.805264 1.19039
-1.2915 -0.69564 -1.5459
-1.02133 0.212618 0.496751
-0.384877 0.846199 1.49214
-0.824324 -0.953962 -0.886892
-1.16071 0.603897 0.833029
1.51089 0.586856 0.0388508
1.56836 0.785728 2.22546
0.581678 0.398939 0.916248
-0.183097 -0.798072 1.24409
-0.0165208 -0.0236076 -1.07337
-0.437937 0.115615 -1.5609
1.46077 0.772067 1.22168
0.598318 -1.31217 0.223742
0.516385 0.573186 1.95157
0.017621 -0.868214 1.91656
-0.0519072 0.164691 0.59326
1.25314 0.439684 -0.57241
0.31003 0.671119 -1.00371
0.46733 -0.250332 -2.09656
-0.796425 1.03809 -0.0917477
-1.38893 -1.103 -0.936211
-2.25092 0.576523 2.8315
-1.01103 -1.49482 -0.970628
-0.602953 1.17506 1.36148
-0.115406 -0.00957207 -0.217552
0.534623 1.07096 0.755439
-0.564122 -0.512739 -0.531194
0.334482 -0.653372 -0.523125
0.361799 -0.25501 -2.1265
0.427341 0.338538 0.62157
0.587268 0.153599 0.514676
1.35081 -0.176007 3.51408
-0.112294 -0.209317 0.424628
-0.666197 -0.268234 -3.63389
-1.03841 -0.597534 -3.28973
-0.848279 -0.543342 -0.415239
-0.25625 1.03043 0.176566
-0.240713 -1.23443 -0.301236
-0.420847 0.584111 -0.536505
-0.676744 0.276775 0.195369
-0.939772 0.647374 -0.673903
-0.749453 -0.713609 0.460721
0 0 0
0 0 0
0.287087 0.0250874 1.44018
0.339501 0.42311 3.23015
-0.65765 -0.135421 3.60091
-0.787498 -0.21697 1.33472
-0.966902 -0.644312 1.74465
-0.954609 0.564528 -1.32134
1.36674 0.158972 1.34184
-2.25187 -0.00585608 -2.68883
1.21887 1.41088 0.714365
-1.52091 1.21904 -1.80067
2.16023 1.41825 3.38253
-1.41335 1.24125 0.739329
2.17307 1.89138 3.43746
-0.475123 1.83583 -1.769
1.43699 1.64864 -0.0263685
-0.986408 2.26236 -2.61545
1.45213 0.939622 -0.525342
-0.563564 1.16133 -1.81982
-0.370292 0.769702 0.167716
-0.677298 -0.140701 0.602473
0.927145 -0.218638 0.954271
-0.758056 -0.798945 1.54376
-0.0908022 -0.468461 0.0658557
-0.792003 0.0109822 0.725061
0.817727 -0.225601 -0.545859
-0.577432 0.493573 -0.136301
0.663004 -1.24352 -0.503723
-0.961163 -1.49768 -0.133611
-0.671117 -1.00611 1.93931
-0.637048 -0.632955 1.18963
1.00493 -0.506332 2.55607
-0.192122 -1.25597 0.556697
2.22136 0.3687 0.0529956
-0.023779 0.536101 -1.21172
1.02878 0.723045 0.232867
-0.857862 -0.786942 0.0291607
-0.254099 -1.34114 0.904431
0.134448 -0.703212 -0.100663
0.592048 0.394099 -0.126884
-0.436014 1.72346 -1.48549
0.192216 0.74825 -0.718457
-0.10632 1.11363 -1.05819
-0.0799303 1.03972 -0.0326524
-0.490369 0.409115 0.161929
0.269014 2.2767 -0.80888
-0.56719 0.811679 0.823118
0.46986 1.14435 -0.155605
-0.713347 1.01107 1.64818
-0.239316 0.99228 -1.32569
0.597443 1.13278 -0.475602
0.152678 -1.01626 -2.45087
-1.42465 -0.238957 -0.267804
0.927071 -1.4481 -0.702976
-0.889363 -2.41296 2.359
1.10322 -2.32011 -0.32713
-0.761955 -2.39226 3.46563
0.803946 -1.427 -1.77161
-0.679342 -1.1098 0.349728
1.73992 -0.802553 -4.20274
-2.16602 0.38201 -2.23397
1.14675 -0.210217 -4.53267
-0.0184466 0.270889 -2.35251
-0.018537 -0.0181649 -3.90733
0.55403 0.41703 -1.6584
-0.281648 0.74941 -2.72682
-0.668331 0.414361 0.605953
0.100221 0.294564 -1.27971
-0.979327 -0.535519 1.80967
-0.0133578 0.0390597 -0.600238
-1.48897 -0.191911 0.979502
0.591571 1.92636 -1.84696
-1.15981 0.21647 0.129655
2.06064 1.41102 -2.41051
-1.45849 0.318375 -0.359082
2.25922 0.623421 -2.60047
-0.392302 0.207608 0.800673
-0.252763 0.342354 -0.514921
0.152092 0.489652 3.82262
-0.411365 -0.353517 2.46576
-0.171484 -0.503404 4.96342
0.314979 -0.410613 1.7226
0.296046 -1.59125 1.55671
-1.26581 -0.693096 -1.30792
1.44317 -1.99606 -0.118171
-0.46512 -0.628249 0.19017
0.526364 -0.451351 1.90058
0.252814 0.557467 1.04698
0.76508 0.168553 0.499548
-1.2797 0.142261 -1.08481
2.36422 -0.704694 -1.29838
-1.82967 -0.679794 -1.37825
0.592012 -0.266647 -1.81842
-2.67972 1.51053 0.445185
-1.7059 -0.857672 -2.25304
0 0 0
0 0 0
0.648055 0.84319 0.589312
-0.527883 -0.466829 -0.943422
-1.12044 -0.450776 1.21222
-0.0626392 1.83915 0.116612
-0.71512 -0.838708 -1.33
-0.692182 0.822837 -1.62363
-1.64219 -1.53103 -0.947403
-0.887527 0.484376 1.44122
1.04001 -2.29645 -0.536702
0.650685 2.84256 -0.0414339
0.392915 -0.815857 -2.8687
-1.06354 1.69127 -3.56818
0.617694 -0.830548 -3.20792
1.67817 0.166644 -3.60166
1.45107 0.636718 -2.4643
0.271579 1.32762 -2.6848
1.84427 -0.543982 -1.46803
0.662625 -0.0840997 -2.56013
1.37685 -0.157081 -2.82285
0.366783 -2.2132 -2.69427
1.35916 1.48938 -3.34018
2.09336 -1.90985 -2.84044
1.08069 0.767994 -5.89493
1.16411 -1.64759 -4.38551
-0.487525 0.942258 -5.5861
0.686082 -0.0864211 -2.82707
-0.0639857 -0.775858 -5.17751
0.000556386 -0.650046 -4.83374
0.317323 0.454353 -7.82769
2.10562 -1.88487 -5.33041
0.902827 -1.45018 -6.98659
1.87375 -0.475663 -4.26886
-0.0612122 -0.786424 -5.55036
-0.00935374 0.548566 -2.44161
0.951419 -1.74075 -4.88581
-0.240163 0.174869 0.386139
-0.422351 -3.44004 -0.292197
-1.97449 1.16899 0.737406
-0.849443 -1.63672 -1.00372
-1.19799 1.54056 -0.667905
-0.397045 -0.858219 -0.60626
-0.6363 1.38291 3.2871
1.03741 0.728519 3.19153
-0.427215 -0.0295577 2.59968
0.0331874 -0.268205 -0.187583
0.52382 0.815808 1.41962
0.511849 -0.169257 -1.32527
0.106235 0.15648 4.005
-1.12754 -0.775706 -0.773575
0.554874 0.927154 1.78061
1.20033 0.640206 -2.54911
1.7439 0.815067 0.620882
0.195953 0.677868 -1.53647
-0.263091 -0.337784 -0.312762
0.010524 -0.54073 -0.295358
-0.371232 0.573609 1.01082
-1.46627 -0.803331 0.719693
-1.92326 0.907316 3.14176
-0.587951 0.0432558 -1.10656
-1.45555 -0.114023 -0.171855
-0.361772 -0.516948 -0.820982
-0.607374 0.725806 0.299711
-1.12062 -0.548803 -0.891537
-0.343651 0.84289 0.0319942
-0.0683838 -1.22915 0.231417
-1.44088 1.87352 0.373962
-1.04955 -0.226555 -0.130439
0.147231 -0.368932 -1.01156
-0.109057 -0.503569 -1.11612
-0.058873 0.460175 0.163341
0.138814 -0.251562 -0.803379
2.12097 0.879595 1.5633
2.60519 0.0278968 -1.38192
1.0767 -0.602215 1.4566
-0.11821 0.154408 -0.554275
0.688325 0.46111 1.76503
0.80256 -0.368416 0.31071
-1.089 1.02925 -0.287304
-0.899533 -0.959243 -2.00077
0.658093 -0.837862 -0.0185822
0.7016 -0.117142 1.42231
0.772359 0.625523 2.30526
0.425764 0.0239295 -0.217157
-0.14008 0.40493 -2.20839
0.11799 -0.480693 -2.99523
0.588943 -0.939685 -1.36876
-0.653728 1.07744 1.69517
-0.991875 0.718631 -0.293845
0.327032 1.00097 1.3201
0.486266 -1.16773 -0.532733
0.699976 1.00439 1.39733
0.187105 -0.472916 1.3583
0.776138 -0.0834395 1.80437
0 0 0
0 0 0
-0.0680094 0.516386 0.676808
0.611655 0.422654 2.13947
-0.858086 0.832674 1.91614
-0.713074 -0.452086 -0.0112857
0.666369 0.0920295 -0.0424703
0.593721 0.184397 -1.93796
-0.438523 0.127159 -0.745632
0.0376401 -0.401182 -2.4974
-0.435867 0.305744 -0.849129
-1.38932 -1.50362 -0.240306
2.02285 -1.27095 2.04862
-1.50955 -1.64711 1.79725
1.73702 -1.90673 1.72628
-1.24163 -0.895447 -0.99213
2.09802 -0.809006 -0.412851
-1.61418 0.085186 -2.68598
0.0881765 0.525967 -0.197259
0.301267 -0.552554 -2.63937
-0.277036 -0.539288 0.0131442
0.381964 0.0642888 -1.13701
0.657886 -0.269332 0.316458
-1.21125 0.211942 -0.178903
0.813097 -0.491887 -1.25677
-0.317022 -1.10852 -0.610388
0.611253 -2.04431 -1.77742
-0.543391 -0.691979 0.0382401
0.0961341 -0.0458773 -1.62961
-0.259851 0.620757 0.525716
0.508253 1.75326 -0.250363
-0.819224 0.277442 2.57517
0.174074 0.629053 0.718137
0.13891 0.584557 2.75441
0.978732 0.473503 -1.30207
-1.99557 0.137665 0.593162
0.821098 -0.444731 -2.17568
-0.132985 0.819046 0.997087
0.77917 1.3523 -1.70669
0.205232 1.69268 0.855985
0.60953 0.426558 -2.63766
-0.307723 -1.02361 -0.701899
-0.543666 -1.30182 -2.13035
0.48596 -0.969964 -0.0423078
-0.954403 -0.474801 0.146484
0.139335 0.61625 0.549299
-0.271544 0.0916913 0.42546
-0.481159 0.0390405 0.648496
0.467248 -0.140069 1.5055
-0.0626866 -1.0084 1.47314
0.357787 -0.832481 0.471251
-0.889547 -0.808789 -0.263373
0.536191 0.240032 -1.5652
-0.302793 0.691852 -0.739972
1.67158 1.04103 -0.542116
-1.70488 2.21572 2.08105
0.0482953 1.88036 0.971144
0.119056 1.93143 4.18428
-0.066566 1.79393 0.0959952
-0.958992 0.928469 2.51417
0.702559 0.543527 -1.75148
-1.00832 0.090904 0.779781
1.41674 -0.139717 -2.13179
-1.45926 -0.479667 0.475234
0.845197 -0.806154 -0.986629
-1.26175 -0.676097 1.0851
0.543682 0.883436 0.826086
0.0730434 0.444881 2.561
0.514892 0.260566 2.59056
-0.699497 0.247309 3.15435
0.708045 -0.0261732 2.42084
-0.705792 0.0498573 2.1506
1.12581 0.0700061 1.56715
-0.99633 0.508943 1.25775
2.75274 -0.878455 0.788277
-0.742359 0.586554 1.17475
1.22739 0.035906 1.36874
-0.864499 0.326151 1.43463
0.843792 -0.618516 1.53628
0.939089 0.651559 1.40146
-0.891123 0.47299 1.77465
0.250197 -0.374005 0.786337
0.0528657 1.0166 0.906224
-0.237843 0.927562 -1.23772
0.282271 1.31866 -0.911872
1.67216 2.2865 -1.6311
-0.99666 0.889359 0.565776
-0.170116 0.498847 0.644694
-0.746454 -1.39123 1.68126
1.07972 0.183083 0.615885
-1.37032 0.473801 1.19796
0.611447 0.209715 0.229066
0.381013 0.23352 1.16258
0.461717 0.213307 -0.755676
-0.200443 1.30725 -0.946211
1.25171 -0.114048 -1.49414
1.39354 0.258289 -1.41357
0 0 0
0 0 0
-0.693503 0.612923 -0.163898
-1.33416 -0.0499835 -0.747132
0.598182 0.644463 -0.329775
0.132875 1.40882 -0.239545
0.253185 -0.773745 -1.54422
-0.138504 0.108322 -1.83129
1.30507 0.101147 -1.37955
1.21553 0.748562 1.99397
0.287338 -1.06393 0.348208
-0.224047 1.20191 1.45805
-0.395168 -0.860895 0.338732
-0.113692 0.409575 -0.705747
-1.71912 0.505759 -0.0675636
-0.834629 -0.953955 0.20619
-0.39072 0.975571 -1.17309
-2.59478 -0.598772 0.323641
-1.74212 -0.800794 -0.566663
-1.11479 -0.251004 -0.0916872
-2.25545 0.847242 -1.80021
-1.66015 -1.08454 -1.85001
-3.40401 0.714652 -2.24624
-2.46867 0.00783446 -2.48264
-2.47107 0.0925636 -0.544226
-0.86164 -0.235661 -1.53809
0.082989 1.25524 0.081661
-1.42523 -0.242072 -2.1597
-1.11323 0.898763 -1.31965
-0.249171 -1.71824 -2.82878
-0.538058 1.4853 -3.19288
0.695624 -0.19519 -4.33873
-1.41994 0.48051 -3.509
-0.211138 -0.37276 -4.49977
-1.05466 0.613075 -1.48946
-1.41281 0.0851147 -2.43846
-1.84886 -1.14186 -1.23879
-1.58107 1.91271 -1.66065
0.65873 -0.804787 1.56638
1.52608 1.28791 -1.21976
0.971318 -1.90902 1.66598
1.33189 1.85361 -1.37559
1.36594 -2.25292 1.20934
0.36275 0.6947 0.913753
-0.551109 -0.394803 1.28811
-0.996549 -1.40071 0.482125
-1.00704 1.23415 -0.686399
-0.93661 0.0144601 -1.96734
0.523694 1.15998 -0.0595346
-0.137759 0.170269 0.236724
-0.787455 -1.15126 -0.575562
-0.149558 0.036558 0.58306
-1.63965 0.0751626 0.0393062
-0.236551 1.39267 0.265184
0.45489 -1.37447 1.12367
0.868046 -0.327825 -0.739786
0.131261 -0.478188 1.37993
1.383 1.62221 1.1532
0.418284 -0.860041 2.8931
1.19833 -0.198536 1.11232
1.39201 0.373579 0.655442
1.24742 0.0641495 -1.10585
1.87062 -0.118743 -1.10876
1.76233 1.04895 0.446473
0.729928 -1.48151 -1.2622
0.468941 0.800019 -1.30552
0.401796 -0.812382 -0.843665
0.772986 1.81842 -0.073956
1.0744 -0.583496 -0.0232805
0.0985732 -0.959824 -0.138254
0.602823 0.302736 -0.917751
-1.10671 0.423866 0.181155
-0.140192 -0.80569 -0.620912
-0.496281 -0.175047 0.607867
-0.700697 1.27635 -1.73973
-1.12113 -0.27417 -0.236933
-1.2401 -1.2452 0.111243
-0.492488 0.844219 1.0897
-1.35831 -0.61624 0.908733
-0.703789 0.177223 0.407498
-0.352352 -0.517236 0.0317019
-0.936505 0.14856 0.626284
-0.616177 0.574002 1.02808
0.435606 0.0285902 2.15012
-1.243 -0.0123351 1.08366
-0.905957 0.459554 -2.3919
0.40194 0.767146 -2.16167
-0.227705 -1.28818 -1.39005
1.10367 1.51858 0.363989
0.378804 -0.414713 -0.590795
-0.152818 0.984981 -0.0864085
-0.0320441 -0.521865 -0.44055
-0.69266 1.86777 0.0448166
-0.713413 -0.134303 0.636958
-0.207973 0.151943 0.803647
0.606564 -1.63032 -1.5835
0 0 0
0 0 0
-0.857804 -0.289598 -0.0207848
0.169992 0.417592 0.729481
0.217201 -0.680303 1.08231
-1.53539 0.193081 -0.255963
0.752337 0.662884 0.477994
-1.01133 -0.207705 -1.63361
-0.171316 0.425273 0.212318
0.050849 0.552197 -2.2349
0.0522441 1.02243 0.682437
0.179115 0.814345 -0.917739
1.33628 0.343194 2.3506
-1.93534 0.66406 0.041745
1.79574 0.679664 1.96484
-1.42992 1.07291 -1.29864
0.789815 0.278966 0.647702
-0.0744715 0.676685 -1.43363
-0.346279 0.746954 0.369146
0.65731 0.960684 -1.52032
-0.23955 1.03469 0.152297
0.121324 0.112295 -0.99508
-1.12644 0.139348 -0.0204688
-0.256341 0.712074 -0.785274
0.318051 -0.550674 -0.632569
-0.471608 0.26314 -1.05233
0.601139 0.931819 -0.529397
-0.357008 0.622668 -0.876514
-0.210566 0.580785 -0.301905
0.0135822 -1.1977 -0.928516
0.258471 -1.92529 0.745658
-0.185025 -1.37551 -0.159257
1.27998 -1.02787 1.6364
0.293119 -0.18083 0.185579
-0.199779 -0.299801 1.24845
-0.22838 0.779953 -0.375992
0.351733 -0.208312 1.1064
0.153793 -0.326315 -0.0522415
-0.0951507 0.265828 1.29095
1.42248 -1.59134 0.0814011
-0.169569 0.179311 0.650016
0.57258 -0.821869 -0.552291
0.0478389 0.926929 0.362865
0.240405 1.1141 -0.105221
-0.110373 0.618724 0.645176
0.00732461 0.40649 0.152621
0.475532 -0.0543716 0.000745835
0.285398 -0.892108 0.28812
0.479082 0.101293 0.316132
0.105105 0.628842 1.03345
0.949476 0.805996 -0.0944605
0.244591 1.78968 -0.206888
0.342555 0.159178 -1.25442
-0.711334 -0.0439093 -0.470037
1.33206 -0.66497 -0.583199
-0.569303 -1.75402 1.20989
0.918914 -0.64436 0.0104406
0.315378 -0.187329 2.08847
0.276418 -0.710622 -0.120132
0.0218017 0.322318 1.35609
0.696188 -0.805293 -0.825496
-1.41208 -0.0566242 0.279469
0.573372 1.49242 -1.2597
-0.816351 0.817568 -0.0111578
1.1527 0.577604 -1.18106
-0.897743 -0.0506634 -0.00165304
-0.0658004 -0.0361485 -0.706184
-0.499082 0.74008 1.27124
1.14308 -0.854107 0.300021
-0.552615 0.018916 1.88984
0.572479 -0.747831 0.572632
-0.0564603 -0.533011 1.1491
0.0306186 -0.533439 -0.0338749
-0.955956 0.745697 0.977935
0.716617 0.0845927 0.292063
-0.579541 -0.697613 1.10677
-0.914826 0.357267 0.0677883
-0.406281 0.331048 0.560484
-0.715469 -0.167141 -0.636347
-0.580964 0.546805 -0.507062
-0.527594 -0.486657 -1.47559
0.703745 -0.621079 -1.1287
0.384354 -0.48777 -1.5764
-0.072427 -0.0206485 -1.47188
0.448416 0.107125 -1.59066
-0.515504 -0.0985639 -1.16271
-0.143032 0.191449 -0.421866
-0.385211 -1.18096 0.094902
0.128477 0.205242 0.315359
0.734727 -1.05261 0.633744
0.388266 0.525056 0.745727
0.385087 -1.2414 0.866802
0.511308 -0.160102 0.724241
-0.14527 -1.51109 0.27335
0.595138 0.336267 -0.79381
0.141887 -0.442311 -0.799059
0.569253 -0.0514984 -0.897414
2.15819 0.528966 -1.27637
0 0 0
0 0 0
0.862077 0.561311 -0.469299
-0.12444 -0.192393 -0.676467
1.27357 -0.310868 0.70027
0.721062 0.0705061 0.23354
-0.725425 0.00925825 -0.339381
-1.01589 0.496004 -0.550015
-1.1805 -1.69193 0.355911
-0.580954 0.908768 2.0471
-0.0699444 0.0867038 1.66254
-2.06464 0.130284 2.04935
0.151096 -0.684835 1.81635
-0.187009 0.061861 1.82892
-0.198711 -0.272101 2.69091
1.56708 -0.826942 1.72295
1.10875 0.694358 1.82844
0.699828 0.236297 1.34453
0.78871 0.163064 2.06173
1.25571 0.793833 1.01158
0.446301 0.597797 1.10251
0.482818 -1.0549 1.49204
1.65117 -1.34969 0.191784
1.26227 -1.12046 2.89826
0.404537 0.499543 1.13949
-1.04883 -0.603211 2.7966
0.160313 -0.291122 0.88017
0.86008 -0.363009 0.922433
1.52637 0.944665 1.01517
-0.243448 0.27279 1.03075
0.0466587 1.56894 2.4632
0.0397266 -0.331248 0.825512
0.659001 1.05686 1.00491
-0.468091 0.0186813 -0.45675
-0.0430348 -0.620939 0.680606
0.108919 0.269203 0.261929
0.245883 -0.531704 -0.393104
0.449884 0.392704 1.08033
-0.462514 -0.776398 0.489194
-1.18633 1.32372 2.09828
-2.20362 -1.69887 0.745166
-1.75358 1.23967 1.12241
-1.54042 -0.225016 1.09442
-0.843399 0.660531 0.738561
-0.291143 0.650606 1.84468
1.51055 0.709232 0.253825
0.938449 0.328923 0.444014
0.417358 -0.482245 -0.315453
0.846186 -0.248526 -0.768915
-0.761327 -0.118721 0.148712
1.22575 -0.693067 -0.446718
1.06951 0.361821 0.563773
1.46365 -0.716765 -0.0988981
1.32901 0.777766 0.688909
1.05051 -0.18611 -0.245229
-0.0475753 0.220656 -0.111879
-0.178074 -0.220465 0.171824
-0.742862 -0.352777 0.645946
-1.12635 -0.675894 0.17129
-0.919167 1.22578 1.28098
-1.26351 -0.159503 -1.08951
-0.616065 0.452944 0.00564413
-0.226536 -0.0558382 -0.806028
-0.834687 0.928142 0.309356
-0.265062 -0.46956 -1.26613
0.0820956 0.650425 -0.122035
-1.12476 -0.394746 -0.928386
-0.450792 0.00349955 0.25981
-1.40256 -0.51903 -0.292643
-0.318555 0.316268 0.556554
0.138162 0.417057 -0.467442
-0.21442 0.0799286 0.97495
1.24648 -0.90059 -0.197235
0.97316 0.796526 0.746448
0.0607094 -0.728171 -1.07786
1.09387 -0.960253 0.657627
1.43291 0.150764 -0.468824
1.27087 -0.8585 0.847313
0.000124554 0.390205 0.0316141
-0.527743 0.631262 0.461879
-0.661407 0.305861 -0.564386
-0.160477 0.0189912 0.021623
1.75607 -0.30247 0.273147
1.264 0.304405 0.83076
0.00130726 1.24105 -0.114133
0.0424561 0.121772 -0.53612
0.732239 0.495481 -1.24953
0.444009 0.283401 -0.658736
-0.567249 -0.321496 0.30497
-0.630779 -0.454861 -0.348562
-0.67129 -0.125773 0.194297
-0.457816 -0.0947997 -0.518843
-0.379098 1.18444 0.241184
-0.495176 -0.663658 0.493944
0.344614 0.246087 0.507881
0.314867 -0.860175 -0.659328
-0.286373 0.0705213 -0.414443
0 0 0
0 0 0
0 0 0
0 0 0
0 0 0
0 0 0
0 0 0
0 0 0
0 0 0
0 0 0
0 0 0
0 0 0
0 0 0
0 0 0
0 0 0
0 0 0
0 0 0
0 0 0
0 0 0
0 0 0
0 0 0
0 0 0
0 0 0
0 0 0
0 0 0
0 0 0
0 0 0
0 0 0
0 0 0
0 0 0
0 0 0
0 0 0
0 0 0
0 0 0
0 0 0
0 0 0
0 0 0
0 0 0
0 0 0
0 0 0
0 0 0
0 0 0
0 0 0
0 0 0
0 0 0
0 0 0
0 0 0
0 0 0
0 0 0
0 0 0
0 0 0
0 0 0
0 0 0
0 0 0
0 0 0
0 0 0
0 0 0
0 0 0
0 0 0
0 0 0
0 0 0
0 0 0
0 0 0
0 0 0
0 0 0
0 0 0
0 0 0
0 0 0
0 0 0
0 0 0
0 0 0
0 0 0
0 0 0
0 0 0
0 0 0
0 0 0
0 0 0
0 0 0
0 0 0
0 0 0
0 0 0
0 0 0
0 0 0
0 0 0
0 0 0
0 0 0
0 0 0
0 0 0
0 0 0
0 0 0
0 0 0
0 0 0
0 0 0
0 0 0
0 0 0
0 0 0
0 0 0
-0.219547 -0.558794 -0.175376
0 0 0
0 0 0
0 0 0
0 0 0
0 0 0
0 0 0
0 0 0
0 0 0
0 0 0
0 0 0
0 0 0
0 0 0
0 0 0
0 0 0
0 0 0
0 0 0
0 0 0
0 0 0
0 0 0
0 0 0
0 0 0
0 0 0
0 0 0
0 0 0
0 0 0
0 0 0
0 0 0
0 0 0
0 0 0
0 0 0
0 0 0
0 0 0
0 0 0
0 0 0
0 0 0
0 0 0
0 0 0
0 0 0
0 0 0
0 0 0
0 0 0
0 0 0
0 0 0
0 0 0
0 0 0
0 0 0
0 0 0
0 0 0
0 0 0
0 0 0
0 0 0
0 0 0
0 0 0
0 0 0
0 0 0
0 0 0
0 0 0
0 0 0
0 0 0
0 0 0
0 0 0
0 0 0
0 0 0
0 0 0
0 0 0
0 0 0
0 0 0
0 0 0
0 0 0
0 0 0
0 0 0
0 0 0
0 0 0
0 0 0
0 0 0
0 0 0
0 0 0
0 0 0
0 0 0
0 0 0
0 0 0
0 0 0
0 0 0
0 0 0
0 0 0
0 0 0
0 0 0
0 0 0
0 0 0
0 0 0
0 0 0
0 0 0
0 0 0
0 0 0
0 0 0
0 0 0
0 0 0
0 0 0
0 0 0
0 0 0
0 0 0
0 0 0
0 0 0
0 0 0
0 0 0
0 0 0
0 0 0
0 0 0
0 0 0
0 0 0
0 0 0
0 0 0
0 0 0
0 0 0
0 0 0
0 0 0
0 0 0
0 0 0
0 0 0
0 0 0
0 0 0
0 0 0
0 0 0
0 0 0
0 0 0
0 0 0
0 0 0
0 0 0
0 0 0
0 0 0
0 0 0
0 0 0
0 0 0
0 0 0
0 0 0
0 0 0
0 0 0
0 0 0
0 0 0
0 0 0
0 0 0
0 0 0
0 0 0
0 0 0
0 0 0
0 0 0
0 0 0
0 0 0
0 0 0
0 0 0
0 0 0
0 0 0
0 0 0
0 0 0
0 0 0
0 0 0
0 0 0
0 0 0
0 0 0
0 0 0
0 0 0
0 0 0
0 0 0
0 0 0
0 0 0
0 0 0
0 0 0
0 0 0
0 0 0
0 0 0
0 0 0
0 0 0
0 0 0
0 0 0
0 0 0
0 0 0
0 0 0
0 0 0
0 0 0
0 0 0
0 0 0
0 0 0
0 0 0
0 0 0
0 0 0
0 0 0
0 0 0
0 0 0
0 0 0
0 0 0
0 0 0
0 0 0
0 0 0
0 0 0
0 0 0
0 0 0
0 0 0
0 0 0
0 0 0
0 0 0
0 0 0
0 0 0
0 0 0
0 0 0
0 0 0
0 0 0
0 0 0
0 0 0
0 0 0
0 0 0
0 0 0
0 0 0
0 0 0
0 0 0
0 0 0
0 0 0
0 0 0
0 0 0
0 0 0
0 0 0
0 0 0
0 0 0
0 0 0
0 0 0
0 0 0
0 0 0
0 0 0
0 0 0
0 0 0
0 0 0
0 0 0
0 0 0
0 0 0
0 0 0
0 0 0
0 0 0
0 0 0
0 0 0
0 0 0
0 0 0
0 0 0
0 0 0
0 0 0
0 0 0
0 0 0
0 0 0
0 0 0
0 0 0
0 0 0
0 0 0
0 0 0
0 0 0
0 0 0
0 0 0
0 0 0
0 0 0
0 0 0
0 0 0
0 0 0
0 0 0
0 0 0
0 0 0
0 0 0
0 0 0
0 0 0
0 0 0
0 0 0
0 0 0
0 0 0
0 0 0
0 0 0
0 0 0
0 0 0
0 0 0
0 0 0
0 0 0
0 0 0
0 0 0
0 0 0
0 0 0
0 0 0
0 0 0
0 0 0
0 0 0
0 0 0
0 0 0
0 0 0
0 0 0
0 0 0
0 0 0
0 0 0
0 0 0
0 0 0
0 0 0
0 0 0
0 0 0
0 0 0
0 0 0
0 0 0
0 0 0
0 0 0
0 0 0
0 0 0
0 0 0
0 0 0
0 0 0
0 0 0
0 0 0
0 0 0
0 0 0
0 0 0
0 0 0
0 0 0
0 0 0
0 0 0
0 0 0
0 0 0
0 0 0
0 0 0
0 0 0
0 0 0
0 0 0
0 0 0
0 0 0
0 0 0
0 0 0
0 0 0
0 0 0
0 0 0
0 0 0
0 0 0
0 0 0
0 0 0
0 0 0
0 0 0
0 0 0
0 0 0
0 0 0
0 0 0
0 0 0
0 0 0
0 0 0
0 0 0
0 0 0
0 0 0
0 0 0
0 0 0
0 0 0
0 0 0
0 0 0
0 0 0
0 0 0
0 0 0
0 0 0
0 0 0
0 0 0
0 0 0
0 0 0
0 0 0
0 0 0
0 0 0
0 0 0
0 0 0
0 0 0
0 0 0
0 0 0
0 0 0
0 0 0
0 0 0
0 0 0
0 0 0
0 0 0
0 0 0
0 0 0
0 0 0
0 0 0
0 0 0
0 0 0
0 0 0
0 0 0
0 0 0
0 0 0
0 0 0
0 0 0
0 0 0
0 0 0
0 0 0
0 0 0
0 0 0
0 0 0
0 0 0
0 0 0
0 0 0
0 0 0
0 0 0
0 0 0
0 0 0
0 0 0
0 0 0
0 0 0
0 0 0
0 0 0
0 0 0
0 0 0
0 0 0
0 0 0
0 0 0
0 0 0
0 0 0
0 0 0
0 0 0
0 0 0
0 0 0
0 0 0
0 0 0
0 0 0
0 0 0
0 0 0
0 0 0
0 0 0
0 0 0
0 0 0
0 0 0
0 0 0
0 0 0
0 0 0
0 0 0
0 0 0
0 0 0
0 0 0
0 0 0
0 0 0
0 0 0
0 0 0
0 0 0
0 0 0
0 0 0
0 0 0
0 0 0
0 0 0
0 0 0
0 0 0
0 0 0
0 0 0
0 0 0
0 0 0
0 0 0
0 0 0
0 0 0
0 0 0
0 0 0
0 0 0
0 0 0
0 0 0
0 0 0
0 0 0
0 0 0
0 0 0
0 0 0
0 0 0
0 0 0
0 0 0
0 0 0
0 0 0
0 0 0
0 0 0
0 0 0
0 0 0
0 0 0
0 0 0
0 0 0
0 0 0
0 0 0
0 0 0
0 0 0
0 0 0
0 0 0
0 0 0
0 0 0
0 0 0
0 0 0
0 0 0
0 0 0
0 0 0
0 0 0
0 0 0
0 0 0
0 0 0
0 0 0
0 0 0
0 0 0
0 0 0
0 0 0
0 0 0
0 0 0
0 0 0
0 0 0
0 0 0
0 0 0
0 0 0
117.155 160 -0.499999
117.155 160 -0.499999
117.155 160 -0.499999
117.155 160 -0.499999
117.155 160 -0.499999
117.155 160 -0.499999
117.155 160 -0.499999
117.155 160 -0.499999
117.155 160 -0.499999
117.155 160 -0.499999
117.155 160 -0.499999
117.155 160 -0.499999
117.155 160 -0.499999
117.155 160 -0.499999
117.155 160 -0.499999
117.155 160 -0.499999
117.155 160 -0.499999
117.155 160 -0.499999
117.155 160 -0.499999
117.155 160 -0.499999
117.155 160 -0.499999
117.155 160 -0.499999
117.155 160 -0.499999
117.155 160 -0.499999
117.155 160 -0.499999
117.155 160 -0.499999
117.155 160 -0.499999
117.155 160 -0.499999
117.155 160 -0.499999
117.155 160 -0.499999
117.155 160 -0.499999
117.155 160 -0.499999
117.155 160 -0.499999
117.155 160 -0.499999
117.155 160 -0.499999
117.155 160 -0.499999
117.155 160 -0.499999

VECTORS Displacement float
0 0 0
0 0 0
0 0 0
0 0 0
0 0 0
0 0 0
0 0 0
0 0 0
0 0 0
0 0 0
-1.03973e-07 3.27146e-08 7.76055e-08
-7.01077e-09 -9.20922e-08 -2.1486e-07
0 0 0
0 0 0
-4.71877e-08 -6.7161e-08 -1.13051e-07
0 0 0
0 0 0
-2.70642e-08 2.93441e-07 -1.12073e-07
-1.88478e-07 -3.48552e-07 1.92921e-07
-1.28874e-07 8.15206e-09 -1.41146e-07
0 0 0
0 0 0
-7.50615e-08 -2.92475e-08 1.04976e-07
1.93167e-07 2.39472e-08 3.94701e-07
0 0 0
0 0 0
4.30822e-08 -7.11928e-08 -3.38912e-07
-3.42023e-08 -1.41726e-07 4.02694e-08
1.67088e-07 -3.05695e-08 3.38967e-07
1.42221e-07 -1.44765e-07 6.62695e-07
0 0 0
0 0 0
-8.9714e-08 -1.03526e-07 2.35418e-07
-4.42704e-08 -1.51631e-08 6.99463e-07
3.37758e-08 2.26359e-08 1.43083e-06
0 0 0
0 0 0
8.5077e-08 -4.46166e-08 -1.72188e-07
-1.10683e-08 -6.62304e-08 -4.33101e-07
-2.77959e-08 -6.85402e-08 -1.76226e-07
-1.18851e-07 -7.3316e-08 1.08454e-06
-7.87818e-08 -1.31513e-07 1.2437e-06
0 0 0
0 0 0
2.17567e-07 -9.58811e-08 1.29386e-07
5.19375e-08 1.31982e-07 1.25485e-06
3.21542e-07 -2.14064e-07 1.39176e-06
5.93388e-08 1.02687e-07 2.71739e-06
0 0 0
0 0 0
2.97471e-09 -2.83958e-07 -7.06895e-08
-6.94567e-08 -1.27326e-08 2.6172e-07
8.87591e-08 -2.37139e-07 5.04233e-07
-3.70171e-08 -1.0805e-08 -5.29199e-08
1.62927e-07 -2.72587e-07 8.45768e-07
2.29451e-07 -8.39426e-08 1.48284e-06
0 0 0
0 0 0
1.76951e-08 1.22332e-07 -1.32297e-07
1.71464e-07 -3.12043e-07 3.14961e-07
-8.28278e-08 -9.02039e-08 1.17144e-06
-2.48532e-07 -3.60314e-07 1.51378e-06
-7.23126e-08 -4.47829e-08 1.22707e-06
0 0 0
0 0 0
-4.35836e-08 -2.29085e-07 4.22708e-07
-2.59012e-07 -4.10725e-07 4.6632e-07
8.66766e-09 -1.99017e-08 5.56495e-09
-6.23607e-08 -4.08115e-08 9.45274e-07
-5.7009e-08 -3.0826e-08 -5.32423e-07
-8.84537e-08 -1.35074e-07 -6.79272e-07
2.21423e-07 1.47088e-07 -5.22914e-07
0 0 0
0 0 0
1.92917e-07 -9.88939e-08 -5.80739e-07
1.90306e-07 6.51791e-08 -1.15186e-06
2.33866e-07 -1.48168e-07 -7.45379e-07
2.349e-07 -1.90954e-07 -6.001e-08
8.85196e-08 -7.15372e-08 -1.43443e-06
3.08797e-07 -9.82132e-08 -2.52843e-06
0 0 0
0 0 0
1.36132e-07 -2.5492e-07 2.69171e-07
-1.46595e-07 -3.09723e-07 8.0157e-07
-3.0851e-09 -1.92581e-07 7.23196e-07
7.78588e-08 -2.52032e-07 -3.9775e-07
7.49028e-08 -1.87468e-07 1.22142e-06
-1.04603e-07 -1.22799e-07 -1.42642e-06
2.47309e-07 -1.5321e-07 -4.53683e-06
6.8452e-07 -2.1606e-07 -3.61479e-06
0 0 0
0 0 0
1.15897e-07 5.2094e-08 -9.68001e-07
2.76979e-07 -2.35984e-07 -9.73473e-07
2.32497e-07 9.15483e-08 -1.24964e-06
5.1857e-09 -1.855e-07 -4.9222e-07
4.48791e-08 -1.36676e-07 -1.90434e-06
-2.96748e-07 -1.93212e-07 -3.87168e-06
7.62209e-08 -4.02921e-07 -5.1065e-06
0 0 0
0 0 0
-3.03153e-07 -2.70397e-07 -1.00776e-08
-3.74207e-07 -2.84278e-07 -3.43131e-07
2.51239e-07 -1.57673e-07 -8.86936e-07
1.1083e-07 -2.67654e-07 2.05101e-07
2.55162e-07 9.35851e-08 -6.9684e-07
1.98215e-07 -1.84885e-07 -3.28985e-07
6.07505e-08 -9.43739e-08 -4.20825e-06
-2.86126e-07 -1.52189e-08 -5.57528e-06
2.24994e-07 -3.0096e-07 -5.07692e-06
0 0 0
0 0 0
2.19863e-07 -1.79027e-07 -2.75915e-07
1.20132e-07 -4.67487e-07 -1.0559e-06
2.47557e-07 -1.87752e-07 -6.7707e-07
1.64124e-07 -2.15649e-07 -8.82241e-07
2.12996e-07 -8.55969e-08 -1.98757e-06
1.31759e-07 -2.6081e-07 -3.9799e-06
3.06456e-07 -2.7978e-08 -5.82385e-06
3.56509e-07 -3.27453e-07 -6.13809e-06
0 0 0
0 0 0
-3.46796e-08 5.81314e-08 -6.50907e-07
-1.66954e-07 -2.57258e-07 -7.26587e-07
-4.39823e-08 -3.48576e-07 -4.4901e-07
-1.57337e-07 -2.49761e-07 -1.52114e-06
5.8677e-08 -3.08965e-07 6.96272e-07
-1.94089e-07 -8.62724e-08 -2.09639e-06
5.57894e-07 -2.14833e-07 -3.96604e-06
-1.4288e-07 2.94662e-08 -6.72143e-06
2.74954e-07 -2.07378e-08 -6.77834e-06
3.86747e-07 -4.17561e-07 -7.724e-06
0 0 0
0 0 0
9.01488e-08 -7.42706e-08 -5.47536e-07
1.52452e-08 -2.61475e-07 -6.62069e-07
1.58138e-07 -1.72877e-08 -1.24285e-06
4.15814e-08 -1.63408e-07 -1.09741e-06
-1.66655e-08 -7.18673e-08 -2.262e-06
4.11e-08 -1.25974e-08 -3.76094e-06
-2.76414e-07 -3.09255e-07 -5.20337e-06
9.64879e-08 3.05152e-08 -6.11954e-06
-1.27284e-07 -4.5218e-07 -6.68732e-06
0 0 0
0 0 0
-1.00171e-07 -9.71372e-08 -7.4938e-07
-2.65162e-07 -5.04262e-09 -1.28764e-06
-9.23697e-10 -3.91593e-07 -8.76609e-07
-2.65386e-07 -3.39506e-07 2.24032e-07
1.43921e-07 -2.77554e-07 -7.53421e-07
-4.56751e-09 -1.23962e-07 -1.55768e-06
6.49411e-08 -2.29953e-07 -5.97269e-06
3.14571e-07 -3.03713e-07 -7.747e-06
1.58021e-07 -8.91546e-08 -1.00369e-05
2.83035e-07 -5.50839e-08 -7.95501e-06
1.17228e-07 -2.13985e-07 -9.70473e-06
0 0 0
0 0 0
3.94288e-08 -8.47051e-09 -2.64072e-07
4.43489e-08 -1.14751e-07 -1.13312e-06
1.26738e-08 6.32679e-08 -1.54668e-06
-9.9723e-08 -8.17579e-08 -2.25266e-06
-2.85199e-07 -1.4812e-07 -3.44067e-06
-2.23939e-08 -1.26287e-07 -4.9081e-06
-1.12585e-07 7.86916e-08 -7.38593e-06
6.02932e-08 -3.47438e-07 -8.38101e-06
-6.35372e-08 9.93398e-08 -9.85319e-06
2.24628e-07 -1.48149e-07 -9.68996e-06
0 0 0
0 0 0
-4.69435e-08 -7.59136e-08 -1.30237e-06
-2.22886e-07 -7.56655e-08 -1.1567e-06
-6.91589e-08 -3.27051e-07 -8.62323e-08
-5.59816e-08 -3.0535e-07 -6.96337e-07
1.0651e-07 -4.21184e-08 8.8591e-07
-4.31945e-07 2.70734e-08 -3.29437e-06
2.62298e-07 6.74584e-08 -6.16522e-06
-2.07873e-07 -4.47041e-08 -1.00152e-05
2.43954e-07 -1.65246e-07 -1.13166e-05
-2.27252e-07 -1.32582e-07 -1.20855e-05
4.66457e-08 7.59245e-09 -1.15479e-05
9.21723e-08 -1.53094e-07 -1.30116e-05
0 0 0
0 0 0
-9.4106e-08 -1.39153e-07 -1.34442e-07
1.49817e-07 1.33939e-07 -1.5427e-07
2.42918e-09 -2.26314e-07 -1.16607e-06
1.97542e-07 4.76324e-08 -2.28813e-06
2.04791e-07 -3.65763e-08 -3.79088e-06
-2.42659e-08 4.30305e-08 -5.93203e-06
1.39862e-07 -3.25348e-07 -8.04163e-06
7.62291e-09 1.08708e-07 -1.05035e-05
2.76516e-07 -3.07057e-07 -1.18177e-05
-1.36772e-07 1.44115e-07 -1.2624e-05
2.00824e-07 -3.03187e-07 -1.3701e-05
0 0 0
0 0 0
-2.65809e-07 -1.37654e-07 -1.47998e-06
2.03041e-08 -3.92669e-08 -2.6996e-06
6.68122e-09 -1.52804e-07 -1.84529e-06
-2.69493e-07 -2.21907e-07 -1.32123e-07
9.57675e-08 -5.73353e-08 -7.36888e-07
-1.01618e-07 -9.75114e-08 -2.28332e-06
-8.84275e-08 -2.63447e-07 -6.81084e-06
2.11569e-07 -4.17656e-07 -8.69176e-06
6.83476e-08 -4.12698e-07 -1.15706e-05
1.65838e-07 -1.26165e-07 -1.28216e-05
1.7793e-07 -9.78373e-08 -1.62871e-05
1.59446e-07 -9.63667e-08 -1.64559e-05
-1.38137e-07 -3.57875e-07 -1.95646e-05
0 0 0
0 0 0
-1.98582e-07 -1.34913e-07 7.62282e-07
-1.60584e-07 -1.21569e-07 5.70121e-07
-2.77972e-07 2.04062e-07 3.39827e-07
-3.98815e-08 -3.65392e-08 -2.40847e-06
-2.50358e-07 3.05247e-07 -3.6537e-06
-1.36106e-08 -5.60055e-08 -6.80977e-06
-3.3511e-07 1.86808e-07 -8.71916e-06
5.31189e-08 -2.68097e-07 -1.23898e-05
-1.05797e-07 -5.47421e-09 -1.36121e-05
-3.17418e-08 -1.61066e-07 -1.57994e-05
7.32672e-08 1.36651e-07 -1.62089e-05
-3.01529e-08 -3.26174e-07 -2.00077e-05
0 0 0
0 0 0
1.03884e-07 -1.72837e-08 -2.07669e-06
-9.63485e-08 -2.9002e-07 -3.80719e-06
2.64826e-07 -1.25225e-07 -3.22252e-06
-2.18962e-07 -2.75184e-07 -3.36747e-06
8.90128e-08 -1.28316e-07 -6.20017e-07
-2.4256e-07 -7.92632e-08 -4.34539e-06
2.40911e-07 -1.51908e-07 -5.72411e-06
-2.55437e-07 2.58734e-08 -9.06015e-06
2.32663e-07 -2.80726e-07 -1.01273e-05
-1.43685e-07 -3.42508e-07 -1.42369e-05
2.74582e-07 -7.42267e-08 -1.79758e-05
9.06115e-08 3.60216e-08 -2.37771e-05
2.10575e-07 5.97471e-09 -2.27833e-05
7.45458e-08 -4.80172e-08 -2.73993e-05
0 0 0
0 0 0
-1.86901e-07 2.72108e-08 4.5975e-07
-2.6338e-07 7.27172e-08 1.18633e-06
-7.5796e-08 -2.23235e-07 -4.15912e-07
1.92831e-07 1.02454e-07 -1.92907e-06
-5.32278e-08 -4.83218e-08 -4.5316e-06
2.0935e-07 -1.11065e-08 -5.70152e-06
2.83422e-08 -1.53934e-07 -8.6255e-06
1.88464e-07 7.62973e-08 -1.03172e-05
-1.01351e-08 -3.58771e-07 -1.40794e-05
-6.88603e-08 2.20685e-07 -1.44344e-05
-2.69868e-07 -2.3397e-07 -1.79085e-05
4.31334e-08 9.67299e-08 -1.94408e-05
-6.05097e-08 -1.12803e-07 -2.50394e-05
0 0 0
0 0 0
-2.60377e-07 -1.84139e-07 -1.79352e-06
4.51873e-08 -3.491e-08 -4.62282e-06
-6.23644e-08 8.18308e-08 -5.4694e-06
2.59815e-07 -6.88413e-08 -3.81312e-06
-2.91604e-08 -2.30551e-07 -4.05991e-06
7.09353e-09 -2.1427e-07 -4.50034e-06
6.75759e-08 -1.89887e-07 -7.58694e-06
8.39667e-08 -2.99021e-07 -7.54384e-06
-2.30542e-07 -3.04813e-07 -1.11674e-05
-1.12546e-07 -1.78471e-07 -1.43762e-05
-9.57393e-09 -3.15447e-07 -2.20459e-05
-2.32948e-07 -9.75525e-08 -2.55678e-05
4.04325e-07 -3.95458e-07 -2.98402e-05
5.68952e-08 -1.32403e-07 -2.80664e-05
-2.30392e-07 -3.52113e-07 -3.16109e-05
0 0 0
0 0 0
-2.16699e-07 -5.72434e-08 1.03755e-07
-1.99405e-07 -5.92922e-08 -1.25687e-06
-1.73121e-08 -9.83454e-08 -2.13493e-06
-3.95044e-07 -3.09877e-07 -5.04499e-06
1.45998e-07 1.02475e-08 -5.78105e-06
-5.60103e-07 -2.71772e-07 -7.93072e-06
5.72371e-08 9.34987e-08 -9.01722e-06
-2.86831e-07 -2.47386e-07 -1.24773e-05
2.52313e-07 -4.80083e-08 -1.43121e-05
-1.89068e-07 -1.06489e-07 -1.76857e-05
4.60284e-07 -6.53459e-09 -1.8906e-05
-4.52247e-08 -3.14899e-07 -2.3288e-05
2.70641e-07 -1.15765e-07 -2.66656e-05
-2.33906e-07 -1.11709e-07 -3.20645e-05
0 0 0
0 0 0
-1.82258e-07 -1.20763e-08 -1.23578e-06
7.12344e-08 -3.91949e-07 -3.39543e-06
1.48128e-07 -1.59082e-07 -4.61822e-06
-1.77045e-07 -3.481e-07 -6.03685e-06
-4.48036e-08 -1.48652e-10 -4.41722e-06
-3.39025e-07 -1.30794e-07 -7.91358e-06
-2.16387e-08 5.80101e-09 -8.07424e-06
-1.73602e-07 3.32859e-08 -1.06166e-05
2.21209e-07 -3.48874e-07 -1.15824e-05
-2.68019e-07 -3.06103e-07 -1.75997e-05
2.59044e-07 -3.89279e-08 -2.27131e-05
-2.28518e-07 -2.43648e-07 -2.9082e-05
2.41282e-07 -4.5834e-08 -3.15564e-05
-1.98086e-07 -1.00463e-07 -3.37255e-05
1.84901e-07 -3.50104e-07 -3.56194e-05
-6.27138e-08 -3.7692e-08 -3.88261e-05
0 0 0
0 0 0
5.23834e-08 2.34935e-08 -1.08383e-06
1.42652e-07 -1.17369e-07 -2.4757e-06
-2.13942e-07 -9.31157e-09 -5.03739e-06
-5.10641e-08 8.1699e-08 -6.23395e-06
-1.97517e-07 -2.44905e-07 -8.44628e-06
1.55776e-07 -2.35589e-07 -8.74973e-06
-2.165e-07 -1.87054e-07 -1.15844e-05
8.15206e-08 1.38216e-07 -1.28247e-05
-3.70702e-07 -2.64705e-07 -1.76199e-05
3.23414e-07 4.74235e-08 -1.87982e-05
-4.1556e-07 -2.20624e-07 -2.39958e-05
3.59695e-07 5.51951e-08 -2.55193e-05
1.28803e-08 -2.36751e-07 -3.20254e-05
5.04181e-07 5.93471e-08 -3.45932e-05
-9.12349e-08 -4.38879e-07 -4.0004e-05
0 0 0
0 0 0
-1.45579e-07 -3.27192e-08 -2.34218e-07
1.28006e-07 4.76817e-09 -2.20264e-06
-3.15196e-07 -6.40686e-08 -4.48475e-06
-6.99422e-08 1.41514e-08 -4.99684e-06
-3.28259e-07 -2.32318e-07 -7.59329e-06
5.64468e-08 -2.15414e-07 -8.47776e-06
-4.0157e-07 -3.40404e-08 -1.12674e-05
-1.57451e-07 -3.0457e-07 -1.08869e-05
-1.05418e-07 -1.72796e-07 -1.55613e-05
2.77722e-08 -2.33338e-07 -1.85339e-05
-6.21308e-09 -3.91914e-07 -2.69299e-05
-3.23754e-07 -2.25759e-07 -2.90858e-05
3.37766e-08 -3.7372e-07 -3.38192e-05
-2.6623e-07 -3.21426e-07 -3.55517e-05
1.13273e-07 -4.50468e-07 -4.2664e-05
1.10258e-07 -1.72548e-07 -4.31502e-05
-3.03394e-07 -3.42331e-07 -4.78115e-05
0 0 0
0 0 0
-7.84375e-08 -4.41216e-08 -6.63784e-07
-3.82451e-07 -1.53224e-08 -3.28557e-06
-2.31516e-07 2.29942e-08 -3.88202e-06
-1.20304e-07 -1.89837e-07 -6.87202e-06
5.77771e-08 1.67046e-07 -6.9805e-06
-2.79799e-07 -2.34184e-08 -1.04364e-05
8.27806e-09 -4.30676e-08 -1.12848e-05
-3.28e-07 -1.46119e-08 -1.64321e-05
4.44446e-07 -7.82967e-08 -1.8183e-05
3.14215e-08 -1.25869e-07 -2.44764e-05
7.0654e-07 -1.60548e-07 -2.5704e-05
1.20802e-07 -1.99795e-07 -3.17054e-05
6.63572e-07 -7.82216e-08 -3.31887e-05
1.0638e-07 -3.35753e-08 -3.91739e-05
3.07454e-07 -3.4212e-07 -4.19158e-05
2.38535e-08 -1.89264e-07 -4.79002e-05
0 0 0
0 0 0
-2.51149e-08 3.37502e-08 2.12244e-07
4.27627e-08 1.186e-07 -7.39177e-07
4.58905e-08 -2.93201e-08 -2.72174e-06
5.84146e-08 -1.88257e-07 -6.37907e-06
-2.08332e-07 -1.3965e-07 -7.44476e-06
-4.09494e-07 -9.96044e-08 -1.09643e-05
-3.61922e-07 -1.79292e-07 -1.09551e-05
-6.965e-08 -3.21352e-07 -1.41629e-05
7.29178e-08 -1.88111e-07 -1.65215e-05
-4.04447e-07 -2.86685e-07 -2.24471e-05
1.00524e-07 -2.69819e-07 -2.70503e-05
-4.86272e-07 -2.71471e-07 -3.31886e-05
2.5766e-07 3.20219e-09 -3.5828e-05
-4.18807e-07 -2.77891e-07 -3.94984e-05
-1.90008e-07 -3.94436e-07 -4.60786e-05
-7.17729e-08 -1.43346e-07 -5.23075e-05
2.4437e-07 -3.94304e-07 -5.22712e-05
-5.26009e-08 -1.89108e-07 -5.77852e-05
0 0 0
0 0 0
-1.804e-08 -5.10985e-08 -1.06942e-06
2.98234e-08 7.34805e-08 -2.17909e-06
-2.42335e-07 8.94542e-08 -4.34039e-06
4.56181e-08 1.29444e-07 -4.81911e-06
-1.86486e-07 -2.55424e-08 -7.8437e-06
3.074e-07 2.21415e-07 -9.13276e-06
6.06732e-08 -3.79941e-08 -1.39524e-05
9.34112e-08 9.75746e-08 -1.62098e-05
2.26065e-08 -6.5286e-08 -2.31239e-05
2.87961e-07 7.47169e-08 -2.56794e-05
4.15407e-07 2.32382e-08 -3.25221e-05
2.87824e-07 -9.40502e-08 -3.34893e-05
2.93176e-07 -2.95861e-07 -3.9465e-05
2.48536e-07 1.10289e-07 -4.06614e-05
3.46558e-08 -4.38562e-07 -4.7041e-05
-9.92417e-08 -2.66166e-07 -5.12047e-05
-4.25305e-09 -4.68627e-07 -5.77036e-05
0 0 0
0 0 0
1.40359e-08 -3.72138e-07 4.57199e-07
1.99359e-07 -1.86641e-07 -5.95409e-07
-1.65738e-07 -2.84611e-07 -2.67588e-06
-4.37088e-08 -1.31456e-07 -5.43549e-06
-4.05286e-07 7.67341e-08 -9.58849e-06
3.04012e-09 -1.7461e-07 -1.06034e-05
-4.59658e-07 -2.24936e-07 -1.20852e-05
-1.18557e-07 -4.91758e-07 -1.35852e-05
-3.28634e-07 -3.37843e-07 -1.94208e-05
-1.89362e-07 -2.69379e-07 -2.34553e-05
-3.77531e-07 -2.78696e-07 -3.09411e-05
-2.36936e-07 -9.51433e-08 -3.41074e-05
-1.60973e-08 -4.00011e-07 -3.94097e-05
-6.4395e-09 -6.50829e-08 -4.24258e-05
-2.15321e-08 -3.87013e-07 -5.08093e-05
-3.92619e-07 -5.06899e-07 -5.70847e-05
2.01203e-08 -3.94878e-07 -6.15816e-05
-3.07774e-07 -1.20761e-07 -6.19903e-05
2.22251e-07 -6.15488e-07 -6.66507e-05
0 0 0
0 0 0
9.15843e-09 -6.56387e-09 -8.97755e-07
-2.5659e-07 1.22685e-07 -3.05195e-06
-2.48988e-08 -8.15442e-08 -3.77085e-06
-1.88857e-07 -2.22324e-08 -5.60557e-06
1.28631e-07 -2.01828e-09 -6.89565e-06
-1.32313e-07 -1.39498e-07 -1.03187e-05
2.65964e-07 -6.79598e-08 -1.33522e-05
-1.95789e-07 -1.01441e-07 -1.83938e-05
2.26686e-08 -8.618e-08 -2.24076e-05
2.37085e-07 -7.88319e-08 -2.89071e-05
1.77915e-07 -1.27827e-07 -3.20781e-05
3.34757e-07 -1.3943e-08 -3.71074e-05
3.4339e-07 -8.2884e-08 -3.97548e-05
4.83003e-07 -2.68713e-07 -4.4929e-05
1.21898e-07 -2.52335e-07 -5.03226e-05
3.44568e-07 -4.17281e-07 -5.64099e-05
1.04018e-07 -4.6124e-07 -6.2769e-05
2.36991e-07 -3.87317e-07 -6.67443e-05
0 0 0
0 0 0
1.37346e-07 -1.75732e-07 -8.87878e-09
4.3752e-08 -2.78908e-07 -3.46312e-08
1.27467e-07 4.37893e-08 -1.50492e-06
-1.10935e-07 -1.9813e-07 -5.87753e-06
-2.17278e-07 -2.41693e-07 -9.12571e-06
-3.82443e-07 -4.0769e-07 -1.14114e-05
-3.05932e-07 -5.65915e-07 -1.17183e-05
8.61198e-08 -1.43997e-07 -1.57105e-05
-2.47444e-07 -1.33384e-07 -2.07883e-05
-5.27083e-07 -5.39823e-07 -2.67752e-05
-9.50688e-08 -1.23207e-07 -3.17817e-05
-3.73535e-07 -2.76233e-07 -3.83319e-05
5.38692e-08 -2.70293e-07 -4.17498e-05
-2.35143e-07 -3.97232e-07 -4.61444e-05
3.7262e-08 -2.86226e-07 -5.36685e-05
-7.35731e-08 -9.93849e-08 -6.0906e-05
1.00233e-07 -8.73759e-08 -6.60583e-05
-2.31443e-07 8.06072e-08 -6.99056e-05
1.19147e-07 -5.8389e-07 -7.14361e-05
5.18511e-07 -5.41798e-07 -7.44884e-05
0 0 0
0 0 0
-1.61491e-07 -1.29966e-07 -1.19581e-06
2.86414e-07 7.06215e-08 -3.37673e-06
2.40952e-08 -1.51218e-07 -4.85883e-06
1.34746e-07 -3.53857e-07 -6.17887e-06
1.19318e-08 -7.40433e-09 -8.01944e-06
1.84864e-07 -3.25154e-08 -1.07063e-05
-1.28035e-07 1.69691e-07 -1.41014e-05
3.41707e-07 -6.29541e-08 -1.76851e-05
1.67477e-07 2.36674e-07 -2.30382e-05
1.94474e-07 -1.82444e-07 -2.78339e-05
4.50098e-07 9.13538e-08 -3.38663e-05
5.16684e-07 -3.14028e-08 -3.79484e-05
4.6825e-07 -6.22778e-08 -4.36224e-05
3.12128e-07 -5.13247e-08 -4.83486e-05
2.21078e-07 -3.67408e-07 -5.43332e-05
1.50987e-07 -2.24971e-07 -6.07378e-05
2.7015e-08 -4.04561e-07 -6.50848e-05
2.8852e-08 -6.16672e-07 -7.08573e-05
2.89803e-07 -6.65376e-07 -7.39404e-05
0 0 0
0 0 0
-1.14704e-07 -4.81372e-07 -1.40602e-07
2.04505e-07 -4.65945e-08 -8.3642e-07
-1.07798e-07 -5.32543e-08 -1.02421e-06
1.34082e-07 1.45553e-07 -4.57313e-06
-4.56542e-07 -5.11954e-08 -9.52179e-06
1.75998e-07 -1.06536e-07 -1.12114e-05
-7.06377e-07 -3.40836e-07 -1.2619e-05
1.57175e-07 -2.95983e-07 -1.67507e-05
-4.15185e-07 -1.79962e-07 -2.35724e-05
-1.84701e-07 -1.5053e-07 -2.8806e-05
-2.79704e-07 -4.17048e-07 -3.53894e-05
-2.79785e-07 -4.62708e-07 -3.92909e-05
2.31309e-07 -3.55996e-07 -4.41838e-05
6.09389e-08 -3.71329e-07 -4.74693e-05
-7.19903e-08 -3.48342e-07 -5.6762e-05
-2.74291e-07 -4.5995e-07 -6.43747e-05
2.32916e-07 -5.25514e-07 -6.94987e-05
2.62606e-07 -5.61135e-07 -7.45217e-05
1.37705e-07 -6.37072e-07 -7.98173e-05
2.95306e-07 -5.68456e-07 -7.99358e-05
-8.14981e-08 -5.64841e-07 -8.32133e-05
0 0 0
0 0 0
-1.27302e-08 1.31834e-07 -1.07529e-06
2.06427e-08 1.01223e-07 -2.89049e-06
-1.92373e-08 -1.75265e-07 -4.74832e-06
5.76316e-09 -2.13056e-09 -6.33676e-06
1.1819e-07 -1.98541e-07 -8.65931e-06
1.00297e-07 -7.86678e-08 -1.0907e-05
-1.2598e-07 1.15465e-07 -1.42959e-05
4.42726e-08 1.43345e-07 -1.77562e-05
-1.08783e-07 5.88115e-08 -2.27398e-05
1.28301e-07 -9.74048e-08 -2.885e-05
1.92296e-07 2.80072e-08 -3.46049e-05
7.63102e-07 8.03125e-08 -4.06057e-05
4.756e-07 -1.13904e-07 -4.65245e-05
7.69063e-07 -2.1276e-07 -5.19756e-05
9.0764e-07 -3.03523e-07 -5.90022e-05
4.95131e-07 -4.29558e-07 -6.30034e-05
6.95149e-07 -4.59025e-07 -7.0107e-05
5.36826e-07 -4.2403e-07 -7.31086e-05
5.82836e-07 -4.85582e-07 -8.0964e-05
3.59776e-07 -3.76579e-07 -8.4523e-05
0 0 0
0 0 0
-1.31384e-07 -9.12314e-08 -1.01859e-06
2.03791e-07 1.17961e-08 -8.07146e-07
-6.82332e-08 3.03577e-07 -5.30521e-07
-1.63841e-07 -1.9973e-07 -4.4734e-06
-4.02304e-08 -8.07089e-08 -8.81704e-06
-5.988e-07 -4.57078e-07 -1.14078e-05
-1.73015e-07 -3.15923e-07 -1.39097e-05
-1.66642e-07 -9.58869e-08 -1.9581e-05
-1.59507e-07 -4.95452e-07 -2.60551e-05
-2.01063e-07 -3.22851e-07 -3.14979e-05
-1.10811e-07 -2.48812e-07 -3.58056e-05
-2.90663e-07 -2.65579e-07 -4.16864e-05
2.43853e-07 -2.83906e-07 -4.42061e-05
-2.68234e-07 -2.96754e-07 -4.89565e-05
1.5726e-07 -8.75359e-08 -5.71172e-05
-6.67505e-09 -1.29679e-07 -6.67671e-05
2.98589e-07 -4.24933e-08 -7.32777e-05
-3.92694e-07 -1.10946e-07 -7.87414e-05
3.64266e-07 -1.79482e-07 -8.34267e-05
1.32922e-07 -4.80811e-07 -9.00285e-05
4.19635e-07 -4.99628e-07 -9.26742e-05
-1.59869e-07 -2.71772e-07 -9.54201e-05
0 0 0
0 0 0
-2.0745e-08 -1.85512e-07 -3.35482e-07
-1.7174e-07 1.87028e-08 -1.96861e-06
7.31728e-08 -2.05434e-07 -3.68629e-06
-2.41076e-08 -1.93599e-07 -6.57287e-06
2.53197e-07 -2.01951e-08 -8.8509e-06
3.93078e-08 2.41393e-07 -1.22358e-05
2.36051e-07 8.66837e-08 -1.46842e-05
9.90165e-08 8.17762e-09 -1.90076e-05
1.79839e-07 -1.33691e-08 -2.39513e-05
4.52417e-07 -9.47367e-08 -3.03584e-05
4.11189e-07 6.78943e-09 -3.64797e-05
2.60352e-07 8.676e-09 -4.3174e-05
4.71398e-07 -2.66388e-07 -4.93818e-05
1.99319e-07 -5.05884e-07 -5.65947e-05
4.63366e-07 -2.43309e-07 -6.18676e-05
3.51739e-07 -3.81068e-07 -6.93629e-05
2.67349e-07 -3.85352e-07 -7.31739e-05
3.80689e-07 -3.58577e-07 -8.18131e-05
4.10599e-08 -5.04459e-07 -8.62429e-05
1.35789e-07 -5.04472e-07 -9.57498e-05
2.42436e-08 -2.73528e-07 -9.88252e-05
0 0 0
0 0 0
-5.19774e-08 -1.84932e-07 -1.2271e-06
2.6837e-07 -1.45689e-07 -1.99191e-06
-6.04121e-07 2.67211e-07 -6.28661e-07
1.49433e-07 2.56096e-08 -3.55095e-06
-5.53306e-07 -6.33549e-08 -8.51315e-06
2.71328e-07 6.89041e-08 -1.11416e-05
-5.06354e-07 -1.51882e-07 -1.4384e-05
1.8623e-07 -2.00173e-07 -2.06825e-05
-5.5357e-08 -1.82422e-08 -2.75128e-05
-1.25098e-07 -2.81492e-07 -3.2686e-05
-8.5259e-08 -4.0952e-07 -3.78717e-05
-3.12418e-07 -1.70277e-07 -4.13127e-05
1.39991e-07 -4.69981e-07 -4.55581e-05
-5.15225e-08 -1.53851e-07 -4.92048e-05
-2.29374e-08 -4.34895e-07 -5.95833e-05
-1.36616e-08 -1.84336e-07 -6.92898e-05
7.95714e-08 -3.39876e-07 -7.69037e-05
-2.22438e-08 -1.38173e-07 -8.34974e-05
3.06627e-07 -6.50479e-07 -8.90576e-05
-2.129e-07 -1.4805e-07 -9.26295e-05
3.94996e-07 -4.67357e-07 -0.000102379
8.49121e-08 -6.7024e-07 -0.000107294
-2.902e-07 -1.61247e-07 -0.000108333
0 0 0
0 0 0
-3.09081e-08 1.1923e-07 -3.23884e-07
3.08145e-07 -9.30642e-08 -1.42161e-06
-9.95162e-08 3.43917e-08 -4.27365e-06
3.48568e-07 2.60308e-07 -7.41409e-06
-2.00516e-07 4.18739e-08 -1.12874e-05
2.96088e-07 1.46255e-07 -1.39541e-05
2.68808e-07 -7.51655e-08 -1.76842e-05
7.75477e-08 -9.53525e-08 -2.11098e-05
3.14581e-07 -2.31721e-07 -2.65667e-05
3.15292e-07 8.74439e-08 -3.21372e-05
4.86917e-07 -1.73737e-07 -3.81166e-05
8.92253e-07 -1.40846e-07 -4.40996e-05
5.84024e-07 -2.413e-07 -5.18304e-05
9.24684e-07 -1.72718e-07 -5.86883e-05
3.58897e-07 -4.89663e-07 -6.80403e-05
5.53915e-07 -9.89185e-08 -7.30251e-05
3.30675e-07 -4.3652e-07 -8.21418e-05
4.30574e-07 -3.20566e-07 -8.63048e-05
3.23093e-07 -2.26107e-07 -9.61421e-05
2.5686e-09 -2.53687e-07 -0.00010016
-2.1e-08 -6.20429e-07 -0.000108819
-4.23694e-07 -2.2975e-07 -0.000110939
0 0 0
0 0 0
-1.04145e-07 5.12403e-08 -1.53971e-06
-1.23376e-07 2.58576e-07 -1.32129e-06
1.68821e-07 1.52222e-07 -8.949e-08
-5.70595e-08 1.20607e-07 -3.14871e-06
-9.46411e-08 1.53137e-07 -7.11447e-06
-4.77249e-07 -8.25621e-08 -1.00229e-05
9.96498e-08 1.52396e-07 -1.45012e-05
-2.28399e-07 -3.32968e-08 -2.1147e-05
2.00826e-07 -4.12223e-07 -2.81933e-05
-1.55983e-07 -4.02508e-07 -3.34853e-05
-2.02484e-08 -1.44827e-07 -3.73943e-05
-1.97033e-07 -9.64587e-08 -4.33014e-05
1.015e-08 -2.72014e-07 -4.57862e-05
-3.63235e-07 -4.37241e-07 -5.17376e-05
4.91768e-08 -5.10454e-08 -5.9779e-05
-2.37551e-08 -3.63083e-07 -7.15413e-05
2.59316e-07 1.64475e-07 -7.93453e-05
-1.1223e-07 -3.05795e-07 -8.66259e-05
-2.52045e-10 -5.63753e-08 -9.04296e-05
-4.62213e-08 -4.98532e-07 -9.74187e-05
-9.46607e-08 -2.15757e-07 -0.000102155
1.01638e-07 -6.27285e-07 -0.000114221
-2.38734e-07 -7.16287e-07 -0.000117986
-2.75535e-07 -2.73668e-07 -0.000118173
0 0 0
0 0 0
3.11568e-09 -8.52468e-08 -1.34766e-07
5.44001e-09 2.05358e-07 -2.08059e-06
-3.3889e-08 -1.21885e-07 -4.68986e-06
-8.37917e-08 5.66057e-08 -9.80158e-06
7.00655e-08 -3.21976e-08 -1.32229e-05
2.17036e-08 2.84349e-08 -1.8187e-05
2.41697e-07 -3.11514e-07 -2.07086e-05
9.27361e-09 -1.48184e-07 -2.59585e-05
1.35601e-07 -1.62751e-07 -3.00204e-05
3.19519e-07 -4.49125e-07 -3.62861e-05
5.81952e-07 -2.62092e-07 -4.09237e-05
4.13585e-07 -4.23794e-07 -4.83849e-05
7.67611e-07 -4.0971e-08 -5.49481e-05
3.53745e-07 -3.71808e-07 -6.46845e-05
5.21349e-07 2.13286e-07 -7.12345e-05
1.49719e-07 -6.52473e-07 -8.03581e-05
5.18784e-07 -7.39156e-08 -8.49859e-05
1.36752e-07 -6.53246e-07 -9.41673e-05
2.04722e-07 -2.57934e-07 -9.9052e-05
9.76108e-08 -3.87464e-07 -0.00010836
-7.78247e-08 -4.73215e-07 -0.000111821
-1.03892e-07 -8.4064e-07 -0.000120135
1.72573e-09 -3.96727e-07 -0.000122689
0 0 0
0 0 0
-3.08552e-07 -2.62536e-07 -9.62614e-07
-8.56554e-09 -7.98087e-08 -1.37946e-06
-5.56135e-07 2.25025e-07 2.73769e-07
2.38312e-07 7.94463e-08 -1.97719e-06
-6.30816e-07 -7.55175e-08 -6.51817e-06
1.99769e-07 1.68389e-07 -9.42083e-06
-1.84969e-07 4.19691e-08 -1.38524e-05
2.59551e-07 -1.62364e-07 -2.04785e-05
-3.84247e-08 -6.61637e-08 -2.78322e-05
1.54863e-07 -8.8007e-08 -3.35302e-05
-1.52943e-08 -1.35298e-07 -3.95175e-05
1.58046e-08 -1.92385e-07 -4.31746e-05
3.21168e-07 -3.68844e-07 -4.89602e-05
-5.66124e-07 -2.15936e-07 -5.22494e-05
3.09873e-07 -5.05928e-07 -6.29908e-05
-1.26483e-07 -1.7467e-07 -7.22189e-05
-8.23716e-08 -4.83667e-07 -8.1959e-05
-7.72586e-08 3.32447e-08 -8.83306e-05
2.01225e-07 -7.06218e-07 -9.47488e-05
-1.2063e-07 -1.34014e-07 -9.7459e-05
3.06092e-07 -5.58382e-07 -0.00010777
-4.05788e-07 -1.68455e-07 -0.000112972
-1.24361e-07 -4.70958e-07 -0.000124218
-7.91685e-08 -9.03847e-07 -0.000129198
-2.67492e-07 -5.72e-07 -0.000129694
0 0 0
0 0 0
-1.04997e-07 -1.069e-07 -2.71467e-07
1.6011e-07 -1.32092e-07 -9.8837e-07
8.10423e-08 -1.14471e-07 -5.17333e-06
2.95769e-07 -3.49374e-07 -8.88356e-06
4.63154e-07 -2.26032e-07 -1.50733e-05
1.19531e-07 -2.27481e-07 -1.79693e-05
5.47001e-07 -9.56174e-08 -2.40617e-05
3.76744e-07 -1.83808e-08 -2.74785e-05
2.37117e-07 -2.16763e-07 -3.47935e-05
4.43136e-07 -8.59792e-08 -3.93383e-05
3.09312e-07 -8.08271e-08 -4.65469e-05
6.92935e-07 -2.49989e-07 -5.16566e-05
5.15548e-07 -1.11067e-07 -6.09703e-05
8.73601e-07 -2.86115e-07 -6.75431e-05
5.68861e-07 -3.37955e-07 -7.79302e-05
6.71945e-07 -2.04096e-07 -8.20903e-05
5.15105e-07 -4.2676e-07 -9.1574e-05
7.20784e-07 5.21457e-09 -9.54488e-05
2.70656e-07 -5.28914e-07 -0.000106089
1.27062e-07 -4.46507e-07 -0.000111041
-5.75231e-08 -4.44443e-07 -0.000121108
1.81958e-07 -7.39102e-07 -0.000125245
-2.15929e-07 -4.42493e-07 -0.00013369
-1.42014e-07 -8.22382e-07 -0.000135995
0 0 0
0 0 0
-2.76596e-08 1.55624e-07 -6.31658e-07
-3.9498e-07 -1.00366e-07 -6.14027e-08
2.45423e-07 3.21027e-07 9.84937e-07
-3.2496e-08 -2.50181e-08 -2.22173e-06
-5.43053e-08 8.05029e-08 -5.76313e-06
-4.68707e-07 -7.24039e-08 -9.60497e-06
4.75792e-07 1.40354e-07 -1.48036e-05
-4.33572e-09 -5.56696e-09 -2.14144e-05
1.6516e-07 -2.97873e-07 -2.85048e-05
-1.55779e-07 -2.06824e-07 -3.47731e-05
3.50141e-07 -1.15363e-07 -3.94169e-05
-5.12544e-08 -2.49521e-07 -4.62994e-05
-8.83723e-08 -4.16873e-07 -4.93309e-05
-5.81516e-08 -3.48069e-07 -5.53985e-05
1.43229e-07 -3.04011e-07 -6.15396e-05
2.66831e-08 -2.39825e-07 -7.32094e-05
1.48045e-07 1.33252e-07 -8.12396e-05
-2.40938e-07 -2.60299e-07 -9.01791e-05
2.61998e-07 -1.63994e-07 -9.43868e-05
-1.37233e-07 -6.84844e-07 -0.000102745
1.70361e-08 1.48224e-07 -0.000106973
1.53087e-07 -3.55577e-07 -0.000119531
-3.89789e-07 1.01635e-07 -0.000123871
-2.69743e-07 -6.20473e-07 -0.000135022
-1.63231e-07 -5.31774e-07 -0.00014116
-3.97058e-07 -5.6729e-07 -0.000140742
0 0 0
0 0 0
7.43385e-08 -1.63062e-07 6.18138e-07
-9.91684e-08 -1.96824e-07 -1.36171e-06
6.47319e-08 -1.98422e-07 -3.40031e-06
2.48688e-07 -1.97649e-07 -1.02068e-05
-1.63649e-08 -3.65322e-07 -1.30401e-05
3.08142e-07 -1.90575e-07 -2.03505e-05
1.19381e-07 -3.94188e-07 -2.30397e-05
3.39323e-07 -2.54687e-07 -3.21271e-05
4.21024e-07 -1.57088e-07 -3.68122e-05
5.69232e-07 -2.61959e-07 -4.63978e-05
6.35353e-07 -5.76872e-08 -5.01507e-05
7.21309e-07 -2.0433e-07 -5.92521e-05
5.73613e-07 1.80516e-07 -6.38453e-05
6.59057e-07 -5.35278e-07 -7.47397e-05
5.93851e-07 -1.14677e-07 -7.94517e-05
3.95724e-07 -6.83015e-07 -8.95148e-05
5.45927e-07 -1.26317e-07 -9.3219e-05
2.41909e-07 -6.46941e-07 -0.000103721
4.25098e-07 -1.09735e-07 -0.000108926
1.76796e-07 -7.92764e-07 -0.000119984
4.72612e-07 -1.0608e-07 -0.000124517
1.19166e-08 -9.97491e-07 -0.000134381
2.27264e-07 -1.906e-07 -0.000137818
4.81206e-08 -1.00536e-06 -0.000144504
-1.57254e-07 -2.0425e-07 -0.00014462
0 0 0
0 0 0
-4.31908e-07 -4.97964e-07 1.15825e-07
1.54492e-07 1.04578e-07 2.21942e-07
-2.94386e-07 -4.31161e-08 5.73954e-07
1.40185e-07 7.58391e-08 -1.92127e-06
-4.37469e-07 1.13976e-07 -6.95941e-06
4.50437e-07 2.61127e-07 -1.10386e-05
-5.78817e-07 1.72976e-07 -1.67507e-05
2.93038e-07 3.63148e-08 -2.26561e-05
-4.73897e-08 -2.70007e-08 -2.96969e-05
7.51825e-08 -1.28754e-07 -3.55087e-05
1.5406e-07 -2.91474e-07 -4.25805e-05
1.75999e-07 -2.84577e-07 -4.6231e-05
4.40945e-07 -1.54698e-07 -5.30412e-05
-4.44209e-07 -4.88993e-07 -5.49146e-05
3.2366e-07 -5.42888e-07 -6.43625e-05
-3.23743e-07 -5.37086e-07 -7.1203e-05
2.16364e-07 -3.32024e-07 -8.22226e-05
-2.40308e-07 -1.6687e-07 -8.90017e-05
2.4656e-07 -6.75349e-07 -9.80253e-05
-1.38888e-07 -6.81945e-08 -0.000101161
1.40038e-07 -4.88679e-07 -0.000112657
-1.06928e-07 -9.70475e-09 -0.000117559
-5.30945e-08 -5.91102e-07 -0.000129795
-2.09175e-07 -4.36235e-07 -0.000134302
-2.00573e-07 -5.91558e-07 -0.000144796
-1.3835e-07 -7.90422e-07 -0.00014844
-2.15774e-07 -3.11308e-07 -0.000148603
0 0 0
0 0 0
1.05148e-07 -5.52658e-08 -2.14958e-07
-8.72101e-08 1.37734e-07 -4.24138e-07
4.47402e-07 -4.33435e-09 -5.56697e-06
4.3284e-07 -1.67596e-07 -8.61497e-06
4.37792e-07 -1.27342e-07 -1.58306e-05
3.67218e-07 -2.79008e-07 -1.76965e-05
4.97225e-07 -2.88475e-07 -2.63501e-05
1.68764e-07 -2.48994e-07 -3.06292e-05
1.48122e-07 -3.32492e-07 -4.20549e-05
2.51227e-07 -4.13445e-08 -4.74661e-05
3.35244e-07 -2.05075e-07 -5.72022e-05
3.20026e-07 9.99299e-08 -6.07927e-05
6.10989e-07 -4.15671e-07 -7.05158e-05
4.36342e-07 8.29825e-08 -7.54158e-05
6.26567e-07 -2.67035e-07 -8.69331e-05
6.36579e-07 -1.71763e-07 -9.13417e-05
3.08048e-07 -4.1322e-07 -0.000102773
2.23603e-07 -1.55346e-07 -0.000107318
2.26826e-07 -3.94667e-07 -0.000118961
1.50284e-09 -2.92159e-07 -0.000123695
-8.51109e-08 -5.53974e-07 -0.000133661
1.03012e-07 -3.20158e-07 -0.000137405
-4.62307e-07 -3.84256e-07 -0.000145334
-4.13595e-07 -4.62938e-07 -0.000147613
-6.2609e-07 -4.55147e-07 -0.000151858
-4.55468e-07 -3.9028e-07 -0.000152049
0 0 0
0 0 0
1.39624e-07 8.09487e-08 4.03741e-07
-2.55966e-07 1.59769e-07 8.20601e-07
1.78004e-07 -2.0157e-08 4.20717e-08
7.63182e-08 -1.2529e-07 -3.73738e-06
1.61435e-07 -1.35265e-08 -7.46141e-06
-3.63485e-07 -1.33672e-07 -1.28259e-05
2.13942e-07 1.33818e-07 -1.92736e-05
2.25324e-07 -2.14491e-07 -2.47962e-05
2.61383e-07 -8.80115e-08 -3.08694e-05
-7.52578e-08 -2.409e-07 -3.65328e-05
4.8992e-07 -4.71717e-07 -4.19799e-05
-3.36506e-07 -2.56495e-07 -4.89104e-05
3.34926e-07 -3.43451e-07 -5.27391e-05
-4.90012e-09 -1.72122e-07 -5.87466e-05
4.38742e-09 -5.11462e-07 -6.33806e-05
-2.80592e-08 -1.95417e-07 -7.32808e-05
6.87982e-08 -1.78554e-07 -8.06698e-05
-2.9373e-07 -1.19327e-07 -9.06216e-05
3.66825e-07 -6.53907e-08 -9.53352e-05
6.42219e-08 -6.82275e-07 -0.000105026
-1.17785e-08 7.38469e-08 -0.000109329
-1.82413e-07 -3.59321e-07 -0.000123143
-2.76023e-07 1.28581e-07 -0.000127766
-3.21332e-08 -6.73145e-07 -0.000139
-4.21594e-07 -3.83615e-07 -0.000144193
-3.03406e-07 -4.78688e-07 -0.00015359
-5.57472e-07 -8.23275e-07 -0.000156551
-8.36325e-07 -2.34076e-07 -0.000158863
0 0 0
0 0 0
-8.53062e-08 -3.92664e-08 2.70319e-07
-3.65214e-08 -1.50393e-07 -2.93928e-06
-1.05398e-07 -2.53582e-07 -5.07464e-06
1.4741e-07 1.21638e-07 -1.26253e-05
1.35014e-07 -3.04367e-07 -1.43986e-05
-1.86844e-08 -1.29595e-07 -2.22075e-05
-1.95698e-08 1.87306e-08 -2.42396e-05
4.63585e-07 -1.87593e-07 -3.50483e-05
2.72005e-07 3.24624e-08 -3.99345e-05
4.52195e-07 -3.59344e-07 -5.24565e-05
5.2412e-07 -1.1663e-07 -5.66048e-05
7.2317e-07 -1.97643e-07 -6.7931e-05
4.90142e-07 -2.69603e-08 -7.14991e-05
6.23402e-07 -2.44148e-07 -8.3686e-05
5.05409e-07 -3.13136e-07 -8.78964e-05
4.29196e-07 -4.09046e-07 -0.000100417
1.74335e-07 3.87032e-08 -0.000105074
5.21895e-07 -6.30981e-07 -0.000117444
1.66149e-07 -1.85441e-07 -0.000122334
4.71879e-07 -3.55528e-07 -0.000133153
-9.7496e-08 -1.613e-07 -0.000136572
4.29955e-07 -5.59493e-07 -0.000146324
1.18512e-07 -1.19052e-07 -0.000149827
6.50525e-08 -6.97822e-07 -0.000157219
-2.13082e-07 -2.69485e-07 -0.000157971
2.0079e-07 -8.75667e-07 -0.000161942
-4.75139e-07 -4.55977e-07 -0.00016298
0 0 0
0 0 0
-2.29247e-07 -3.32498e-07 7.72211e-07
4.20987e-08 -1.38948e-07 6.07462e-08
-1.86986e-07 -6.81835e-08 -1.65547e-06
1.17162e-07 2.6707e-07 -4.55609e-06
-5.83047e-07 -5.5928e-08 -9.1141e-06
3.14019e-07 3.51517e-07 -1.43109e-05
-2.15778e-07 -4.49611e-08 -2.03785e-05
3.6359e-07 3.05146e-07 -2.51651e-05
1.70042e-07 -1.7669e-07 -3.0226e-05
-5.52238e-08 -1.35311e-07 -3.5602e-05
3.29209e-07 -2.35375e-07 -4.32163e-05
-4.99757e-08 -2.56134e-07 -4.74508e-05
3.96228e-07 -6.82894e-08 -5.53553e-05
-1.62248e-07 -2.77704e-07 -5.85998e-05
4.37125e-07 -2.04981e-07 -6.81646e-05
-3.29115e-07 -5.10744e-07 -7.34091e-05
1.73491e-07 -3.96221e-07 -8.35985e-05
-3.98957e-08 -2.78297e-07 -8.92859e-05
2.48316e-07 -3.06339e-07 -9.80305e-05
-3.40204e-08 -2.47385e-07 -0.000100521
4.9678e-08 -3.04632e-07 -0.000112612
-1.43243e-07 8.82274e-08 -0.0001182
-5.00611e-08 -3.74572e-07 -0.000131533
-2.62346e-07 -2.32622e-07 -0.000136347
-3.52092e-07 -4.87583e-07 -0.000146987
-3.17016e-07 -2.79361e-07 -0.000153141
-6.22632e-07 -6.36791e-07 -0.000162427
-2.04008e-07 -7.79072e-07 -0.000168277
-6.61133e-07 -5.52011e-07 -0.000168948
0 0 0
0 0 0
1.4214e-07 -2.58893e-07 -1.19769e-06
3.32502e-07 8.6889e-09 -2.42569e-06
2.63848e-07 -1.77175e-07 -8.85029e-06
2.6376e-07 2.4867e-08 -1.12703e-05
4.27413e-07 -4.28151e-08 -1.9009e-05
5.5346e-07 9.95351e-08 -1.93314e-05
1.61447e-07 -2.69948e-07 -2.85862e-05
6.91979e-08 -3.01846e-08 -3.0674e-05
5.34648e-07 -3.16885e-07 -4.30571e-05
9.68401e-08 -1.95993e-07 -4.78579e-05
5.44173e-07 -4.22006e-07 -6.15118e-05
4.87098e-07 -8.69143e-08 -6.62765e-05
7.135e-07 -3.34625e-07 -7.96317e-05
5.62192e-07 -5.13667e-08 -8.40977e-05
7.33363e-07 -4.99478e-07 -9.75413e-05
6.54139e-07 -1.5163e-07 -0.000101776
5.46878e-07 -5.19511e-07 -0.000115291
2.44711e-07 -2.72049e-07 -0.000119423
2.25247e-07 -5.1983e-07 -0.000131544
1.3966e-07 -1.66269e-07 -0.000134684
5.8336e-08 -4.96198e-07 -0.000144893
-6.27193e-08 -2.66655e-07 -0.000148236
-1.2904e-07 -4.4093e-07 -0.000157778
-1.93644e-07 -1.34512e-07 -0.000160948
-2.59791e-07 -4.51908e-07 -0.000166851
-4.34822e-07 -3.40412e-07 -0.00016713
-5.63159e-07 -7.0914e-07 -0.000171621
-7.08005e-07 -5.5073e-07 -0.00017311
0 0 0
0 0 0
6.42909e-08 5.14025e-08 5.97258e-07
3.55661e-08 -8.96191e-09 1.99524e-07
2.80611e-07 2.95862e-07 -2.45528e-06
-1.25052e-07 3.48721e-08 -5.94332e-06
1.41033e-07 1.24532e-07 -8.70009e-06
-3.35783e-07 -1.81017e-07 -1.39295e-05
2.74491e-07 -2.75033e-08 -2.01719e-05
4.35686e-08 -1.14532e-07 -2.43639e-05
6.44906e-07 -3.09691e-08 -2.91038e-05
-1.50045e-07 -3.58291e-07 -3.45687e-05
2.44865e-07 -2.31534e-07 -4.11858e-05
-2.87303e-07 -3.24523e-07 -4.87344e-05
2.99935e-07 -3.00268e-07 -5.37897e-05
-1.32902e-07 -2.7741e-07 -6.17593e-05
-8.30715e-09 -4.55333e-07 -6.76705e-05
3.42511e-08 -2.31549e-07 -7.6998e-05
1.47926e-07 -2.00745e-07 -8.29195e-05
-3.31406e-07 -2.83581e-07 -9.12599e-05
1.38898e-07 -2.93384e-07 -9.42853e-05
-2.24461e-07 -5.2506e-07 -0.000103135
-6.60826e-08 -2.90687e-07 -0.00010754
3.32019e-08 -1.83722e-07 -0.000121707
-3.95415e-07 -1.98592e-07 -0.0001276
-2.20438e-07 -5.09857e-07 -0.000138792
-3.3031e-07 -2.65955e-07 -0.00014454
-5.52458e-08 -2.30868e-07 -0.000154513
-9.47319e-07 -1.38442e-07 -0.000162021
-2.16553e-07 -4.34675e-07 -0.000169855
-7.10618e-07 -7.37906e-07 -0.000176202
-6.05749e-07 -3.81868e-07 -0.00017549
0 0 0
0 0 0
7.39117e-08 -8.06333e-09 -2.10918e-07
-8.69725e-08 -3.63786e-08 -4.29627e-06
-1.22672e-07 -3.30496e-08 -6.11632e-06
3.0301e-07 4.23922e-08 -1.34586e-05
2.40564e-07 -1.20446e-07 -1.42445e-05
2.79649e-07 1.92205e-07 -2.21522e-05
4.70765e-07 -5.44027e-08 -2.34468e-05
4.40891e-07 5.87634e-09 -3.4359e-05
4.1638e-07 -1.88625e-07 -3.8068e-05
3.82671e-07 -8.52589e-08 -5.2156e-05
4.36375e-07 -1.72931e-07 -5.74772e-05
7.96397e-07 -1.03937e-07 -7.23959e-05
4.03775e-07 -3.28891e-07 -7.72741e-05
6.55946e-07 -2.98928e-07 -9.15281e-05
6.00322e-07 -2.78454e-07 -9.5539e-05
4.4049e-07 -5.84285e-07 -0.000109598
5.89046e-07 -7.36127e-08 -0.000114856
3.0114e-07 -5.76689e-07 -0.000127985
4.66586e-07 1.42125e-07 -0.000132543
1.46054e-08 -4.74771e-07 -0.000142502
3.24482e-07 -7.71361e-08 -0.000145562
-2.57992e-09 -2.50634e-07 -0.000154955
3.13085e-07 -3.14139e-07 -0.000159071
8.59251e-08 -4.75613e-07 -0.000167143
1.66734e-07 1.78168e-07 -0.000169437
3.32259e-09 -5.24687e-07 -0.000173858
1.94466e-08 -2.72026e-07 -0.000174827
-1.59512e-07 -4.50851e-07 -0.000179146
-1.50488e-07 -5.94515e-07 -0.000179639
0 0 0
0 0 0
-9.73391e-08 -8.30569e-08 6.99555e-07
2.92689e-07 1.13714e-09 -7.40702e-07
-1.8879e-08 1.64637e-07 -3.15212e-06
1.23836e-07 1.47121e-07 -5.98916e-06
-2.72418e-08 -1.90395e-07 -8.86437e-06
6.43566e-08 3.04852e-07 -1.38542e-05
-5.98526e-08 -1.44596e-07 -1.82917e-05
2.3607e-07 7.05003e-08 -2.30753e-05
3.83563e-07 -2.17448e-07 -2.65044e-05
2.35098e-08 -1.33784e-07 -3.33533e-05
1.02184e-07 -2.87337e-07 -4.12642e-05
-1.27515e-07 -3.05005e-07 -4.74092e-05
3.95463e-07 -2.01026e-07 -5.45518e-05
-3.67961e-07 -8.67522e-08 -6.03458e-05
4.00588e-07 -8.23702e-08 -7.00269e-05
-3.42118e-07 -3.86825e-07 -7.65289e-05
-1.19836e-07 -3.59113e-07 -8.49458e-05
-1.75134e-07 -3.50136e-07 -9.04268e-05
-1.33519e-07 -5.01329e-07 -9.74482e-05
1.5604e-07 -1.7558e-07 -0.000100223
-4.5325e-08 -1.52732e-07 -0.000111185
-4.65882e-07 3.26381e-08 -0.000117143
1.12562e-07 2.09378e-08 -0.000130026
-3.22668e-07 -1.20355e-07 -0.000135545
-1.63751e-07 -2.1634e-07 -0.000144679
-2.54879e-07 -2.6847e-07 -0.00015167
-3.85538e-07 -3.04669e-07 -0.000160716
-5.1222e-07 -4.05548e-07 -0.000167545
-6.48795e-07 -7.45354e-07 -0.000173884
-4.43549e-07 -6.60388e-07 -0.000180723
-5.52052e-07 -6.68243e-07 -0.000179135
0 0 0
0 0 0
1.3357e-07 -1.50148e-07 -1.08334e-06
1.59078e-07 -1.35374e-07 -1.99782e-06
2.18417e-07 1.42631e-07 -7.47929e-06
1.90608e-07 -2.39058e-09 -8.77174e-06
3.72432e-07 9.98653e-08 -1.60151e-05
3.01014e-07 7.51704e-08 -1.70922e-05
4.48449e-07 -2.03576e-08 -2.80823e-05
3.00468e-07 7.37001e-08 -3.17569e-05
3.22714e-07 8.53482e-08 -4.51392e-05
4.10172e-07 -1.71242e-07 -5.05313e-05
5.3931e-07 -2.69432e-07 -6.49544e-05
4.81838e-07 -2.68309e-08 -7.00228e-05
7.72103e-07 -2.68322e-07 -8.39154e-05
4.41814e-07 1.05306e-07 -8.83237e-05
3.83675e-07 -3.90171e-07 -0.000102441
5.81026e-07 -2.89882e-07 -0.000107887
1.38949e-07 -1.50013e-07 -0.000122892
4.91245e-07 -2.61621e-07 -0.000128176
1.01275e-07 -1.62968e-07 -0.000140531
4.07775e-07 -2.82613e-07 -0.000143563
-1.7306e-07 -2.25485e-07 -0.000153449
1.66073e-07 -2.0045e-07 -0.000156508
1.05285e-07 -4.15895e-07 -0.000166041
1.07546e-07 -2.63862e-07 -0.000169874
-8.11949e-08 -4.39761e-07 -0.000177109
-1.08575e-07 -1.45039e-07 -0.000177999
-1.66639e-07 -3.64178e-07 -0.000181978
-1.79084e-07 -3.20948e-07 -0.000181862
-1.45479e-07 -3.64881e-07 -0.000184131
-3.90666e-07 -4.57619e-07 -0.000183406
0 0 0
0 0 0
-1.36345e-08 1.67956e-08 3.80147e-07
1.76122e-07 2.08155e-07 7.99831e-08
1.20558e-07 9.90578e-08 -2.84364e-06
7.73667e-08 5.9414e-08 -5.72123e-06
2.17935e-07 3.29193e-07 -7.88658e-06
-2.99749e-07 -1.76031e-07 -1.20287e-05
4.76336e-07 2.25229e-07 -1.71163e-05
-2.24089e-07 -1.29158e-07 -2.07994e-05
5.33134e-07 4.53863e-08 -2.54426e-05
-3.30441e-07 -3.33354e-07 -3.13582e-05
3.09589e-07 -6.94297e-08 -3.90501e-05
-1.67531e-07 -1.553e-07 -4.75158e-05
1.19867e-07 -1.54146e-07 -5.26796e-05
-2.18735e-07 -2.60139e-07 -6.11016e-05
-2.17877e-07 -3.64461e-07 -6.73506e-05
-4.2586e-07 -2.10416e-07 -7.73383e-05
-9.50745e-08 -3.57165e-07 -8.3113e-05
-3.11442e-07 -3.2342e-07 -9.19058e-05
1.53677e-07 -6.11509e-07 -9.51875e-05
-3.92074e-07 -6.09061e-07 -0.000104346
-1.49472e-07 -3.17704e-07 -0.000107801
-1.6233e-07 -5.20328e-07 -0.000120302
-3.95048e-07 -2.13015e-07 -0.000125789
-2.22402e-07 -4.7007e-07 -0.000136735
-2.95393e-07 -3.55955e-07 -0.000141547
-1.57007e-07 -2.32268e-07 -0.000150752
-6.9046e-07 -1.16252e-07 -0.000158122
-2.06924e-07 -3.05819e-07 -0.000164925
-5.22029e-07 -4.42724e-07 -0.000170436
-2.66584e-07 -7.56664e-07 -0.000176236
-2.03735e-07 -7.79628e-07 -0.000183114
-5.04962e-07 -4.18885e-07 -0.000180211
0 0 0
0 0 0
1.11347e-07 5.85198e-08 -9.28187e-08
1.07694e-07 5.79978e-08 -3.33229e-06
3.47902e-07 1.05646e-07 -4.40192e-06
6.50268e-07 7.8286e-08 -1.06775e-05
2.80901e-07 1.25997e-08 -1.22453e-05
3.56091e-07 -4.39557e-08 -2.20446e-05
2.54035e-07 -8.44663e-08 -2.72462e-05
2.40726e-07 1.00556e-07 -4.06785e-05
3.14585e-07 -2.16036e-07 -4.61717e-05
5.06515e-07 -1.45565e-07 -6.01606e-05
4.51613e-07 -1.37622e-07 -6.51055e-05
6.22861e-07 -4.47004e-07 -7.86785e-05
6.70723e-07 -1.58345e-07 -8.26928e-05
5.11951e-07 -1.68543e-07 -9.64278e-05
4.933e-07 -1.24644e-07 -0.000100901
4.89075e-07 -1.25241e-07 -0.000116276
3.89476e-07 -2.1028e-07 -0.000123002
3.54123e-08 -5.09777e-07 -0.000136983
4.67093e-07 4.58127e-08 -0.000142037
2.37635e-07 -3.87301e-07 -0.000151945
4.32132e-07 -5.61503e-08 -0.000155368
1.14175e-07 -3.38343e-07 -0.000164704
1.20671e-07 -8.12559e-08 -0.000169137
-1.52764e-08 -5.22742e-07 -0.000178146
8.86216e-08 5.47425e-08 -0.000181626
-1.58721e-07 -6.53289e-07 -0.000186722
3.17829e-08 -6.71152e-08 -0.000186057
1.27246e-07 -3.55839e-07 -0.000188091
-3.90059e-07 -2.25214e-07 -0.00018598
1.23259e-07 -4.37502e-07 -0.000186209
-3.45213e-07 -4.82794e-07 -0.000184501
0 0 0
0 0 0
-1.31997e-07 -2.31319e-08 5.17861e-07
-9.2202e-08 -4.58567e-08 -8.80687e-07
2.26449e-07 6.48373e-08 -2.93237e-06
-3.47679e-08 2.03229e-07 -5.7891e-06
2.4275e-07 1.71746e-07 -8.62013e-06
-2.1743e-07 2.23907e-07 -1.26854e-05
1.11634e-07 -1.62975e-07 -1.59601e-05
3.50046e-08 -4.92142e-08 -2.00031e-05
2.65669e-08 -3.31489e-07 -2.3363e-05
9.95199e-08 -7.59351e-08 -2.96077e-05
-2.73814e-07 -1.99567e-07 -3.7976e-05
-2.48397e-07 9.42402e-09 -4.49005e-05
5.47705e-08 -1.8369e-07 -5.30933e-05
-2.09112e-07 -1.90826e-07 -5.86796e-05
-1.14773e-07 -1.32387e-07 -6.80417e-05
-3.42158e-07 -3.39663e-07 -7.44986e-05
5.01307e-09 2.89754e-08 -8.36407e-05
-2.36494e-07 -2.97806e-07 -8.9983e-05
-1.54276e-07 -3.50442e-07 -9.84798e-05
-1.83013e-07 -7.50066e-08 -0.00010132
2.68191e-08 -2.07344e-07 -0.000110688
-5.04708e-07 -3.52324e-07 -0.000114068
-1.5789e-07 -2.58299e-07 -0.00012582
-2.8288e-07 -1.29816e-07 -0.000131803
-2.72759e-07 -1.811e-07 -0.000140816
-2.08446e-07 -5.65169e-08 -0.000147447
-5.47259e-07 -3.65578e-07 -0.000155094
-6.59472e-07 -1.78442e-07 -0.00016117
-6.33657e-07 -8.85092e-07 -0.000165945
-3.19337e-07 -5.71776e-07 -0.00017179
-3.24985e-07 -6.37654e-07 -0.000176326
1.02173e-07 -5.83675e-07 -0.00018332
-2.30781e-07 -5.66652e-07 -0.000180013
0 0 0
0 0 0
1.65019e-07 1.07181e-07 -8.0762e-07
3.15017e-07 -1.48349e-07 -1.44941e-06
2.32775e-07 3.98036e-08 -6.21088e-06
3.44935e-07 -1.34988e-07 -8.1755e-06
2.23559e-07 2.97982e-08 -1.61601e-05
4.26869e-07 1.2644e-07 -2.04622e-05
3.57579e-07 -4.87565e-08 -3.35523e-05
5.2047e-07 2.38169e-07 -3.97905e-05
2.6508e-07 -1.46181e-07 -5.27625e-05
4.48679e-07 -1.67582e-07 -5.8805e-05
2.00535e-07 -2.24434e-07 -7.24946e-05
2.70104e-07 -2.58815e-07 -7.78805e-05
2.26447e-07 -3.14237e-07 -9.07114e-05
3.93477e-07 -5.04956e-08 -9.52995e-05
6.99065e-07 -7.44035e-08 -0.000108971
3.80325e-07 1.36407e-07 -0.000115829
5.3865e-07 -2.49559e-07 -0.000131116
3.5398e-07 -5.95982e-08 -0.000137747
5.72341e-08 -5.04678e-07 -0.000149823
3.44226e-07 -6.02501e-08 -0.000154132
-1.04539e-07 -3.82094e-07 -0.000163997
3.86419e-07 -1.75448e-07 -0.000168072
1.02431e-07 -3.12814e-07 -0.000177338
5.83524e-07 -3.12993e-07 -0.000182376
1.61846e-07 -2.40404e-07 -0.000190153
5.07273e-08 -2.94675e-07 -0.000192129
2.92192e-08 -2.64647e-07 -0.00019491
-1.20813e-07 -1.57421e-07 -0.000193222
-2.53162e-09 -2.19385e-07 -0.000193074
1.08944e-08 -2.81478e-07 -0.000190591
-4.78507e-08 -4.77738e-07 -0.000189036
-3.58178e-07 -4.24125e-07 -0.000186303
0 0 0
0 0 0
9.36541e-08 -4.35458e-08 -1.64466e-07
6.15921e-08 6.72342e-08 -6.14353e-07
1.18691e-07 1.23504e-08 -3.95231e-06
2.35085e-07 2.47543e-07 -7.20377e-06
1.59983e-07 4.2361e-07 -1.00704e-05
2.33742e-07 1.82689e-07 -1.33314e-05
2.45837e-07 3.4777e-07 -1.72746e-05
-5.5003e-07 -9.4729e-08 -1.9692e-05
4.24983e-07 -4.95683e-08 -2.38359e-05
-3.84833e-07 -2.75429e-07 -2.80416e-05
1.15336e-07 -4.00739e-08 -3.51299e-05
-4.62107e-07 -2.06492e-08 -4.38788e-05
-1.8995e-08 -1.18887e-07 -5.14265e-05
-4.91613e-07 -1.25592e-07 -5.95489e-05
-6.98442e-08 -4.10416e-07 -6.54774e-05
-3.25488e-07 -8.02961e-08 -7.42806e-05
-3.20398e-07 -3.52224e-07 -8.08542e-05
-3.45886e-07 -2.00989e-07 -8.99553e-05
1.20385e-07 -2.85438e-07 -9.49755e-05
-1.6435e-07 -6.41456e-07 -0.000103183
-3.57702e-07 -9.29949e-08 -0.000105345
-2.04355e-07 -5.28562e-07 -0.000113847
-5.09929e-07 -1.97981e-07 -0.000118441
-2.0444e-07 -5.47923e-07 -0.000129603
-2.28013e-07 -2.15611e-07 -0.000136131
-3.57826e-07 -3.38639e-07 -0.000144825
-5.18763e-07 -1.17849e-07 -0.000150661
-3.05952e-07 -3.84e-07 -0.000155527
-4.30292e-07 -5.46989e-07 -0.000160221
-3.40823e-07 -5.67414e-07 -0.00016525
-5.03184e-07 -7.58555e-07 -0.000170635
2.98516e-08 -4.23418e-07 -0.000175313
-3.2233e-07 -4.3636e-07 -0.000183617
-5.83761e-07 -3.07893e-07 -0.000179362
0 0 0
0 0 0
-4.83004e-09 3.51183e-08 2.74298e-07
9.02963e-08 -9.61076e-09 -2.35921e-06
1.91757e-07 -3.43964e-08 -4.30239e-06
-4.49508e-08 -1.22726e-07 -1.10705e-05
6.60933e-07 1.25509e-07 -1.45092e-05
5.53612e-08 -1.00429e-07 -2.44475e-05
4.30981e-07 1.50329e-07 -3.1173e-05
1.52005e-07 3.07272e-08 -4.31545e-05
5.30475e-07 -8.08563e-08 -4.92292e-05
5.17081e-07 -6.18127e-08 -6.24322e-05
5.38603e-07 2.76471e-08 -6.9908e-05
5.01032e-07 -1.5186e-07 -8.37123e-05
6.61048e-07 4.451e-08 -8.96765e-05
5.86482e-07 -1.01207e-07 -0.000102351
1.07086e-06 4.82796e-08 -0.000107155
5.7719e-07 1.25404e-07 -0.000121601
6.97856e-07 -2.23115e-07 -0.000129532
2.7216e-07 -1.82029e-07 -0.000144185
4.22835e-07 -1.91893e-07 -0.000151595
-5.79716e-08 -4.40962e-07 -0.000162848
7.00481e-07 -1.91589e-07 -0.000168351
3.54204e-09 -6.10568e-07 -0.000177638
4.07765e-07 -2.15036e-07 -0.000182426
1.13066e-08 -4.25028e-07 -0.000190585
3.25614e-07 -1.15946e-08 -0.000194693
-6.44028e-08 -4.617e-07 -0.000199745
2.89467e-07 -1.98341e-07 -0.000199917
-9.9977e-08 -4.36887e-07 -0.000201562
-6.51269e-08 -1.88795e-07 -0.000200062
2.20348e-07 -4.87838e-07 -0.00019868
1.39649e-08 -2.69613e-07 -0.000195733
3.98554e-08 -2.49586e-07 -0.000192638
-2.95142e-08 -4.98756e-07 -0.000189066
0 0 0
0 0 0
1.39697e-08 -8.01094e-08 -2.92672e-07
-1.83783e-07 -1.96309e-08 -2.67616e-06
1.04695e-07 2.32602e-07 -5.30599e-06
-1.11684e-07 9.43205e-08 -9.22875e-06
3.28152e-07 1.8655e-07 -1.23756e-05
-2.6738e-07 2.86945e-07 -1.59642e-05
4.42995e-08 -1.45642e-08 -1.78951e-05
4.91207e-09 8.1936e-08 -2.0895e-05
1.57798e-07 -2.94929e-08 -2.29992e-05
-1.10955e-08 -8.63796e-08 -2.77196e-05
-2.61495e-07 -3.33148e-08 -3.37862e-05
-1.85677e-07 -1.66429e-07 -4.10862e-05
-3.89554e-07 -1.82211e-07 -5.04725e-05
-1.56069e-07 -1.53239e-07 -5.71342e-05
-2.36002e-07 -1.74952e-07 -6.48352e-05
-2.55405e-07 -2.69756e-07 -7.06983e-05
-9.79033e-09 -1.27305e-07 -7.8908e-05
-2.91651e-07 -1.49435e-07 -8.62924e-05
-1.13478e-07 -3.74686e-07 -9.50242e-05
-5.54628e-07 -5.17049e-09 -9.81387e-05
2.11241e-08 -4.65961e-07 -0.000105169
-3.7079e-07 -1.04104e-08 -0.000106216
-3.04502e-08 -4.94998e-07 -0.000115404
-4.82519e-07 -2.83792e-07 -0.000122571
-2.67233e-07 -6.70543e-08 -0.000133173
-2.93451e-07 -9.90501e-08 -0.000140111
-4.22646e-07 -2.00464e-07 -0.000145154
-2.14628e-07 -1.48769e-07 -0.000149579
-6.39833e-07 -5.83518e-07 -0.000153447
6.4781e-08 -5.55204e-07 -0.000159555
-5.11739e-07 -5.44423e-07 -0.000164999
-1.63683e-07 -5.41379e-07 -0.000170652
-2.77868e-07 -3.59366e-07 -0.000174904
2.50131e-07 -3.59171e-07 -0.00018407
7.92017e-08 -6.39294e-07 -0.000179836
0 0 0
0 0 0
2.84899e-07 1.97821e-07 -3.65106e-07
1.83885e-07 -2.11853e-07 -1.14146e-06
1.62397e-07 1.96371e-07 -6.39831e-06
2.47162e-07 -1.48449e-07 -9.64368e-06
-3.37572e-08 1.1557e-07 -1.71738e-05
4.47822e-07 -1.40938e-08 -2.13254e-05
6.88899e-08 1.24694e-07 -3.23645e-05
8.09791e-07 -6.67935e-08 -3.86148e-05
4.98502e-07 8.12215e-08 -5.03375e-05
6.80262e-07 -3.72431e-07 -5.85879e-05
5.50402e-07 1.06076e-07 -7.31543e-05
4.13868e-07 -1.50747e-07 -8.20988e-05
4.99331e-07 -1.97427e-07 -9.55722e-05
4.92103e-07 -1.12659e-07 -0.000102
2.6009e-07 -3.38056e-08 -0.000113964
6.20282e-07 -2.03552e-07 -0.000120959
1.98493e-07 -7.32031e-08 -0.000134864
7.47475e-07 -1.56462e-07 -0.000143657
9.77379e-08 -3.67846e-07 -0.000156989
4.69315e-07 -4.95489e-07 -0.000164709
-9.49116e-08 -4.1927e-07 -0.000175211
3.94767e-07 -5.60493e-07 -0.000180141
3.86109e-08 -4.27893e-07 -0.000187516
5.21224e-07 -4.74047e-07 -0.000191642
4.38283e-07 -5.88696e-07 -0.000197581
6.97551e-07 -5.43195e-07 -0.000200548
2.24652e-07 -3.3688e-07 -0.000203863
7.30083e-08 -6.45066e-07 -0.000205166
2.26934e-07 -2.4779e-07 -0.000206502
1.81847e-07 -4.41174e-07 -0.000205707
8.66221e-08 -3.17918e-07 -0.000202827
9.95186e-08 -4.15223e-07 -0.000199483
-3.30593e-07 -2.14291e-07 -0.000194912
-3.4687e-07 -6.19794e-07 -0.000190434
0 0 0
0 0 0
1.22306e-07 7.63716e-08 -1.0057e-06
-7.318e-08 1.86185e-07 -2.12444e-06
-1.64847e-07 1.32572e-08 -6.33182e-06
7.7806e-08 4.45679e-07 -9.94305e-06
-2.14563e-07 1.21682e-07 -1.34209e-05
-2.6206e-07 3.13056e-07 -1.63172e-05
-5.00506e-08 4.00045e-07 -1.98232e-05
-5.18162e-07 2.72619e-07 -2.1398e-05
3.21685e-07 -3.79403e-08 -2.49334e-05
-2.82865e-07 -6.72718e-08 -2.73524e-05
3.19328e-07 3.80724e-08 -3.213e-05
-5.61506e-07 -1.82678e-07 -3.91557e-05
4.15605e-07 -3.26532e-07 -4.72689e-05
-3.90087e-07 -1.2397e-07 -5.50994e-05
-7.72228e-08 -1.77773e-07 -6.04661e-05
-2.1597e-09 -1.5066e-07 -6.77859e-05
-2.21177e-07 -2.60725e-07 -7.40218e-05
-1.0229e-07 -3.69503e-07 -8.29412e-05
-3.64875e-08 -2.20916e-07 -8.91326e-05
-4.46962e-07 -5.9196e-07 -9.70859e-05
-1.38094e-07 -1.46881e-07 -9.9207e-05
-2.16611e-07 -4.1436e-07 -0.000104948
-3.90458e-07 -2.12816e-07 -0.000108369
-3.47272e-07 -4.4091e-07 -0.000118962
-4.38788e-07 -2.52472e-07 -0.00012742
-1.5102e-07 -1.83016e-07 -0.00013562
-4.27491e-07 -1.3936e-07 -0.000139555
-1.37165e-07 -3.41993e-07 -0.000142147
-2.9413e-07 -3.98216e-07 -0.000147257
-1.77702e-07 -5.18234e-07 -0.000152388
-3.90134e-07 -4.61118e-07 -0.00015965
-5.4263e-08 -4.7276e-07 -0.000164431
-5.87961e-07 -3.95107e-07 -0.00016969
5.73093e-07 -5.53414e-07 -0.000172679
-2.08738e-07 -3.20607e-07 -0.000184313
-1.27052e-07 -5.82968e-07 -0.00017846
0 0 0
0 0 0
-1.12846e-08 2.01854e-07 7.88581e-08
6.06218e-08 2.74423e-08 -2.68764e-06
-4.21948e-09 2.46222e-09 -5.03629e-06
-4.73187e-08 -6.53215e-08 -1.14608e-05
2.69546e-07 1.98804e-07 -1.44494e-05
2.59529e-07 3.07891e-08 -2.27899e-05
5.52644e-07 4.3713e-07 -2.93149e-05
3.17652e-07 -1.8566e-07 -4.04195e-05
7.03362e-07 3.11364e-07 -4.78508e-05
2.99314e-07 -1.92643e-07 -6.06773e-05
4.26437e-07 2.5163e-07 -7.03603e-05
3.42511e-07 -2.01079e-07 -8.49002e-05
3.19438e-07 2.54814e-08 -9.44425e-05
4.79931e-07 -2.16884e-07 -0.000108094
5.37367e-07 -7.1628e-08 -0.000114271
3.83136e-07 -2.0809e-07 -0.00012727
7.2638e-07 -1.46565e-07 -0.000134819
2.93731e-07 -2.95675e-07 -0.0001489
6.00709e-07 -2.77768e-07 -0.000157432
4.64327e-08 -4.97694e-07 -0.000169775
3.17163e-07 -5.40682e-07 -0.000176
2.52708e-07 -8.59251e-07 -0.000184751
2.53426e-07 -3.51644e-07 -0.000188027
1.89719e-07 -7.88418e-07 -0.00019415
6.17007e-07 -4.45406e-07 -0.000196894
-4.73608e-08 -7.39372e-07 -0.000202309
2.97934e-07 -3.31757e-07 -0.000204176
-6.49872e-08 -7.82517e-07 -0.000208406
1.80683e-07 -2.01709e-07 -0.000209817
-5.44686e-08 -6.0643e-07 -0.000210003
3.9178e-07 -5.99154e-09 -0.000207561
-1.73639e-08 -4.2993e-07 -0.000204003
1.42553e-07 -2.25677e-07 -0.000199813
2.30908e-07 -6.17821e-07 -0.000194207
5.10167e-07 -3.79692e-07 -0.000189259
0 0 0
0 0 0
9.1171e-08 7.32903e-08 -6.94105e-07
-3.02231e-07 1.40553e-07 -3.55203e-06
1.90321e-07 -6.70928e-08 -5.77523e-06
-2.25019e-07 3.33768e-08 -9.83479e-06
-6.03238e-08 2.21195e-07 -1.30063e-05
-4.90538e-07 2.19925e-08 -1.70851e-05
-2.49759e-08 4.37079e-08 -1.91968e-05
-2.23257e-07 5.41356e-08 -2.24389e-05
2.32614e-07 2.09006e-08 -2.40413e-05
-8.03455e-09 1.59873e-07 -2.78314e-05
1.31622e-07 4.95233e-08 -3.12458e-05
-6.41569e-08 -1.83639e-08 -3.68303e-05
-9.61172e-08 1.81258e-08 -4.47663e-05
-2.33504e-07 -1.1648e-07 -5.17854e-05
1.43078e-07 -4.50823e-08 -5.86471e-05
4.3693e-08 -2.32625e-07 -6.46307e-05
-9.38689e-08 -3.31988e-07 -7.14538e-05
-1.27837e-07 -2.91257e-07 -7.9324e-05
-1.44051e-07 -3.87219e-07 -8.76373e-05
-1.1831e-07 9.53956e-08 -9.21618e-05
1.26158e-08 -4.15383e-07 -9.799e-05
-3.39417e-07 -8.65857e-08 -9.90873e-05
-2.55737e-07 -2.62665e-07 -0.000105758
-6.01081e-07 -7.19301e-08 -0.000112807
-2.77786e-07 -1.86662e-07 -0.000122773
-3.68671e-07 -2.69649e-07 -0.000129558
-6.87748e-08 -3.96245e-07 -0.000132598
-3.08244e-07 -3.86174e-07 -0.0001361
-3.52197e-07 -4.7389e-07 -0.000139685
-1.68186e-07 -3.29718e-07 -0.000146705
-5.18073e-07 -5.22075e-07 -0.000152699
-7.64146e-08 -5.54688e-07 -0.000158859
-1.65693e-07 -6.86826e-07 -0.000162345
1.44541e-07 -3.94652e-07 -0.000166531
4.57147e-08 -5.99508e-07 -0.000169032
1.14258e-07 -4.86938e-07 -0.000181113
5.38226e-07 -4.83012e-07 -0.000174399
0 0 0
0 0 0
-1.0043e-07 5.64968e-08 -1.12213e-06
1.17005e-07 -9.4255e-08 -2.91076e-06
1.20534e-07 1.41479e-07 -7.74293e-06
-4.11324e-08 -8.75502e-08 -1.09822e-05
2.65175e-07 2.12318e-07 -1.71425e-05
6.69762e-08 -8.84951e-08 -2.21829e-05
2.56841e-08 1.49174e-07 -3.25934e-05
3.66242e-07 -4.84904e-07 -4.06678e-05
4.81942e-07 3.22282e-07 -5.11622e-05
4.58994e-07 -3.94516e-07 -5.96907e-05
3.20002e-07 -2.29302e-08 -7.24548e-05
3.4154e-07 2.042e-07 -8.31339e-05
3.3608e-07 -2.0684e-07 -9.80253e-05
5.07941e-07 -8.1277e-08 -0.000107674
3.04663e-07 -2.61648e-07 -0.000121001
5.51021e-07 -6.3814e-07 -0.000128465
3.10994e-07 -2.53702e-07 -0.000142053
4.19637e-07 -7.75843e-07 -0.00014969
3.35876e-07 -6.14656e-07 -0.00016329
5.85783e-07 -5.92787e-07 -0.000170649
4.01557e-07 -6.41355e-07 -0.000182684
4.3482e-07 -7.03369e-07 -0.000186988
3.70422e-07 -5.26081e-07 -0.000195424
8.79125e-07 -5.92556e-07 -0.000197561
4.93028e-07 -4.82886e-07 -0.000204165
1.07921e-06 -5.18232e-07 -0.000206447
2.45865e-07 -4.63433e-07 -0.00021158
6.6996e-07 -8.54828e-07 -0.00021242
1.313e-07 -5.09481e-07 -0.000215197
4.82173e-07 -7.91885e-07 -0.00021351
4.57485e-08 -2.39709e-07 -0.00021143
6.36184e-08 -3.27486e-07 -0.000206523
-2.46217e-07 -2.65908e-07 -0.000202606
5.9704e-09 -7.85113e-07 -0.000197321
-2.19128e-07 -3.28476e-07 -0.000192475
1.83168e-07 -6.81603e-07 -0.000186639
0 0 0
0 0 0
5.70409e-08 2.48176e-07 -1.16472e-06
3.05825e-09 3.51104e-07 -1.80705e-06
-1.02983e-07 2.44409e-07 -5.53234e-06
-1.15377e-07 3.86034e-07 -7.99523e-06
-4.18066e-07 2.4929e-07 -1.19964e-05
6.82582e-08 5.62872e-07 -1.50239e-05
-3.09364e-07 2.22523e-07 -1.94555e-05
-1.52576e-07 2.90144e-07 -2.10106e-05
1.94022e-07 -9.7421e-08 -2.46047e-05
-4.47022e-07 -1.45529e-07 -2.5821e-05
4.2032e-07 1.66216e-07 -2.92051e-05
-3.49834e-07 -1.04991e-07 -3.40401e-05
4.11653e-07 -1.1767e-07 -4.1618e-05
-1.72684e-07 -3.04936e-07 -4.92212e-05
9.23399e-08 -3.49927e-07 -5.57912e-05
-3.60862e-07 -2.34535e-07 -6.27492e-05
-1.13456e-07 -1.16862e-07 -6.87541e-05
-7.46879e-08 -2.61824e-07 -7.61799e-05
-4.12974e-09 -3.20555e-07 -8.24965e-05
-4.72762e-07 -8.38162e-07 -8.99056e-05
-6.94751e-08 -2.27859e-07 -9.27027e-05
-4.16614e-07 -4.80533e-07 -9.75462e-05
-2.46451e-07 -3.8874e-07 -0.000100935
2.85699e-08 -4.61597e-07 -0.000109598
-3.97132e-07 -3.17894e-07 -0.000116871
-1.71918e-07 -3.30131e-07 -0.000123924
-1.75417e-07 -1.12044e-07 -0.000127396
-4.08259e-07 -2.93864e-07 -0.00013007
-3.7225e-07 -5.11505e-08 -0.000135054
-6.33516e-08 -3.50955e-07 -0.000140104
-2.96179e-07 -1.43161e-07 -0.00014697
-1.52395e-07 -4.316e-07 -0.000151359
-3.84736e-07 -3.8116e-07 -0.000155422
5.03877e-07 -6.03399e-07 -0.000157505
1.38665e-07 -7.72021e-07 -0.000161642
3.64451e-07 -5.76366e-07 -0.000164595
1.36347e-07 -4.49741e-07 -0.000178575
3.79529e-08 -3.67471e-07 -0.000170862
0 0 0
0 0 0
2.63178e-08 3.1516e-07 -8.01161e-07
8.42113e-08 -2.41786e-07 -4.21662e-06
5.13076e-08 1.67826e-07 -7.26059e-06
1.44805e-08 -2.57004e-07 -1.3363e-05
-8.42094e-08 2.7509e-07 -1.73326e-05
7.91137e-08 -4.51827e-08 -2.55107e-05
3.44677e-07 2.64607e-07 -3.33742e-05
6.21723e-07 -4.03905e-07 -4.4114e-05
2.16903e-07 1.63963e-07 -5.21635e-05
4.26875e-07 -4.14105e-07 -6.29715e-05
3.35568e-07 2.46863e-07 -7.25422e-05
1.84587e-07 -1.14542e-07 -8.65967e-05
3.429e-07 -2.34369e-08 -9.84733e-05
3.32227e-07 -1.49076e-07 -0.000113537
5.51955e-07 -6.62039e-08 -0.000121909
2.81122e-07 -6.1569e-07 -0.000135761
6.66306e-07 -7.35806e-07 -0.000143834
3.92259e-07 -5.71042e-07 -0.00015793
3.57214e-07 -8.45629e-07 -0.000165845
3.59573e-07 -7.86565e-07 -0.000178989
1.89049e-07 -6.40038e-07 -0.000185884
1.86525e-07 -5.10554e-07 -0.000197485
-4.8529e-08 -4.0148e-07 -0.000201988
1.5703e-07 -6.7606e-07 -0.000210102
3.66935e-07 -3.42003e-07 -0.000212175
4.05017e-07 -4.70672e-07 -0.000218191
3.68016e-07 -4.39485e-07 -0.000218049
1.94733e-07 -7.56691e-07 -0.000221269
4.55339e-07 -5.52727e-07 -0.000220331
3.31702e-07 -7.97987e-07 -0.000220372
3.62681e-07 -3.56935e-07 -0.00021634
2.63738e-07 -7.23137e-07 -0.000212757
4.32604e-07 -1.10492e-07 -0.000206438
2.89823e-07 -7.20597e-07 -0.000201233
7.36469e-07 -3.12022e-07 -0.000194931
6.43763e-07 -8.53017e-07 -0.000188836
7.01374e-07 -2.56063e-07 -0.000181924
0 0 0
0 0 0
3.98885e-08 2.06188e-07 -3.97823e-07
-8.24709e-08 -5.53475e-08 -3.00754e-06
1.94855e-07 -1.80636e-08 -4.01387e-06
-1.52656e-07 1.19247e-07 -7.57395e-06
-1.0472e-07 1.04006e-07 -1.04315e-05
-2.92545e-07 7.36625e-09 -1.47057e-05
8.44393e-08 2.17442e-07 -1.67799e-05
-3.90491e-07 -3.44385e-08 -2.01696e-05
-8.35143e-08 -4.27934e-08 -2.13644e-05
-3.23454e-07 1.45841e-07 -2.47088e-05
1.79755e-07 2.79526e-07 -2.72522e-05
-1.39207e-07 2.01603e-07 -3.24403e-05
1.78297e-07 8.71031e-08 -3.99653e-05
-4.18286e-08 -2.22776e-07 -4.81996e-05
1.04583e-07 -1.18681e-07 -5.55663e-05
-2.07855e-07 -1.62446e-07 -6.1579e-05
1.00941e-07 -1.77407e-07 -6.66798e-05
-1.46361e-07 8.61125e-08 -7.29106e-05
-2.412e-08 -2.39248e-07 -7.94946e-05
-2.64631e-07 1.54272e-07 -8.41018e-05
-2.62577e-07 -4.60384e-07 -8.93665e-05
-9.68746e-08 1.54774e-07 -9.20037e-05
1.89931e-08 -3.5965e-07 -9.84595e-05
-2.77504e-07 -2.83386e-07 -0.000104779
-3.07177e-07 -4.44829e-07 -0.000112277
-5.08076e-07 -1.69997e-07 -0.000117599
-3.04437e-07 -4.72754e-07 -0.000120973
-3.07568e-07 -4.40711e-07 -0.000125342
-1.27022e-07 -4.72717e-07 -0.000128848
-3.83034e-07 -2.96854e-07 -0.000134401
-1.20957e-07 -3.50888e-07 -0.00013919
-1.38337e-07 -3.60248e-07 -0.000144329
-3.02261e-08 -7.6927e-07 -0.000146922
3.36422e-07 -5.37931e-07 -0.000150123
6.41209e-08 -5.56848e-07 -0.000151796
4.93241e-07 -4.80385e-07 -0.000156981
2.2379e-07 -3.76976e-07 -0.000160718
9.22265e-07 -6.49563e-07 -0.000173969
5.68053e-07 -4.56701e-07 -0.000164285
0 0 0
0 0 0
-3.95628e-08 -1.25426e-07 -1.0171e-06
2.51772e-08 -2.13236e-07 -3.1703e-06
2.28949e-08 1.51083e-07 -8.49931e-06
-1.43947e-08 -1.19079e-07 -1.30992e-05
4.89346e-08 3.96828e-07 -2.01764e-05
3.46443e-07 8.87399e-09 -2.5772e-05
2.84566e-07 3.57915e-07 -3.59313e-05
5.15592e-08 -1.11167e-07 -4.44716e-05
4.43705e-07 4.18189e-07 -5.55292e-05
9.46001e-08 -1.73862e-07 -6.44262e-05
2.13408e-07 -1.01775e-08 -7.73486e-05
5.06475e-07 2.09276e-09 -8.86078e-05
2.37273e-07 -4.35895e-07 -0.00010397
2.91379e-07 -1.2222e-07 -0.000114359
3.25833e-07 -2.8399e-07 -0.000128714
5.67016e-07 -2.10799e-07 -0.000137471
4.54217e-08 -6.84346e-07 -0.000152469
1.18042e-07 -3.41606e-07 -0.000160861
4.06218e-07 -7.84006e-07 -0.000174726
4.13275e-07 -5.19706e-07 -0.000181948
7.91049e-07 -6.72912e-07 -0.00019477
3.05615e-07 -5.10298e-07 -0.000200685
8.26875e-07 -6.62077e-07 -0.000211709
4.90979e-07 -5.7032e-07 -0.0002152
1.03326e-06 -7.30608e-07 -0.000222131
4.31131e-07 -5.15818e-07 -0.000223245
7.1076e-07 -6.56019e-07 -0.000226354
7.93553e-07 -3.14214e-07 -0.000224776
5.51631e-07 -4.61565e-07 -0.000226208
5.05863e-07 -6.88132e-07 -0.00022451
5.38494e-07 -4.85942e-07 -0.000223242
2.75743e-07 -6.17299e-07 -0.000217903
3.5879e-07 -4.48102e-07 -0.000213598
3.64535e-07 -6.81093e-07 -0.000206028
3.84258e-07 -6.24787e-07 -0.000199798
2.69924e-07 -5.63382e-07 -0.000192034
4.68448e-07 -6.3019e-07 -0.000184392
2.15785e-07 -5.51219e-07 -0.000175925
0 0 0
0 0 0
-7.00225e-08 1.59411e-07 -7.95018e-07
3.94543e-07 2.39048e-07 -7.60378e-07
1.22459e-07 4.29731e-07 -4.22551e-06
-1.68449e-07 2.65163e-07 -5.84939e-06
-7.27716e-09 5.96539e-07 -9.92254e-06
-3.89393e-08 4.54207e-07 -1.16413e-05
-5.03682e-08 3.59247e-07 -1.55195e-05
9.25432e-08 2.65428e-07 -1.62588e-05
1.81028e-07 -6.24245e-08 -2.03984e-05
-2.86559e-07 1.81388e-07 -2.14946e-05
1.18185e-07 7.58492e-08 -2.58637e-05
-3.68514e-07 1.52229e-07 -3.03408e-05
1.88604e-07 -1.93517e-07 -3.91133e-05
-3.00088e-07 -3.59986e-07 -4.65391e-05
9.0249e-08 -3.03629e-07 -5.40596e-05
-9.00484e-08 -3.29146e-07 -5.85488e-05
6.23365e-08 -1.08469e-07 -6.33995e-05
-6.72758e-08 -5.55908e-07 -6.7319e-05
5.29224e-08 -1.10791e-07 -7.34003e-05
-2.86813e-07 -6.12427e-07 -7.91254e-05
-1.95834e-08 -1.43946e-07 -8.38031e-05
-4.27033e-07 -5.10063e-07 -8.88438e-05
-2.0825e-07 -1.51297e-07 -9.45566e-05
-1.55093e-07 -2.83136e-07 -0.000101224
-2.94337e-07 -7.21398e-08 -0.000106865
-1.42008e-07 -4.1347e-07 -0.000111395
-2.51933e-07 -1.84505e-07 -0.00011557
-1.5128e-07 -3.34674e-07 -0.000118894
-1.54701e-07 -3.04814e-07 -0.000124035
-1.86675e-07 -1.29884e-07 -0.000127196
-3.19925e-07 -1.05217e-07 -0.000132614
-1.75599e-07 -2.8862e-07 -0.000135982
-1.57926e-07 -4.22522e-07 -0.000139726
2.79659e-07 -8.5005e-07 -0.000141392
5.02853e-08 -7.9672e-07 -0.000144904
5.11133e-07 -7.48835e-07 -0.000147251
1.65809e-07 -8.49549e-07 -0.000152233
6.46266e-07 -5.70095e-07 -0.000154277
3.62783e-07 -4.82819e-07 -0.000165961
4.38754e-07 -8.65051e-07 -0.000155459
0 0 0
0 0 0
-3.29607e-08 1.29418e-07 -3.33807e-07
-2.89591e-08 -1.11563e-07 -3.09527e-06
1.52891e-08 9.27115e-08 -6.76279e-06
3.37365e-08 1.40053e-07 -1.37675e-05
5.52354e-08 2.39402e-08 -1.91868e-05
3.17461e-07 4.46187e-08 -2.73903e-05
4.84604e-07 3.07095e-07 -3.56323e-05
4.14211e-07 -2.29868e-07 -4.68896e-05
4.51641e-07 3.66025e-07 -5.70163e-05
3.8106e-07 -7.52512e-08 -6.88833e-05
4.42929e-07 5.23817e-08 -7.98309e-05
2.68986e-07 -5.59238e-07 -9.33401e-05
6.07426e-07 -3.07463e-07 -0.000105517
7.76419e-07 -3.85557e-07 -0.000119744
4.14989e-07 -1.6202e-07 -0.000129916
5.92788e-07 -4.32444e-07 -0.00014453
2.69583e-07 -3.73175e-07 -0.000155396
4.57724e-07 -6.08025e-07 -0.000169988
4.30145e-07 -5.87312e-07 -0.000179364
6.15885e-07 -5.56512e-07 -0.000191164
2.19813e-08 -7.95025e-07 -0.000198208
6.56117e-07 -9.57269e-07 -0.000208968
2.30503e-07 -5.03649e-07 -0.000215355
5.92026e-07 -8.35177e-07 -0.000223578
2.79253e-07 -6.57438e-07 -0.000226389
6.05862e-07 -6.75114e-07 -0.000230204
5.42594e-07 -5.49815e-07 -0.000229346
5.42489e-07 -7.49748e-07 -0.000229491
7.39358e-07 -5.05653e-07 -0.000229024
5.82041e-07 -5.54358e-07 -0.000228326
7.15622e-07 -6.78388e-07 -0.000226782
6.10006e-07 -6.21729e-07 -0.000223126
8.04192e-07 -5.94372e-07 -0.000218663
8.02422e-07 -5.93297e-07 -0.000211794
7.25386e-07 -5.57556e-07 -0.000204498
1.18637e-06 -9.33891e-07 -0.000195285
1.03619e-06 -5.03416e-07 -0.000187126
9.80195e-07 -7.99153e-07 -0.000177701
8.17943e-07 -6.46016e-07 -0.000167648
0 0 0
0 0 0
8.05905e-08 -9.29794e-08 3.77986e-07
-1.78318e-07 -8.1839e-08 -1.35196e-06
-4.53716e-08 -4.60095e-08 -1.80027e-06
1.91158e-07 -1.7438e-07 -5.33152e-06
1.51535e-07 1.25378e-07 -7.44402e-06
6.12399e-08 3.38673e-07 -1.00939e-05
1.71481e-07 1.49964e-07 -1.0724e-05
-5.95552e-08 3.27532e-07 -1.38106e-05
2.14075e-07 2.95451e-07 -1.59306e-05
-3.44455e-07 1.44839e-08 -2.05913e-05
-1.58981e-07 1.98804e-07 -2.43099e-05
9.31829e-08 2.86248e-07 -3.01185e-05
4.43597e-09 -3.76046e-09 -3.76683e-05
-8.5389e-08 -1.59002e-07 -4.56751e-05
1.79942e-07 -4.17118e-07 -5.18859e-05
-3.11089e-07 -1.06776e-07 -5.56881e-05
1.51564e-07 -2.48724e-07 -5.84928e-05
-3.01098e-07 -8.48342e-08 -6.28371e-05
-1.21399e-08 1.29711e-08 -6.85619e-05
6.73852e-08 1.94244e-07 -7.35318e-05
-1.26816e-08 -2.77214e-07 -7.92571e-05
-1.63387e-07 -1.18592e-07 -8.40457e-05
-4.46075e-08 -5.07278e-07 -9.04468e-05
-3.33546e-07 -3.35177e-07 -9.62495e-05
1.10087e-07 -5.0674e-07 -0.000101067
-4.54339e-07 -1.70824e-07 -0.000104925
5.49708e-09 -3.30338e-07 -0.000107671
5.60546e-08 -2.84663e-07 -0.000112784
-2.07797e-07 -1.51982e-07 -0.000115496
-5.29318e-07 -4.71042e-07 -0.000120294
-2.95917e-08 -5.7118e-07 -0.000123426
-3.73952e-07 -4.07126e-07 -0.000128462
-1.71389e-07 -6.29463e-07 -0.000130827
5.97451e-07 -7.72893e-07 -0.000134436
4.46522e-08 -6.10421e-07 -0.000135881
3.97689e-07 -5.68801e-07 -0.000140465
2.18576e-07 -4.46338e-07 -0.000142532
5.9065e-07 -5.48094e-07 -0.000145246
4.69351e-07 -4.70593e-07 -0.000145849
1.21714e-06 -7.74031e-07 -0.000156592
1.11777e-06 -8.01539e-07 -0.000147059
0 0 0
0 0 0
5.87302e-08 5.0011e-08 -8.13064e-07
-7.32664e-09 -5.09907e-08 -3.05182e-06
3.1995e-07 1.74663e-07 -7.86463e-06
2.84862e-07 -1.85018e-07 -1.32309e-05
2.57548e-07 2.51473e-07 -2.05841e-05
3.82523e-07 1.9725e-07 -2.82175e-05
1.90082e-07 6.47018e-08 -3.83518e-05
3.25945e-07 -3.84084e-08 -4.95822e-05
3.11902e-07 1.58901e-07 -6.07082e-05
6.5382e-07 -2.97411e-07 -7.20169e-05
5.1577e-07 1.22656e-07 -8.36272e-05
1.87111e-07 -3.52221e-07 -9.61213e-05
6.24028e-07 -2.43001e-07 -0.000108911
3.6147e-07 -3.25288e-07 -0.000121736
6.27941e-07 -4.89031e-07 -0.000135806
3.27706e-07 -3.59078e-07 -0.000148895
6.57885e-07 -5.91223e-07 -0.000163315
3.44377e-07 -4.50137e-07 -0.000175379
6.09222e-07 -5.56588e-07 -0.000187712
3.14549e-07 -4.88033e-07 -0.00019751
8.25733e-07 -6.77211e-07 -0.000206915
3.20196e-07 -7.87315e-07 -0.000214416
7.25336e-07 -7.17735e-07 -0.000223383
5.95018e-07 -5.29799e-07 -0.000230259
6.32835e-07 -6.47083e-07 -0.000235544
7.16641e-07 -6.02656e-07 -0.000238662
6.71655e-07 -5.29105e-07 -0.000238261
7.81375e-07 -4.18967e-07 -0.000236844
7.89055e-07 -2.43667e-07 -0.000233846
9.5254e-07 -5.51799e-07 -0.00023298
5.91843e-07 -5.3691e-07 -0.000229236
5.57097e-07 -5.70237e-07 -0.000226244
6.89307e-07 -7.15679e-07 -0.000221961
5.80735e-07 -6.14306e-07 -0.000217054
5.55013e-07 -7.73568e-07 -0.000209488
7.76233e-07 -6.34178e-07 -0.000201613
8.70238e-07 -5.67755e-07 -0.000191059
6.07784e-07 -9.0922e-07 -0.000181803
7.46289e-07 -5.67247e-07 -0.000170047
6.40737e-07 -8.6837e-07 -0.0001592
0 0 0
0 0 0
-1.49928e-07 2.18051e-08 1.16543e-08
-7.7991e-08 1.31311e-07 1.3783e-06
1.70678e-07 1.90243e-07 -1.70619e-06
3.11526e-08 1.99484e-07 -3.07292e-06
1.81967e-07 4.64253e-07 -6.237e-06
-3.81479e-08 4.08516e-07 -6.29473e-06
3.20841e-07 3.95571e-07 -8.42874e-06
-3.301e-08 4.01992e-07 -9.56715e-06
7.73619e-08 5.22648e-07 -1.46116e-05
-1.14984e-07 4.43963e-07 -1.82099e-05
7.82323e-08 2.09007e-07 -2.34492e-05
-1.89282e-07 1.18027e-08 -2.87601e-05
2.11603e-07 -2.1836e-08 -3.63307e-05
-9.9246e-08 -3.01673e-07 -4.26673e-05
-2.04455e-07 -4.25196e-07 -4.83265e-05
-5.4282e-08 -4.14456e-07 -5.13133e-05
-1.70685e-07 -6.08672e-08 -5.47227e-05
-1.25211e-07 -4.41326e-07 -5.76028e-05
7.44e-08 -2.87361e-07 -6.32952e-05
-2.7333e-07 -4.58809e-07 -6.86236e-05
3.52353e-07 -2.61513e-07 -7.40155e-05
-2.01332e-07 -5.06076e-07 -7.8853e-05
3.01154e-07 -6.46817e-08 -8.42444e-05
-6.98729e-08 -4.8909e-07 -8.89414e-05
-2.783e-07 -2.66015e-07 -9.34041e-05
-1.46357e-07 -1.85702e-07 -9.69714e-05
6.65494e-08 -1.83693e-07 -0.000101506
2.82159e-07 -1.38833e-07 -0.000104629
-3.64882e-07 -1.3338e-07 -0.000109723
8.49184e-08 -1.91861e-07 -0.000111863
-2.79711e-07 -3.96241e-07 -0.000116366
8.38069e-08 -4.6664e-07 -0.000118448
-2.73651e-08 -6.09607e-07 -0.000122191
1.28795e-07 -7.41696e-07 -0.000124155
-2.0709e-07 -7.78443e-07 -0.00012808
6.01413e-07 -9.08976e-07 -0.000130208
7.36631e-08 -7.95458e-07 -0.000134321
5.86437e-07 -7.42737e-07 -0.000136102
6.44135e-07 -8.22434e-07 -0.000136963
9.67374e-07 -6.65321e-07 -0.000137567
8.43716e-07 -7.23132e-07 -0.000148378
6.45034e-07 -1.00323e-06 -0.000138331
0 0 0
0 0 0
-2.29432e-07 -1.82643e-07 -9.8997e-07
-6.56308e-08 -1.79491e-07 -3.98781e-06
-8.16017e-08 1.97861e-07 -8.02999e-06
3.66155e-08 -8.84323e-08 -1.40638e-05
3.63856e-07 -3.30406e-08 -2.1006e-05
3.95217e-07 9.18394e-08 -2.93701e-05
4.01734e-07 8.89296e-08 -3.99909e-05
2.54137e-07 -1.38414e-07 -5.07281e-05
6.73242e-07 2.6091e-07 -6.26467e-05
4.06927e-07 -4.66204e-07 -7.2777e-05
4.54441e-07 2.30766e-07 -8.52844e-05
4.73866e-07 -4.88706e-07 -9.65884e-05
4.73001e-07 2.49198e-07 -0.000110633
5.88017e-07 -7.81534e-07 -0.000124034
5.39355e-07 -1.53076e-07 -0.0001386
5.07863e-07 -7.9081e-07 -0.000153416
6.16934e-07 -4.5114e-07 -0.000167392
4.78309e-07 -8.72648e-07 -0.000181047
6.18366e-07 -5.51724e-07 -0.000193803
6.65055e-07 -9.65037e-07 -0.000204713
4.27819e-07 -4.49558e-07 -0.000213386
3.607e-07 -7.84644e-07 -0.000221333
8.32125e-07 -8.3497e-07 -0.000229017
6.13469e-07 -9.50545e-07 -0.000236262
7.66535e-07 -4.06745e-07 -0.000241952
5.49791e-07 -8.3033e-07 -0.000245081
8.66077e-07 -4.58134e-07 -0.000245755
5.06695e-07 -5.14297e-07 -0.00024252
1.0622e-06 -4.56109e-07 -0.000241058
7.59176e-07 -7.72743e-07 -0.000236199
8.1954e-07 -3.23664e-07 -0.000234286
8.40712e-07 -7.49751e-07 -0.000228544
1.0098e-06 -6.04407e-07 -0.000226392
8.80095e-07 -8.73965e-07 -0.000219383
1.20099e-06 -5.59203e-07 -0.000214356
9.70566e-07 -9.08978e-07 -0.000204068
1.30842e-06 -6.40341e-07 -0.00019604
1.07145e-06 -6.52964e-07 -0.000184554
1.09767e-06 -6.93045e-07 -0.000174131
7.41295e-07 -5.89867e-07 -0.000161347
1.07767e-06 -1.00456e-06 -0.000151201
0 0 0
0 0 0
-3.93406e-08 -4.20849e-08 9.69445e-07
-5.09677e-08 -4.6029e-08 1.32484e-07
-9.17869e-08 2.38784e-07 2.00614e-07
1.00917e-07 8.1869e-08 -3.37963e-06
-1.73004e-08 1.09471e-07 -4.39591e-06
-8.99419e-10 1.79079e-07 -6.04463e-06
1.40026e-09 1.94027e-07 -5.55281e-06
8.97894e-08 4.1012e-07 -8.89934e-06
1.5694e-07 2.64013e-07 -1.14624e-05
1.06471e-07 3.66701e-07 -1.74901e-05
-6.93375e-08 1.0628e-07 -2.16544e-05
4.63782e-08 -1.12618e-07 -2.78364e-05
1.34762e-07 -4.4243e-09 -3.32625e-05
-1.76871e-07 -5.68395e-09 -3.96102e-05
-3.92062e-08 -2.70733e-07 -4.39282e-05
-3.11227e-07 1.02945e-07 -4.78695e-05
3.32548e-08 -2.1427e-07 -5.03674e-05
2.08939e-09 -3.78581e-09 -5.47074e-05
4.72432e-09 -1.06099e-07 -5.88764e-05
-4.2545e-08 -2.3126e-08 -6.36211e-05
5.60972e-08 -9.11709e-08 -6.78911e-05
2.98772e-07 -4.76454e-08 -7.25783e-05
-6.97218e-09 -2.96274e-07 -7.60718e-05
7.13827e-08 -1.2868e-07 -8.08781e-05
1.70263e-07 -3.20787e-07 -8.44216e-05
1.36769e-10 -3.41496e-07 -8.96907e-05
1.35735e-07 -1.95117e-07 -9.28636e-05
1.05098e-07 -2.85905e-07 -9.9044e-05
2.28428e-07 -1.85909e-07 -0.000100739
-2.70164e-07 -3.21599e-07 -0.000105434
3.20718e-07 -3.52596e-07 -0.000106105
-2.76344e-08 -6.60235e-07 -0.000109468
-2.60051e-07 -6.84085e-07 -0.000110208
1.63799e-07 -7.276e-07 -0.000114267
1.51632e-07 -9.06865e-07 -0.000116565
8.15765e-08 -7.12312e-07 -0.000121326
5.61978e-07 -6.11907e-07 -0.000122933
5.01165e-07 -5.05997e-07 -0.00012596
3.58201e-07 -5.89753e-07 -0.000126573
6.48289e-07 -7.23462e-07 -0.000127039
1.00701e-06 -6.95476e-07 -0.000126314
1.01832e-06 -6.96508e-07 -0.00013917
8.84674e-07 -9.36209e-07 -0.000126917
0 0 0
0 0 0
-1.19078e-08 1.34603e-07 -1.37476e-06
1.93646e-07 2.30779e-07 -4.8835e-06
9.99476e-09 6.30864e-09 -9.68683e-06
3.52043e-07 -6.23312e-08 -1.56147e-05
3.25076e-07 7.78003e-08 -2.23889e-05
3.18703e-07 -8.8897e-08 -3.09511e-05
6.20502e-07 1.73332e-07 -3.98473e-05
5.58003e-07 -2.63017e-07 -5.20432e-05
6.82751e-07 -1.31202e-07 -6.2107e-05
6.817e-07 -2.62699e-07 -7.50711e-05
2.19504e-07 -4.31486e-07 -8.68302e-05
5.99815e-07 -2.48216e-07 -0.000101481
5.92678e-07 -4.4644e-07 -0.000113973
4.85446e-07 -4.10811e-07 -0.000128828
4.75108e-07 -5.3149e-07 -0.000143712
3.11552e-07 -6.67803e-07 -0.000159107
1.2623e-07 -7.04425e-07 -0.000173594
4.73714e-07 -6.85234e-07 -0.000187086
2.57298e-07 -7.33166e-07 -0.000200327
8.14171e-07 -7.42911e-07 -0.000212863
3.14804e-07 -9.02072e-07 -0.000222153
6.14726e-07 -8.07389e-07 -0.00022822
2.5286e-07 -6.43327e-07 -0.000234225
7.71105e-07 -6.76761e-07 -0.000240384
7.41294e-07 -6.269e-07 -0.000245869
1.19341e-06 -5.99807e-07 -0.000250733
6.18943e-07 -8.92104e-07 -0.000251362
9.90211e-07 -6.89545e-07 -0.000250271
8.84742e-07 -6.98555e-07 -0.000245522
1.12694e-06 -5.08205e-07 -0.000243256
8.48185e-07 -6.58157e-07 -0.00023758
1.19134e-06 -6.46555e-07 -0.000233854
1.07585e-06 -6.76194e-07 -0.000229065
1.13066e-06 -4.82101e-07 -0.000223913
8.23097e-07 -7.48912e-07 -0.000215922
1.03424e-06 -9.40695e-07 -0.000207634
7.58843e-07 -7.86811e-07 -0.000196382
9.75794e-07 -7.0894e-07 -0.000186807
7.96994e-07 -8.00958e-07 -0.000175036
7.62392e-07 -6.85532e-07 -0.000164066
1.00995e-06 -7.69365e-07 -0.00015284
1.07439e-06 -8.89203e-07 -0.000141146
0 0 0
0 0 0
-4.73367e-08 -1.47606e-07 -1.16822e-08
-2.00725e-07 5.48284e-08 1.19912e-06
-3.85356e-08 7.03687e-08 -1.79415e-06
-7.40194e-08 3.64963e-07 -3.36851e-06
1.96047e-07 4.55957e-07 -5.57936e-06
-1.60015e-10 4.48547e-07 -5.89879e-06
8.32951e-08 6.33949e-07 -6.67846e-06
3.29343e-08 4.59573e-07 -8.18979e-06
-6.97638e-08 4.61588e-07 -1.13405e-05
1.25553e-07 4.14719e-07 -1.54571e-05
3.41678e-08 2.00847e-07 -1.96314e-05
2.40821e-08 -4.4601e-10 -2.52495e-05
-1.604e-08 -2.71309e-07 -2.98177e-05
-3.32782e-07 -3.36835e-07 -3.47619e-05
-1.82565e-07 -2.58539e-07 -3.88039e-05
1.82849e-07 -4.16845e-07 -4.35653e-05
-1.29209e-07 -2.10517e-07 -4.73814e-05
1.91124e-07 -2.99451e-07 -5.05694e-05
2.24779e-08 -3.05198e-07 -5.39078e-05
2.12028e-08 -4.52804e-07 -5.80167e-05
1.85234e-07 -2.80507e-07 -6.21431e-05
-2.1157e-07 -4.11555e-07 -6.54699e-05
2.96882e-07 -2.34869e-07 -6.86414e-05
1.88563e-07 -2.3558e-07 -7.12622e-05
3.61681e-07 -2.86672e-07 -7.55276e-05
1.54794e-07 -4.12655e-07 -8.01397e-05
4.33742e-07 -5.92071e-08 -8.64011e-05
4.5041e-07 -9.34429e-08 -9.01004e-05
6.51366e-08 -1.1973e-07 -9.56888e-05
4.99813e-07 -1.90901e-07 -9.65593e-05
-1.9669e-07 -4.60691e-07 -9.94377e-05
2.05369e-07 -4.52637e-07 -9.81029e-05
4.01682e-08 -8.14673e-07 -0.000100818
2.48182e-07 -1.04482e-06 -0.000102564
1.68878e-07 -7.94656e-07 -0.000108069
1.70081e-07 -1.18002e-06 -0.000110429
2.42194e-07 -9.8602e-07 -0.000114363
1.82003e-07 -6.63751e-07 -0.000115555
3.89382e-07 -9.20757e-07 -0.000116724
5.5106e-07 -8.66659e-07 -0.000116217
4.49323e-07 -6.34788e-07 -0.000115192
1.02349e-06 -6.65795e-07 -0.000114183
1.12969e-06 -6.96735e-07 -0.000127778
9.10209e-07 -7.95372e-07 -0.000115636
0 0 0
0 0 0
-1.67972e-07 -1.49256e-07 -1.26213e-06
-1.38143e-07 4.42173e-07 -4.73101e-06
1.5964e-07 -1.88438e-07 -9.87332e-06
1.38604e-07 -1.71145e-07 -1.63456e-05
6.14338e-07 8.35839e-08 -2.41117e-05
5.47686e-07 2.17357e-07 -3.14949e-05
5.27275e-07 -1.12831e-08 -4.16525e-05
2.83284e-07 -2.40406e-07 -5.15748e-05
5.3291e-07 -5.32849e-08 -6.48637e-05
5.98159e-07 -4.23712e-07 -7.66269e-05
1.81578e-07 -1.31495e-07 -9.2283e-05
2.70182e-07 -8.08183e-07 -0.000105359
2.85467e-07 -5.88418e-07 -0.000120366
2.16386e-07 -6.55252e-07 -0.000134057
4.43292e-07 -7.01682e-07 -0.000148804
7.61251e-07 -6.57186e-07 -0.000164465
4.84936e-07 -5.48472e-07 -0.000178194
5.02757e-07 -8.79269e-07 -0.00019308
5.27516e-07 -7.24862e-07 -0.000206154
5.32393e-07 -1.0437e-06 -0.000219592
4.288e-07 -8.49348e-07 -0.000228814
4.94059e-07 -6.44458e-07 -0.000234234
6.00363e-07 -6.9749e-07 -0.000237599
4.17109e-07 -6.22697e-07 -0.000243426
6.74115e-07 -7.25084e-07 -0.000247907
5.98438e-07 -7.88722e-07 -0.000252957
1.02649e-06 -7.54968e-07 -0.000255155
5.68151e-07 -6.64438e-07 -0.000253741
9.30495e-07 -7.63121e-07 -0.000251314
9.84275e-07 -7.1319e-07 -0.000245788
1.17048e-06 -5.9131e-07 -0.000241839
1.12819e-06 -6.91114e-07 -0.00023599
1.21347e-06 -6.25812e-07 -0.000232419
1.10171e-06 -7.46381e-07 -0.000225235
1.34907e-06 -7.32621e-07 -0.000218285
8.26979e-07 -6.9352e-07 -0.000207425
1.37593e-06 -9.07114e-07 -0.000197182
1.1028e-06 -7.97736e-07 -0.000186385
1.22103e-06 -1.0985e-06 -0.000175905
1.19995e-06 -6.7497e-07 -0.000165319
1.13868e-06 -8.9534e-07 -0.000154975
9.10935e-07 -6.98137e-07 -0.000143204
1.28157e-06 -7.67279e-07 -0.000129828
0 0 0
0 0 0
-9.64141e-08 1.44212e-07 4.95055e-07
8.06014e-08 5.38016e-08 -8.34958e-07
-1.07123e-07 2.1908e-08 -1.36557e-06
-1.26566e-07 1.91076e-07 -4.66806e-06
-8.41577e-08 6.75867e-08 -5.94236e-06
-1.10809e-07 2.56435e-07 -7.52431e-06
8.19942e-08 3.36127e-07 -7.61798e-06
1.36524e-07 4.5942e-07 -9.36998e-06
7.25397e-10 4.47822e-07 -1.0411e-05
2.74341e-07 2.15694e-07 -1.38338e-05
1.07998e-07 2.96254e-07 -1.74121e-05
2.53049e-08 -1.4644e-07 -2.20663e-05
1.0314e-07 -5.72913e-08 -2.57069e-05
-8.63892e-08 2.44759e-08 -2.99548e-05
6.20587e-08 -2.07253e-07 -3.42593e-05
1.60296e-08 -1.73096e-07 -3.94891e-05
-3.24122e-08 -2.78457e-07 -4.31409e-05
3.57036e-07 -2.86477e-08 -4.66222e-05
3.15039e-09 -3.67141e-07 -4.85021e-05
4.07131e-08 -1.43389e-07 -5.21012e-05
-7.47658e-08 -1.15641e-07 -5.54038e-05
2.96167e-07 -8.62284e-08 -5.99153e-05
-1.26969e-07 -2.38637e-07 -6.14404e-05
2.3396e-07 -1.83942e-07 -6.50033e-05
2.30978e-07 -1.25297e-07 -6.76497e-05
1.77031e-07 -1.80515e-07 -7.38131e-05
2.88564e-07 -2.89971e-07 -7.75986e-05
1.46359e-07 -2.98711e-07 -8.49754e-05
6.01322e-07 -5.28833e-07 -8.65593e-05
-8.70433e-10 -3.5952e-07 -9.15481e-05
1.32654e-07 -1.90955e-07 -9.05538e-05
5.2382e-07 -6.77345e-07 -9.23191e-05
5.22996e-08 -5.30978e-07 -9.16026e-05
4.37059e-07 -8.80309e-07 -9.55917e-05
1.50017e-07 -8.79924e-07 -9.86054e-05
2.38384e-07 -8.12721e-07 -0.000103105
3.74369e-07 -8.5048e-07 -0.000104016
1.72864e-07 -8.32576e-07 -0.000105765
2.9489e-07 -1.00557e-06 -0.000105826
3.55469e-07 -7.83317e-07 -0.00010577
7.20145e-07 -8.70338e-07 -0.000104514
6.13945e-07 -8.99693e-07 -0.000104394
1.08751e-06 -8.20886e-07 -0.000105288
1.02683e-06 -7.99032e-07 -0.000117494
7.90482e-07 -8.8577e-07 -0.000107231
0 0 0
0 0 0
1.6378e-07 -1.78371e-07 -1.07322e-06
8.92682e-08 -7.08819e-08 -4.45168e-06
6.77827e-08 -2.18302e-09 -9.08645e-06
2.40678e-07 1.47215e-07 -1.56411e-05
3.72796e-07 3.20201e-07 -2.2769e-05
4.94172e-07 2.21534e-08 -3.23196e-05
6.55992e-07 2.64149e-07 -4.09233e-05
8.34783e-07 -2.10135e-07 -5.43979e-05
5.51219e-07 6.54922e-08 -6.52668e-05
4.57564e-07 -3.01494e-07 -8.07881e-05
5.14888e-07 -1.60691e-07 -9.42064e-05
5.08412e-07 -2.98052e-07 -0.000110669
4.93115e-07 -5.65285e-07 -0.000123188
6.26669e-07 -5.39839e-07 -0.000138206
2.50235e-07 -6.81015e-07 -0.000152915
2.72181e-07 -5.86035e-07 -0.000168296
5.95607e-07 -8.26322e-07 -0.000182634
3.68616e-07 -1.04198e-06 -0.000196472
3.5235e-07 -8.72146e-07 -0.000211778
6.54332e-07 -7.95346e-07 -0.000225566
6.54022e-07 -1.23506e-06 -0.000233869
2.31782e-07 -7.02628e-07 -0.000237254
3.52774e-07 -6.79045e-07 -0.000241519
7.39922e-07 -9.45675e-07 -0.00024544
6.50517e-07 -7.59981e-07 -0.000249898
1.0867e-06 -5.49707e-07 -0.000254779
9.23705e-07 -6.01028e-07 -0.000256916
1.51128e-06 -3.99603e-07 -0.00025675
9.81795e-07 -6.34523e-07 -0.000252379
1.20476e-06 -6.57756e-07 -0.000249016
1.17675e-06 -6.87776e-07 -0.000242525
1.31055e-06 -6.71571e-07 -0.000237759
1.02343e-06 -5.39734e-07 -0.000233034
1.33443e-06 -6.44542e-07 -0.000227318
9.67277e-07 -6.18301e-07 -0.000219599
1.43607e-06 -7.6757e-07 -0.000210044
1.25293e-06 -7.39504e-07 -0.000198277
1.32709e-06 -9.34434e-07 -0.000187361
1.19707e-06 -8.5568e-07 -0.000176587
1.35518e-06 -8.97438e-07 -0.000165893
1.01385e-06 -7.09547e-07 -0.000156109
1.41272e-06 -7.70031e-07 -0.000143615
1.03831e-06 -9.29078e-07 -0.000130764
1.21051e-06 -7.35809e-07 -0.000118258
0 0 0
0 0 0
-6.39452e-08 -2.38692e-07 -2.77898e-07
1.19203e-07 -2.10128e-08 3.48667e-07
-1.56727e-07 6.47135e-08 -2.62764e-06
1.81043e-08 1.03882e-07 -3.88946e-06
-1.65874e-07 4.02458e-07 -6.17701e-06
-3.72774e-08 4.18704e-07 -7.32548e-06
2.74902e-07 4.63797e-07 -8.5163e-06
7.18466e-08 2.48105e-07 -9.40902e-06
3.31425e-07 1.56375e-07 -1.07317e-05
-3.50637e-08 1.99517e-07 -1.26571e-05
2.97895e-07 5.40482e-08 -1.54763e-05
-1.45428e-07 4.7406e-08 -1.89318e-05
3.92426e-08 -8.76544e-08 -2.17397e-05
1.17856e-07 -3.67369e-07 -2.52862e-05
-5.09453e-08 -2.80813e-07 -2.96688e-05
4.01557e-07 -4.16672e-07 -3.52275e-05
-6.2855e-08 -3.47435e-07 -3.93881e-05
1.2924e-07 -5.49068e-07 -4.14665e-05
-2.31177e-09 -1.8548e-07 -4.32443e-05
-1.03885e-08 -2.24025e-07 -4.65545e-05
6.5813e-08 -3.14068e-07 -5.12948e-05
-9.79088e-08 -3.33945e-07 -5.46346e-05
3.28017e-07 -3.95296e-07 -5.80321e-05
-1.51613e-08 -4.10263e-07 -5.91073e-05
4.73149e-07 -1.59391e-07 -6.30094e-05
3.66063e-07 -3.37921e-07 -6.64094e-05
1.63345e-08 -1.65802e-07 -7.29093e-05
1.71422e-07 -2.7901e-07 -7.58141e-05
1.27665e-07 -1.05611e-07 -8.2247e-05
2.33135e-07 -8.13338e-08 -8.25702e-05
7.36307e-08 -5.76283e-07 -8.6453e-05
5.33436e-07 -4.68542e-07 -8.38899e-05
3.38624e-07 -7.31981e-07 -8.68303e-05
5.18779e-07 -6.90461e-07 -8.67746e-05
2.81155e-07 -8.80451e-07 -9.18358e-05
1.85309e-07 -1.15056e-06 -9.28051e-05
3.81898e-07 -9.93005e-07 -9.60402e-05
4.32853e-07 -7.37698e-07 -9.55232e-05
5.17475e-08 -8.35605e-07 -9.63345e-05
6.32198e-07 -9.0595e-07 -9.57347e-05
5.28745e-07 -6.25533e-07 -9.55809e-05
8.05924e-07 -7.08603e-07 -9.5074e-05
7.44823e-07 -5.955e-07 -9.59157e-05
8.95027e-07 -7.65626e-07 -9.64844e-05
8.42653e-07 -8.77506e-07 -0.000107731
9.74906e-07 -8.38812e-07 -9.59487e-05
0 0 0
0 0 0
6.87648e-08 -1.2936e-07 -1.19795e-06
1.85016e-07 -3.93203e-08 -3.63677e-06
4.01694e-08 -1.04768e-07 -8.40903e-06
-3.00471e-08 -4.07932e-08 -1.37855e-05
1.7629e-07 1.38693e-08 -2.39383e-05
2.63964e-07 2.81698e-07 -3.24641e-05
2.90352e-07 -7.84513e-08 -4.63578e-05
2.14421e-07 3.06334e-08 -5.64836e-05
5.15609e-07 1.01842e-07 -7.1701e-05
4.01147e-07 -1.59758e-07 -8.19365e-05
5.11291e-07 -3.64742e-09 -9.86557e-05
5.57279e-07 -5.50419e-07 -0.000110799
6.96198e-07 -3.88919e-07 -0.000127495
3.40936e-07 -7.94639e-07 -0.000141061
4.38761e-07 -4.63726e-07 -0.000156768
3.24247e-07 -1.02464e-06 -0.00017191
9.14134e-07 -5.9505e-07 -0.000185602
4.56579e-07 -9.58076e-07 -0.000200379
5.33085e-07 -5.99127e-07 -0.000216484
-2.33357e-07 -1.28473e-06 -0.000231659
4.36878e-07 -5.01016e-07 -0.000237759
4.67227e-07 -8.99758e-07 -0.000241791
8.045e-07 -6.34003e-07 -0.000245415
4.64926e-07 -8.79074e-07 -0.000249385
8.81332e-07 -4.5246e-07 -0.000252301
6.63772e-07 -8.21535e-07 -0.000256103
1.05507e-06 -2.81286e-07 -0.00025831
5.8684e-07 -8.48161e-07 -0.000257879
1.18605e-06 -1.89422e-07 -0.00025689
5.79296e-07 -8.50052e-07 -0.000252242
1.2631e-06 -3.20566e-07 -0.000247932
9.60178e-07 -5.65099e-07 -0.000241214
1.39913e-06 -5.95586e-07 -0.000235922
1.09417e-06 -8.15327e-07 -0.000228184
1.22044e-06 -8.78122e-07 -0.00022074
8.85105e-07 -8.06184e-07 -0.000210566
1.05107e-06 -8.73892e-07 -0.00019959
1.04456e-06 -7.15811e-07 -0.000188717
1.21563e-06 -1.00098e-06 -0.000176506
1.13322e-06 -8.67407e-07 -0.000165876
1.09832e-06 -1.01862e-06 -0.000153887
9.33599e-07 -7.75521e-07 -0.000142547
1.5541e-06 -7.96051e-07 -0.000128437
8.6894e-07 -9.23166e-07 -0.00011701
1.19391e-06 -7.66635e-07 -0.000105237
0 0 0
0 0 0
6.86281e-09 1.15176e-08 2.75369e-07
-3.94872e-07 -3.53882e-08 -8.36992e-07
3.07227e-07 -1.21458e-07 -1.05593e-06
-2.99503e-08 5.14876e-08 -3.1556e-06
-1.27728e-07 1.45523e-07 -4.72484e-06
7.52826e-08 7.84414e-08 -6.36821e-06
9.85686e-08 3.52113e-07 -8.075e-06
1.42338e-07 3.05646e-07 -9.31499e-06
-7.97196e-08 4.84484e-07 -1.07801e-05
3.53059e-07 2.10514e-07 -1.21678e-05
1.11088e-07 1.03599e-07 -1.48332e-05
2.22298e-07 1.52437e-07 -1.64771e-05
2.19068e-07 -2.24722e-07 -1.89406e-05
1.62809e-07 -4.30268e-08 -2.18318e-05
5.81575e-08 -1.57533e-07 -2.67334e-05
-2.39893e-08 -2.91574e-07 -3.11204e-05
1.12516e-07 -3.75768e-07 -3.47216e-05
5.52682e-08 -2.63044e-07 -3.67264e-05
3.61294e-08 -3.66635e-07 -3.85057e-05
3.02003e-07 -2.72045e-07 -4.1971e-05
-5.27646e-08 -4.4442e-07 -4.60855e-05
3.01475e-07 -3.52066e-07 -5.13102e-05
-7.01724e-08 -4.79972e-07 -5.32729e-05
2.23799e-07 -2.78865e-07 -5.63884e-05
3.35806e-07 -2.9276e-07 -5.78691e-05
3.45032e-07 -2.31909e-07 -6.26042e-05
5.70207e-08 -2.53107e-07 -6.47418e-05
1.02987e-07 -5.27497e-07 -7.12054e-05
1.67786e-07 -2.5378e-07 -7.16383e-05
2.75056e-07 -3.40998e-07 -7.74891e-05
1.96279e-07 -4.5694e-07 -7.7024e-05
4.88489e-07 -6.3315e-07 -8.082e-05
1.48186e-07 -5.15346e-07 -7.94519e-05
6.2849e-07 -7.01191e-07 -8.23732e-05
2.59259e-07 -4.46809e-07 -8.2419e-05
1.78485e-07 -8.45472e-07 -8.58186e-05
7.79958e-08 -8.07037e-07 -8.56204e-05
3.50641e-07 -9.59124e-07 -8.72092e-05
6.46653e-07 -8.88597e-07 -8.61592e-05
4.03242e-07 -8.94263e-07 -8.7027e-05
7.97093e-07 -1.07055e-06 -8.65327e-05
5.74462e-07 -8.57312e-07 -8.71576e-05
8.5235e-07 -1.00409e-06 -8.62318e-05
9.096e-07 -9.38566e-07 -8.57661e-05
1.03784e-06 -8.48492e-07 -8.41654e-05
9.51544e-07 -9.4087e-07 -9.35192e-05
9.37563e-07 -1.08923e-06 -8.14049e-05
0 0 0
0 0 0
2.0536e-07 3.74337e-11 -1.03458e-06
3.31079e-07 1.4318e-08 -4.53831e-06
1.29468e-07 -1.62702e-07 -7.60679e-06
4.16052e-07 -2.05497e-08 -1.49824e-05
3.43104e-07 -1.28944e-08 -2.28096e-05
6.49253e-07 -1.36868e-07 -3.64967e-05
4.01801e-07 1.82146e-07 -4.74128e-05
5.99898e-07 -1.53717e-08 -6.31111e-05
5.34882e-07 7.89692e-08 -7.276e-05
6.45887e-07 -4.60186e-07 -8.65149e-05
4.61351e-07 -1.22137e-07 -9.80433e-05
6.93177e-07 -4.464e-07 -0.000114889
5.19849e-07 -5.36746e-07 -0.000129307
2.70996e-07 -5.47917e-07 -0.000146042
3.30174e-07 -6.65922e-07 -0.000161968
2.13129e-07 -8.29019e-07 -0.000176564
1.85561e-07 -6.48317e-07 -0.000190926
5.28313e-07 -1.03487e-06 -0.000203861
4.00977e-07 -8.52217e-07 -0.00021977
9.36661e-07 -9.34944e-07 -0.000232209
2.69077e-07 -7.23765e-07 -0.000241571
4.552e-07 -8.16354e-07 -0.000245166
3.85065e-07 -4.08867e-07 -0.00025035
5.8972e-07 -1.02822e-06 -0.000252635
5.17762e-07 -1.84482e-07 -0.000255975
9.20702e-07 -9.46575e-07 -0.000258383
5.51043e-07 -4.93641e-07 -0.000259676
1.27997e-06 -5.74844e-07 -0.000259536
7.6397e-07 -6.39318e-07 -0.000257761
1.56777e-06 -1.91314e-07 -0.000256478
1.00227e-06 -7.7161e-07 -0.000251416
1.47373e-06 -5.38679e-07 -0.000245515
1.11119e-06 -5.16587e-07 -0.000238307
1.36327e-06 -7.36948e-07 -0.000229702
1.33216e-06 -6.52259e-07 -0.000220367
1.19437e-06 -8.6674e-07 -0.000210191
1.29354e-06 -8.34934e-07 -0.000199166
1.20171e-06 -9.4935e-07 -0.000187786
1.42089e-06 -7.85888e-07 -0.000176307
1.45403e-06 -1.09912e-06 -0.000162987
1.09371e-06 -7.17249e-07 -0.00015151
1.36853e-06 -8.55746e-07 -0.000137422
1.01078e-06 -8.6832e-07 -0.000125484
1.23979e-06 -5.72291e-07 -0.000113258
9.69651e-07 -9.85896e-07 -0.000102435
1.18008e-06 -9.83536e-07 -8.9347e-05
0 0 0
0 0 0
-2.5686e-07 9.81506e-08 -3.27173e-07
4.95094e-08 3.41774e-08 4.39613e-07
-1.5374e-07 1.6362e-07 -1.15315e-06
7.88924e-08 6.84648e-08 -1.34457e-06
1.96187e-07 2.87e-07 -3.03067e-06
2.53768e-07 3.44095e-07 -4.86844e-06
1.9503e-07 2.91782e-07 -6.58162e-06
8.85291e-08 1.11162e-07 -8.69632e-06
2.66123e-07 1.15564e-07 -1.0446e-05
3.16944e-08 8.79359e-08 -1.26179e-05
2.43507e-07 -1.31149e-07 -1.37958e-05
1.08847e-07 -2.63843e-09 -1.52172e-05
3.05466e-08 -1.53335e-07 -1.64343e-05
2.25007e-07 -1.47556e-07 -2.00509e-05
-1.24522e-08 -7.10035e-08 -2.35576e-05
1.8034e-08 -3.35217e-07 -2.82272e-05
-1.00359e-07 -3.63702e-07 -3.0501e-05
1.68179e-07 -6.26545e-07 -3.27084e-05
4.28747e-07 -4.33326e-07 -3.43891e-05
-1.80494e-07 -6.82198e-07 -3.83276e-05
3.4271e-07 -3.22243e-07 -4.29055e-05
4.25809e-08 -4.21459e-07 -4.6492e-05
2.1947e-07 -3.75118e-07 -5.05717e-05
-3.07378e-07 -4.08868e-07 -5.15896e-05
3.50375e-07 -4.12432e-07 -5.50163e-05
2.00461e-07 -2.07548e-07 -5.64399e-05
2.61814e-07 -4.46558e-07 -6.16403e-05
4.01076e-07 -3.57316e-07 -6.23692e-05
1.44988e-07 -3.46573e-07 -6.80249e-05
1.06835e-07 -4.58624e-07 -6.73993e-05
3.06029e-09 -6.79812e-07 -7.29811e-05
3.28211e-07 -7.72376e-07 -7.17545e-05
3.60367e-07 -8.32334e-07 -7.60317e-05
6.34465e-07 -9.19031e-07 -7.38566e-05
3.91938e-07 -9.98738e-07 -7.67372e-05
4.00272e-07 -9.91768e-07 -7.56545e-05
1.14222e-07 -1.22701e-06 -7.90936e-05
3.88468e-07 -1.31159e-06 -7.8216e-05
9.12921e-08 -1.0496e-06 -7.95844e-05
4.36998e-07 -8.85814e-07 -7.86099e-05
5.36134e-07 -9.79443e-07 -7.97263e-05
5.65206e-07 -5.55258e-07 -7.84303e-05
8.41414e-07 -7.80373e-07 -7.74239e-05
4.84938e-07 -4.86831e-07 -7.42829e-05
7.89677e-07 -1.11869e-06 -7.29817e-05
7.05679e-07 -7.58175e-07 -7.03681e-05
8.02753e-07 -8.28387e-07 -7.78443e-05
1.17036e-06 -1.28278e-06 -6.79793e-05
0 0 0
0 0 0
6.90346e-08 -2.48043e-07 -1.37565e-06
8.89671e-08 -2.50721e-09 -3.4779e-06
8.83357e-08 6.64622e-08 -8.86337e-06
-1.02994e-07 -2.73554e-07 -1.50172e-05
2.64738e-07 -2.1549e-07 -2.62793e-05
-1.13821e-07 1.89267e-07 -3.61299e-05
1.25081e-07 -1.22235e-07 -5.11971e-05
5.14134e-07 1.62052e-07 -6.21979e-05
6.53184e-07 6.65272e-08 -7.71562e-05
5.61458e-07 -7.79498e-09 -8.67116e-05
6.35149e-07 -1.18427e-07 -0.000102957
7.46092e-07 -5.93108e-07 -0.00011658
8.89784e-07 -9.15733e-08 -0.000136075
2.22868e-07 -8.44102e-07 -0.000151904
2.52329e-07 -5.41861e-07 -0.000168847
1.04899e-07 -8.83692e-07 -0.000183747
-1.98476e-08 -6.11422e-07 -0.000196818
2.04279e-07 -9.73207e-07 -0.000211021
5.1513e-07 -4.73001e-07 -0.000223916
2.6459e-07 -9.66854e-07 -0.000235502
6.59625e-07 -4.05792e-07 -0.000244364
5.39061e-07 -8.80613e-07 -0.000250714
7.53748e-07 -4.95454e-07 -0.000254615
6.59241e-07 -9.20321e-07 -0.000257906
1.00703e-06 -4.88176e-07 -0.000260493
7.56422e-07 -8.02789e-07 -0.000261806
1.01767e-06 -3.46372e-07 -0.000262373
7.74007e-07 -7.71377e-07 -0.00026006
9.55367e-07 -2.67024e-07 -0.000260599
3.90918e-07 -8.67749e-07 -0.000257075
8.50723e-07 -3.62256e-07 -0.000255245
7.85363e-07 -5.75614e-07 -0.000247601
1.23484e-06 -2.39892e-07 -0.000241005
9.31911e-07 -5.17065e-07 -0.00022936
1.27533e-06 -5.04084e-07 -0.000219812
9.78628e-07 -6.36272e-07 -0.000207411
6.72454e-07 -6.89628e-07 -0.00019692
9.72329e-07 -9.23027e-07 -0.000185621
8.60149e-07 -9.01262e-07 -0.000173336
9.1065e-07 -8.17333e-07 -0.00016085
1.02136e-06 -9.95386e-07 -0.000146421
8.19855e-07 -8.44262e-07 -0.000134048
1.15212e-06 -7.80479e-07 -0.000120325
9.40522e-07 -9.01074e-07 -0.000110902
1.28043e-06 -7.2988e-07 -9.90077e-05
6.57484e-07 -9.76789e-07 -8.77497e-05
1.08856e-06 -1.05732e-06 -7.4956e-05
0 0 0
0 0 0
3.61656e-07 -4.06839e-08 1.89221e-07
-1.41804e-07 1.23543e-07 -4.17205e-07
3.75229e-08 -6.0645e-08 6.3904e-07
-4.36425e-08 -1.34988e-07 -4.19795e-07
2.45408e-08 7.55574e-08 -1.5519e-06
1.53479e-07 -2.8729e-08 -3.7118e-06
-1.26483e-07 1.99328e-07 -6.02115e-06
8.93918e-09 1.01265e-07 -7.90396e-06
1.91708e-08 4.01345e-07 -1.00654e-05
-2.7899e-08 1.07781e-07 -1.14843e-05
1.18186e-07 2.73848e-07 -1.30814e-05
2.72128e-08 9.26289e-08 -1.3394e-05
2.40533e-07 -1.15575e-07 -1.56602e-05
3.69195e-08 -3.43729e-07 -1.81144e-05
1.33805e-07 -8.03635e-08 -2.25524e-05
1.40762e-07 -1.8878e-07 -2.42758e-05
1.73933e-07 -4.14798e-07 -2.69695e-05
2.79479e-08 -5.06612e-07 -2.79499e-05
1.75068e-07 -4.70021e-07 -3.137e-05
3.43216e-07 -2.82864e-07 -3.43412e-05
-2.05535e-07 -4.2296e-07 -3.84217e-05
2.88049e-07 -2.4813e-07 -4.25248e-05
9.05872e-08 -4.25958e-07 -4.51731e-05
4.01221e-07 -2.23667e-07 -4.8263e-05
-9.98565e-08 -3.61271e-07 -4.97541e-05
3.32701e-07 -2.64871e-07 -5.32071e-05
2.22999e-07 -3.74892e-07 -5.41118e-05
3.37026e-07 -3.86722e-07 -5.88993e-05
1.07268e-07 -2.20825e-07 -5.78676e-05
2.41064e-07 -7.10979e-07 -6.30607e-05
2.11565e-07 -3.10311e-07 -6.27169e-05
2.93281e-07 -4.95218e-07 -6.86578e-05
5.27501e-07 -4.48344e-07 -6.78529e-05
7.2962e-07 -4.29981e-07 -7.08606e-05
4.37429e-07 -2.21766e-07 -6.85293e-05
5.9114e-07 -5.48053e-07 -7.12229e-05
3.18362e-07 -6.44731e-07 -7.04065e-05
2.56116e-07 -8.68196e-07 -7.29658e-05
2.95108e-07 -9.50362e-07 -7.13426e-05
2.58221e-07 -9.20386e-07 -7.27483e-05
5.17294e-07 -8.50383e-07 -7.13566e-05
3.13017e-07 -1.25052e-06 -7.14544e-05
7.89466e-07 -5.6348e-07 -6.80439e-05
7.518e-07 -1.15918e-06 -6.58176e-05
8.72446e-07 -7.21777e-07 -6.32985e-05
8.84224e-07 -9.32677e-07 -6.22434e-05
7.95189e-07 -6.49312e-07 -5.99937e-05
5.06714e-07 -7.18665e-07 -6.54984e-05
9.80554e-07 -1.38187e-06 -5.81001e-05
0 0 0
0 0 0
1.49712e-07 3.22652e-08 -7.54981e-07
2.26672e-07 2.67796e-07 -4.19295e-06
1.76505e-07 9.25221e-08 -8.86818e-06
2.46494e-07 1.43795e-07 -1.77139e-05
2.29664e-08 4.52921e-08 -2.55988e-05
2.51362e-07 3.76585e-09 -3.77672e-05
5.44379e-07 1.34748e-07 -4.74104e-05
6.99676e-07 1.01102e-07 -6.30989e-05
7.57253e-07 -1.91974e-08 -7.47928e-05
8.26207e-07 -1.81511e-08 -9.06523e-05
6.86159e-07 -7.32119e-08 -0.000104251
4.69041e-07 -3.95686e-07 -0.000123221
2.62178e-07 -3.35459e-07 -0.000139763
5.12336e-07 -7.54037e-07 -0.000158306
4.63989e-07 -9.26952e-07 -0.000175468
3.33847e-07 -7.12162e-07 -0.000190483
4.71309e-07 -6.05226e-07 -0.000205238
3.57926e-07 -1.25373e-06 -0.000216963
5.3702e-07 -7.00548e-07 -0.000230523
7.08642e-07 -9.74724e-07 -0.000239926
5.19553e-07 -7.97873e-07 -0.000249664
6.66432e-07 -1.04581e-06 -0.000253985
1.18052e-07 -5.59307e-07 -0.000259908
7.36414e-07 -1.23854e-06 -0.000261937
5.93906e-07 -3.73295e-07 -0.000265888
9.73475e-07 -9.55686e-07 -0.000267002
1.03737e-06 -6.215e-07 -0.000266602
1.0273e-06 -6.97056e-07 -0.000264259
1.45427e-06 -5.11085e-07 -0.000261463
1.34991e-06 -5.34994e-07 -0.000259818
1.14619e-06 -5.20997e-07 -0.000254941
1.35174e-06 -5.33028e-07 -0.000248808
9.51223e-07 -6.52168e-07 -0.000240008
1.48804e-06 -2.24514e-07 -0.000229642
1.50069e-06 -7.48609e-07 -0.000217952
1.50171e-06 -7.68743e-07 -0.00020655
1.30087e-06 -7.86494e-07 -0.000195221
1.20973e-06 -9.56328e-07 -0.000183389
1.29448e-06 -6.7809e-07 -0.000172105
1.28909e-06 -8.56118e-07 -0.000157629
1.21841e-06 -9.70372e-07 -0.000145171
1.33411e-06 -1.00835e-06 -0.000129345
1.09186e-06 -8.83255e-07 -0.000118455
1.33475e-06 -3.9511e-07 -0.00010691
8.38966e-07 -9.42101e-07 -9.83821e-05
1.23432e-06 -8.26204e-07 -8.53807e-05
6.53062e-07 -9.4286e-07 -7.518e-05
9.64517e-07 -1.26322e-06 -6.38349e-05
0 0 0
0 0 0
-1.1815e-07 3.31688e-07 -4.64415e-07
4.17182e-08 4.02868e-07 5.20913e-07
-1.75729e-07 1.2328e-08 -2.66971e-07
-1.50881e-07 1.26341e-07 3.60915e-07
2.99066e-07 9.38157e-08 -1.60064e-06
-2.26223e-07 -4.05159e-09 -3.34217e-06
1.33504e-07 1.64075e-07 -5.46352e-06
9.53147e-08 1.50633e-09 -6.90768e-06
1.60562e-08 2.63847e-07 -8.58451e-06
-1.8548e-07 2.33521e-07 -1.00599e-05
-2.46469e-08 -9.10499e-08 -1.1074e-05
2.34004e-07 -8.07086e-09 -1.20618e-05
3.80185e-08 -3.58771e-07 -1.39577e-05
6.3914e-08 -3.725e-07 -1.73527e-05
3.76477e-07 -2.73464e-07 -1.96822e-05
-3.08222e-08 -2.35758e-07 -2.20161e-05
3.32618e-07 -4.54991e-07 -2.25782e-05
2.29532e-07 -6.56285e-07 -2.47115e-05
2.32006e-07 -6.13149e-07 -2.72781e-05
1.58456e-08 -6.18164e-07 -3.13385e-05
3.34519e-07 -4.57674e-07 -3.54433e-05
4.5598e-08 -4.62961e-07 -3.77676e-05
5.43896e-08 -4.99622e-07 -4.20335e-05
8.1314e-08 -4.70726e-07 -4.28905e-05
5.09762e-07 -6.08556e-07 -4.68404e-05
2.50551e-07 -5.07381e-07 -4.67687e-05
3.21971e-07 -5.0942e-07 -5.1074e-05
2.09816e-07 -3.09937e-07 -4.96051e-05
7.9874e-08 -6.82917e-07 -5.46672e-05
4.03331e-07 -4.61937e-07 -5.28739e-05
3.47337e-07 -7.47893e-07 -5.8927e-05
7.12947e-07 -5.4974e-07 -5.82614e-05
2.28576e-07 -1.04131e-06 -6.39589e-05
3.87348e-07 -9.00715e-07 -6.1925e-05
3.14461e-07 -9.79105e-07 -6.4536e-05
5.22013e-07 -9.25358e-07 -6.23209e-05
3.71274e-07 -1.04035e-06 -6.54437e-05
4.32515e-07 -1.00712e-06 -6.43509e-05
6.01456e-07 -1.15987e-06 -6.66704e-05
3.41269e-07 -9.92742e-07 -6.49972e-05
7.01051e-07 -1.17556e-06 -6.61346e-05
3.48747e-07 -7.13362e-07 -6.31368e-05
1.02507e-06 -1.2752e-06 -6.17116e-05
8.4952e-07 -3.21281e-07 -5.70407e-05
9.09514e-07 -1.08547e-06 -5.6474e-05
8.74772e-07 -6.53372e-07 -5.3716e-05
1.06688e-06 -1.19495e-06 -5.39447e-05
6.04237e-07 -1.02185e-06 -5.09954e-05
5.4077e-07 -6.06434e-07 -5.67684e-05
1.13628e-06 -1.20919e-06 -4.9547e-05
0 0 0
0 0 0
2.55221e-07 -5.49447e-08 -8.4121e-07
2.18685e-08 1.40885e-07 -3.21122e-06
2.25604e-07 -1.49719e-08 -9.73895e-06
1.26488e-07 3.86881e-07 -1.78553e-05
1.78446e-07 1.72517e-07 -2.80533e-05
-7.16237e-08 2.11054e-07 -3.64548e-05
2.43846e-07 -1.61937e-07 -4.90734e-05
5.772e-07 3.61272e-07 -6.10974e-05
7.96784e-07 -1.28814e-07 -7.82531e-05
8.09522e-07 -2.05204e-08 -9.23273e-05
5.28754e-07 -2.36789e-07 -0.000110412
4.55676e-07 -1.94916e-07 -0.000126465
6.11447e-07 -2.90625e-07 -0.000145981
2.22296e-07 -5.82175e-07 -0.000163528
2.31777e-07 -5.74382e-07 -0.000180777
2.42764e-07 -8.23021e-07 -0.000197972
3.18492e-07 -9.715e-07 -0.000210553
-3.22103e-08 -7.3262e-07 -0.000225841
3.98e-07 -9.69204e-07 -0.000235422
3.34717e-07 -9.02894e-07 -0.000246326
5.27971e-07 -1.07726e-06 -0.000251839
3.98922e-07 -9.94006e-07 -0.00025903
8.08792e-07 -9.82138e-07 -0.000261156
5.92193e-07 -8.71875e-07 -0.000266228
7.22863e-07 -1.04803e-06 -0.000267649
6.42319e-07 -7.57659e-07 -0.000270266
7.92455e-07 -8.68879e-07 -0.00026898
8.57342e-07 -3.71221e-07 -0.000267108
9.49341e-07 -6.87581e-07 -0.000264886
1.02604e-06 -5.56901e-07 -0.000260755
8.96191e-07 -7.00247e-07 -0.000256255
9.28015e-07 -6.26684e-07 -0.000248672
1.0824e-06 -4.48626e-07 -0.000240337
7.19173e-07 -6.59386e-07 -0.000229306
9.52849e-07 -6.48231e-07 -0.000218306
9.06865e-07 -7.12873e-07 -0.000206898
8.7924e-07 -6.63224e-07 -0.000195643
8.69125e-07 -4.68917e-07 -0.000184898
9.98646e-07 -7.79595e-07 -0.000171086
8.86255e-07 -7.39635e-07 -0.000158969
1.01234e-06 -9.18375e-07 -0.000142357
6.3814e-07 -8.33716e-07 -0.000130118
8.98772e-07 -7.28228e-07 -0.000114654
7.69762e-07 -8.36832e-07 -0.00010637
1.16389e-06 -7.85514e-07 -9.43026e-05
5.44278e-07 -7.0499e-07 -8.5881e-05
1.00814e-06 -1.01693e-06 -7.271e-05
4.28214e-07 -7.24702e-07 -6.35524e-05
1.05147e-06 -1.10202e-06 -5.32533e-05
0 0 0
0 0 0
2.0868e-07 1.2337e-07 2.52288e-07
1.40892e-07 -7.91979e-08 -3.20535e-07
7.94671e-08 -1.20776e-07 1.23443e-06
2.92543e-09 -1.26004e-07 -3.02105e-07
3.9168e-09 1.60083e-09 -5.78887e-07
2.27183e-07 2.848e-07 -3.45888e-06
1.02112e-08 8.91529e-08 -4.49737e-06
-5.54697e-08 3.58096e-07 -6.60525e-06
8.23944e-08 8.84507e-08 -6.82784e-06
-1.85796e-09 4.31588e-08 -8.85155e-06
2.85438e-07 1.12081e-07 -9.41969e-06
-9.19853e-08 -2.57615e-07 -1.1705e-05
2.38326e-07 -2.02767e-08 -1.34335e-05
-1.15481e-07 -1.96521e-07 -1.58454e-05
1.48623e-07 -2.86e-07 -1.77339e-05
1.79202e-08 -5.43836e-07 -1.79249e-05
6.42859e-08 -5.15413e-07 -1.90689e-05
6.00584e-08 -6.79587e-07 -2.02518e-05
1.42121e-07 -5.97147e-07 -2.42849e-05
2.93415e-07 -6.33223e-07 -2.8223e-05
-5.06464e-09 -3.59574e-07 -3.21311e-05
4.41929e-07 -5.24051e-07 -3.61013e-05
4.93969e-08 -2.99046e-07 -3.7986e-05
5.20794e-07 -2.21085e-07 -4.13695e-05
1.45337e-07 -3.76742e-07 -4.21053e-05
4.50544e-07 -1.32344e-07 -4.49881e-05
1.95651e-07 -1.70549e-07 -4.35728e-05
3.99741e-07 -4.71073e-07 -4.69109e-05
2.44233e-07 -1.32281e-07 -4.47491e-05
4.90115e-07 -6.47295e-07 -5.02665e-05
3.93148e-07 -2.55014e-07 -4.95667e-05
2.21304e-07 -7.80458e-07 -5.59271e-05
5.1985e-07 -4.76646e-07 -5.47872e-05
2.82468e-07 -5.21293e-07 -5.88159e-05
3.56529e-07 -5.60408e-07 -5.57912e-05
4.14653e-07 -6.56567e-07 -5.82451e-05
3.61762e-07 -7.31126e-07 -5.55694e-05
4.17575e-07 -9.36601e-07 -5.87275e-05
3.95784e-07 -8.93751e-07 -5.72012e-05
5.44447e-07 -1.12677e-06 -6.04554e-05
4.88473e-07 -7.56437e-07 -5.8101e-05
6.55763e-07 -1.34808e-06 -5.87609e-05
9.51842e-07 -6.51395e-07 -5.43948e-05
6.92935e-07 -9.32411e-07 -5.32725e-05
8.08031e-07 -6.62647e-07 -4.93311e-05
6.4087e-07 -9.92191e-07 -4.87482e-05
7.40668e-07 -8.7756e-07 -4.57613e-05
1.00737e-06 -9.75893e-07 -4.56876e-05
4.20926e-07 -7.36748e-07 -4.26819e-05
4.70953e-07 -1.02886e-06 -4.55885e-05
8.77239e-07 -1.00799e-06 -3.85894e-05
0 0 0
0 0 0
2.37186e-07 7.52341e-08 -5.02593e-07
1.5826e-07 1.39971e-07 -3.51645e-06
1.52555e-07 8.12437e-08 -9.61323e-06
2.85735e-07 1.27065e-07 -1.84356e-05
3.66686e-07 2.6083e-07 -2.73128e-05
5.10226e-07 9.9538e-09 -3.84691e-05
3.91248e-07 1.33511e-07 -4.96556e-05
7.81421e-07 7.37639e-08 -6.49709e-05
7.89051e-07 3.69759e-08 -7.99436e-05
9.10532e-07 -6.35524e-08 -9.64024e-05
4.35656e-07 1.46741e-07 -0.000113175
5.27623e-07 -1.61158e-07 -0.000131919
2.65123e-07 -1.14194e-07 -0.000150487
4.81045e-07 -3.58453e-07 -0.000168226
4.13311e-07 -6.46357e-07 -0.000187673
6.75459e-07 -7.6276e-07 -0.000202702
1.45939e-07 -6.11238e-07 -0.000219611
4.94933e-07 -9.57643e-07 -0.000230102
2.56048e-07 -4.80906e-07 -0.000243151
6.02171e-07 -1.10861e-06 -0.000249552
4.40385e-07 -7.10483e-07 -0.000259298
5.07829e-07 -1.37499e-06 -0.000262669
3.05194e-07 -6.01973e-07 -0.000268978
6.8911e-07 -1.08577e-06 -0.000269936
9.19448e-07 -6.64683e-07 -0.000273633
1.14158e-06 -9.08146e-07 -0.000273779
1.07272e-06 -7.92222e-07 -0.000273551
1.40272e-06 -6.9289e-07 -0.000271079
8.62449e-07 -5.69481e-07 -0.000267098
1.4213e-06 -8.13352e-07 -0.000263543
1.06943e-06 -2.76141e-07 -0.00025674
1.49669e-06 -6.01027e-07 -0.000250176
9.59972e-07 -2.66733e-07 -0.000241223
1.56482e-06 -2.36949e-07 -0.000231305
9.23808e-07 -6.8677e-07 -0.000218776
1.3743e-06 -6.65677e-07 -0.000207092
1.10368e-06 -6.34585e-07 -0.000196155
1.46704e-06 -7.94852e-07 -0.000183912
1.15484e-06 -6.75429e-07 -0.000172838
1.28704e-06 -9.04221e-07 -0.00015693
9.96974e-07 -7.2971e-07 -0.00014438
1.38702e-06 -7.72407e-07 -0.000126544
1.04022e-06 -8.38326e-07 -0.000115603
1.44427e-06 -7.61216e-07 -0.000101467
9.6343e-07 -9.05991e-07 -9.37361e-05
1.10203e-06 -7.88759e-07 -8.03827e-05
8.23936e-07 -7.13577e-07 -7.23671e-05
9.0849e-07 -1.01417e-06 -5.94142e-05
7.78214e-07 -8.28932e-07 -5.16411e-05
1.02909e-06 -1.38207e-06 -4.08463e-05
0 0 0
0 0 0
6.81079e-08 5.77762e-08 -3.09001e-07
9.32241e-08 2.58181e-07 5.90456e-07
2.11162e-07 6.33967e-08 -6.43841e-07
8.3949e-08 1.86186e-07 1.62734e-08
2.29848e-07 3.78282e-08 -1.90109e-06
1.81945e-07 -2.02021e-07 -2.13943e-06
3.56595e-07 1.70446e-07 -4.26484e-06
-5.27403e-08 -4.08923e-08 -4.85222e-06
3.27462e-07 3.88538e-08 -6.92494e-06
-1.81306e-07 6.68472e-08 -8.19843e-06
2.18852e-07 -2.25802e-07 -1.02788e-05
-1.36954e-09 -1.97711e-07 -1.16378e-05
2.8561e-08 -2.36899e-07 -1.32596e-05
-1.03605e-07 -2.31345e-07 -1.4558e-05
2.52608e-07 -3.94882e-07 -1.42978e-05
-1.7684e-07 -3.77134e-07 -1.51828e-05
2.07261e-07 -4.87691e-07 -1.52175e-05
-2.7679e-07 -3.56673e-07 -1.80487e-05
1.74995e-07 -6.341e-07 -2.09487e-05
5.9651e-08 -5.66908e-07 -2.58481e-05
3.36858e-07 -7.48935e-07 -3.04675e-05
1.06007e-07 -4.79795e-07 -3.30409e-05
4.39313e-07 -5.75906e-07 -3.67708e-05
2.60822e-07 -5.05577e-07 -3.68942e-05
4.8216e-07 -5.13064e-07 -4.01271e-05
1.96638e-07 -4.47988e-07 -3.87264e-05
4.14073e-07 -4.93944e-07 -4.15604e-05
3.61633e-07 -1.8259e-07 -3.8832e-05
4e-07 -4.57029e-07 -4.4056e-05
7.52692e-07 -1.84027e-08 -4.29085e-05
3.25276e-07 -6.04653e-07 -4.90871e-05
7.55592e-07 -2.29013e-07 -4.74344e-05
3.25575e-07 -9.94414e-07 -5.2142e-05
4.48885e-07 -7.15066e-07 -4.97297e-05
3.36579e-07 -8.85192e-07 -5.21426e-05
2.69815e-08 -9.60679e-07 -4.86591e-05
4.59307e-07 -1.16734e-06 -4.99315e-05
3.58991e-07 -9.20125e-07 -4.80939e-05
5.65186e-07 -9.88844e-07 -5.19377e-05
3.61047e-07 -8.28141e-07 -5.15155e-05
6.86739e-07 -1.22757e-06 -5.40608e-05
2.99143e-07 -7.95341e-07 -5.09465e-05
9.02715e-07 -1.15036e-06 -5.06301e-05
7.58063e-07 -8.3762e-07 -4.58425e-05
9.09819e-07 -1.021e-06 -4.53988e-05
4.38889e-07 -9.94329e-07 -4.09712e-05
8.32188e-07 -1.23068e-06 -4.15794e-05
3.34009e-07 -1.3272e-06 -3.7913e-05
9.50161e-07 -1.37199e-06 -3.69927e-05
4.01185e-07 -1.28557e-06 -3.12464e-05
4.63096e-07 -8.09897e-07 -3.38129e-05
7.34749e-07 -1.53702e-06 -2.6352e-05
0 0 0
0 0 0
-4.05832e-08 5.73152e-08 -5.17433e-07
2.04949e-07 1.04115e-07 -3.16475e-06
1.72116e-07 9.79916e-08 -9.48196e-06
5.99609e-08 4.75583e-08 -1.8586e-05
2.8633e-07 1.6673e-07 -2.8948e-05
5.23362e-07 1.08584e-07 -4.05704e-05
4.17173e-07 -2.47257e-07 -5.51142e-05
5.56743e-07 1.12306e-07 -6.98683e-05
9.90037e-07 -3.17469e-07 -8.67861e-05
5.86705e-07 2.39352e-07 -0.000102139
7.09182e-07 1.4745e-08 -0.000119938
4.84365e-07 -1.16496e-07 -0.000138486
4.24084e-07 -3.79647e-07 -0.000158208
2.20555e-07 -5.17031e-07 -0.000177165
5.91529e-07 -7.54218e-07 -0.000193929
2.11724e-07 -5.93126e-07 -0.000212531
4.26122e-07 -9.9751e-07 -0.000226404
5.55969e-07 -8.70102e-07 -0.000243372
3.19501e-07 -1.07442e-06 -0.00025138
4.43751e-07 -9.34663e-07 -0.000261597
3.65364e-07 -1.28121e-06 -0.000266279
1.66503e-07 -9.30879e-07 -0.000274108
6.90083e-07 -1.19929e-06 -0.0002758
5.46602e-07 -5.81072e-07 -0.00028
9.80998e-07 -1.22323e-06 -0.000279878
4.74153e-07 -7.76034e-07 -0.000281077
1.12037e-06 -6.56248e-07 -0.000279352
4.3345e-07 -5.13243e-07 -0.000276879
1.13619e-06 -6.70404e-07 -0.000273309
6.80183e-07 -5.11739e-07 -0.000266916
1.42225e-06 -3.99932e-07 -0.000260538
6.96668e-07 -5.46036e-07 -0.000252155
1.26585e-06 -3.28249e-07 -0.000244243
6.71509e-07 -3.91455e-07 -0.000232853
1.50814e-06 -5.93103e-07 -0.000220089
7.42466e-07 -6.59381e-07 -0.000206601
1.20235e-06 -8.17774e-07 -0.000194135
1.05652e-06 -7.23434e-07 -0.000183524
1.06695e-06 -8.46507e-07 -0.000169782
6.62791e-07 -6.21126e-07 -0.000158419
1.0063e-06 -9.18003e-07 -0.000140592
8.30736e-07 -8.42133e-07 -0.000128688
1.17274e-06 -7.60488e-07 -0.000110946
1.02447e-06 -9.7673e-07 -0.000101873
1.18271e-06 -1.01391e-06 -8.67303e-05
8.40727e-07 -6.17137e-07 -7.90467e-05
1.05617e-06 -1.19347e-06 -6.44352e-05
9.76772e-07 -7.47153e-07 -5.73434e-05
9.69847e-07 -1.05904e-06 -4.50229e-05
9.33209e-07 -9.89076e-07 -3.77313e-05
9.2379e-07 -1.46422e-06 -2.83396e-05
0 0 0
0 0 0
-5.99391e-08 1.30667e-07 3.06955e-07
1.38344e-07 7.74888e-08 -5.88308e-07
3.13491e-08 2.26978e-07 3.33235e-07
2.858e-07 3.53425e-07 -1.82374e-06
1.70852e-07 -1.79591e-07 -7.09574e-07
2.47677e-07 2.53102e-07 -2.72172e-06
1.20308e-07 1.2191e-07 -2.6047e-06
1.11617e-07 4.10033e-07 -5.88849e-06
1.0885e-07 2.08406e-08 -6.30916e-06
1.14353e-07 1.97479e-07 -9.79615e-06
1.76711e-07 -1.48078e-07 -9.91516e-06
-3.29861e-07 -3.53673e-07 -1.29427e-05
2.3059e-07 -3.28671e-08 -1.25596e-05
-1.11078e-07 -3.0818e-07 -1.26364e-05
1.5323e-07 -2.86245e-07 -1.1788e-05
-4.32702e-08 -6.80691e-07 -1.1797e-05
-6.58658e-08 -7.14166e-07 -1.3855e-05
1.68092e-07 -8.48652e-07 -1.57448e-05
-4.46071e-08 -6.3709e-07 -1.99228e-05
-8.335e-08 -7.54504e-07 -2.35324e-05
3.39446e-07 -3.53244e-07 -2.79045e-05
2.22575e-07 -6.69453e-07 -3.18961e-05
2.39472e-07 -1.85299e-07 -3.34694e-05
4.03676e-07 -3.06218e-07 -3.53654e-05
3.51953e-07 -8.67737e-08 -3.48988e-05
6.76202e-07 -3.41704e-07 -3.67519e-05
1.81834e-07 -2.11949e-07 -3.50449e-05
7.60434e-07 -2.69474e-07 -3.82536e-05
2.06827e-07 -3.81608e-07 -3.72062e-05
5.1545e-07 -5.3543e-07 -4.2966e-05
5.82639e-07 -2.83243e-07 -4.24755e-05
2.35236e-07 -6.8824e-07 -4.69087e-05
5.22568e-07 -5.96597e-08 -4.48731e-05
1.15955e-07 -5.88736e-07 -4.79302e-05
2.35876e-07 -2.85104e-07 -4.52126e-05
2.76335e-07 -8.67679e-07 -4.63875e-05
5.93808e-07 -6.58868e-07 -4.2186e-05
1.64235e-07 -1.05756e-06 -4.37459e-05
5.17528e-07 -8.21225e-07 -4.26174e-05
5.17838e-07 -1.07216e-06 -4.69774e-05
4.20455e-07 -9.3964e-07 -4.56049e-05
3.99524e-07 -8.82442e-07 -4.73091e-05
5.54598e-07 -6.54846e-07 -4.38911e-05
1.87937e-07 -1.04173e-06 -4.4125e-05
8.67258e-07 -6.11622e-07 -3.98699e-05
4.94891e-07 -1.03344e-06 -3.94507e-05
7.47964e-07 -7.48539e-07 -3.53926e-05
4.92111e-07 -7.4449e-07 -3.56239e-05
3.52827e-07 -7.08108e-07 -3.05761e-05
7.52011e-07 -9.2961e-07 -2.70221e-05
4.02934e-07 -9.97581e-07 -2.09509e-05
5.99835e-07 -1.09123e-06 -2.24155e-05
6.42587e-07 -1.12739e-06 -1.70147e-05
0 0 0
0 0 0
2.64406e-07 -9.76184e-08 -4.04896e-07
3.42432e-07 8.36772e-08 -3.68321e-06
4.69604e-07 2.42853e-07 -1.1116e-05
4.26386e-07 -2.31718e-08 -2.05647e-05
2.71275e-07 -4.26095e-08 -3.15285e-05
6.73918e-07 -2.18003e-08 -4.50569e-05
3.52442e-07 -3.97913e-08 -6.01222e-05
5.87965e-07 -5.29409e-07 -7.72686e-05
4.41368e-07 5.8161e-08 -9.38095e-05
8.575e-07 -3.19454e-07 -0.00010972
3.69954e-07 -1.39057e-07 -0.000127405
5.28924e-07 -7.11136e-08 -0.000146826
1.10536e-07 -2.74424e-07 -0.000166975
4.05797e-07 -8.52414e-07 -0.000184755
1.25803e-07 -9.11679e-07 -0.000204611
3.22156e-07 -9.04158e-07 -0.000220632
2.56368e-07 -7.72322e-07 -0.00024071
-1.71311e-07 -1.41923e-06 -0.000254512
1.66388e-07 -1.1008e-06 -0.000267128
6.65195e-07 -1.61208e-06 -0.000272289
2.94e-07 -6.11957e-07 -0.000279477
6.64831e-07 -1.59579e-06 -0.000281884
4.46067e-07 -8.08615e-07 -0.00028573
9.40777e-07 -1.46643e-06 -0.00028546
8.53447e-07 -7.92048e-07 -0.000286461
1.58945e-06 -1.01037e-06 -0.000286413
8.63241e-07 -8.02419e-07 -0.000285042
1.56501e-06 -6.23414e-07 -0.000283324
6.58531e-07 -5.49872e-07 -0.000276982
1.51145e-06 -8.3253e-07 -0.000272409
9.1888e-07 -4.46033e-07 -0.000262231
1.40639e-06 -7.61136e-07 -0.000255407
8.25392e-07 -7.59783e-07 -0.000245042
1.37965e-06 -4.72975e-07 -0.000235917
9.693e-07 -8.04799e-07 -0.000220277
1.55386e-06 -6.98801e-07 -0.000206922
1.14726e-06 -6.63704e-07 -0.000192413
1.46382e-06 -7.3492e-07 -0.000179615
1.0271e-06 -8.42966e-07 -0.00016753
1.52254e-06 -9.65661e-07 -0.000152726
1.1429e-06 -1.06026e-06 -0.000139678
1.18321e-06 -7.79864e-07 -0.000122021
9.39613e-07 -1.02254e-06 -0.000109812
1.24125e-06 -8.99249e-07 -9.41518e-05
9.15305e-07 -9.89277e-07 -8.44006e-05
1.00434e-06 -1.06842e-06 -6.95743e-05
7.51825e-07 -9.42225e-07 -6.07779e-05
1.04663e-06 -1.36943e-06 -4.89218e-05
1.00389e-06 -8.2475e-07 -4.22199e-05
8.45755e-07 -1.32823e-06 -3.24569e-05
1.06899e-06 -1.07567e-06 -2.58592e-05
6.52876e-07 -1.39698e-06 -1.90056e-05
0 0 0
0 0 0
1.60364e-07 1.24359e-08 -3.9482e-07
3.31376e-08 9.52712e-08 -9.59777e-08
1.91792e-07 1.1846e-07 -2.20283e-06
2.17144e-07 4.3386e-08 -1.53188e-06
1.27558e-07 7.0676e-08 -3.45621e-06
3.33006e-07 1.42636e-08 -1.72849e-06
1.69013e-07 1.35248e-07 -4.38321e-06
-3.67014e-09 -1.35221e-07 -4.63143e-06
1.25933e-07 -7.86008e-08 -8.46595e-06
-2.27355e-07 -3.12806e-07 -9.02007e-06
3.13923e-07 -4.8827e-08 -1.14862e-05
-1.18721e-07 -1.85795e-07 -1.10787e-05
1.64763e-07 -4.15352e-07 -1.16522e-05
-1.08676e-07 1.80916e-07 -1.06415e-05
8.33351e-08 -3.22964e-07 -9.76795e-06
-1.08757e-07 -1.45246e-07 -1.15235e-05
4.58671e-07 -4.93964e-07 -1.34121e-05
-1.19753e-07 -4.23908e-07 -1.73754e-05
5.59812e-07 -4.7468e-07 -1.91443e-05
-1.8366e-08 -5.02713e-07 -2.27145e-05
2.197e-07 -7.39427e-07 -2.61316e-05
-1.90782e-07 -4.15267e-07 -2.89089e-05
4.61523e-07 -5.19177e-07 -3.19286e-05
1.80773e-07 -2.99465e-07 -3.13983e-05
5.20116e-07 -6.97934e-07 -3.29684e-05
3.68144e-07 -3.38332e-07 -3.15245e-05
3.57941e-07 -5.98551e-07 -3.4484e-05
5.84919e-07 -2.04207e-07 -3.34607e-05
5.1711e-07 -1.92363e-07 -3.87931e-05
5.94811e-07 -1.38811e-07 -3.8165e-05
4.26839e-07 -4.84061e-07 -4.27503e-05
4.70503e-07 -4.46228e-07 -4.0792e-05
4.8646e-07 -8.67709e-07 -4.43417e-05
4.78005e-07 -6.18827e-07 -4.2852e-05
5.81765e-07 -1.12018e-06 -4.54418e-05
2.40088e-07 -7.24841e-07 -4.22793e-05
7.08884e-07 -9.30762e-07 -4.18585e-05
4.10165e-07 -8.87281e-07 -3.86135e-05
7.92739e-07 -9.69098e-07 -4.07253e-05
2.79265e-07 -7.15745e-07 -3.97568e-05
5.53866e-07 -1.05213e-06 -4.24058e-05
4.16337e-07 -7.44212e-07 -4.0315e-05
4.90849e-07 -1.01509e-06 -4.15064e-05
2.97363e-07 -9.43994e-07 -3.80501e-05
8.30972e-07 -1.04629e-06 -3.86614e-05
6.26457e-07 -7.10979e-07 -3.45001e-05
8.66191e-07 -1.24487e-06 -3.52098e-05
5.48949e-07 -1.0458e-06 -3.00768e-05
6.90449e-07 -1.4259e-06 -2.83338e-05
2.57073e-07 -1.24077e-06 -2.15246e-05
5.11872e-07 -1.41804e-06 -1.80579e-05
2.58306e-07 -1.13689e-06 -1.37697e-05
4.02087e-07 -1.29386e-06 -1.40668e-05
6.11458e-07 -1.40726e-06 -1.15491e-05
0 0 0
0 0 0
5.42664e-08 8.71535e-08 -4.52593e-07
1.45818e-07 1.62722e-07 -4.03002e-06
1.28626e-07 -3.62523e-08 -1.24342e-05
3.54514e-07 2.55097e-07 -2.33705e-05
3.80932e-07 -1.50775e-07 -3.48063e-05
5.29533e-07 1.21201e-07 -4.75302e-05
5.25235e-07 -1.2557e-07 -6.37744e-05
5.16535e-07 3.41905e-07 -8.11703e-05
3.13673e-07 -4.53787e-07 -0.000100117
8.40897e-07 -8.55741e-08 -0.000116774
6.9529e-07 -3.74668e-07 -0.000134381
5.61112e-07 -1.7269e-07 -0.000153346
6.1653e-07 -6.58418e-07 -0.000174155
3.72374e-07 -6.58198e-07 -0.000194258
4.32449e-07 -9.27143e-07 -0.000212808
2.34377e-07 -1.02448e-06 -0.000232804
3.91913e-07 -1.22721e-06 -0.000252364
1.61044e-06 -1.00073e-06 -0.000272237
6.00326e-07 -1.99155e-06 -0.000281158
-1.25326e-07 -1.03157e-06 -0.000285738
5.21825e-07 -1.46666e-06 -0.000288443
1.30563e-07 -7.58067e-07 -0.000291374
6.91814e-07 -1.44249e-06 -0.000292311
5.46612e-07 -7.22496e-07 -0.000292664
8.46525e-07 -1.1764e-06 -0.000293236
7.27222e-07 -6.94971e-07 -0.000291991
8.66465e-07 -1.04368e-06 -0.000292376
6.4365e-07 -5.85459e-07 -0.000287613
1.01901e-06 -9.86116e-07 -0.000284784
7.32698e-07 -6.02448e-07 -0.000274757
1.20749e-06 -9.37995e-07 -0.0002684
7.68565e-07 -5.31563e-07 -0.000256304
7.81161e-07 -8.71806e-07 -0.000249376
7.95952e-07 -6.10866e-07 -0.000234912
1.69215e-06 -5.47003e-07 -0.000223126
8.60918e-07 -8.24029e-07 -0.000205573
1.36342e-06 -8.75737e-07 -0.000192739
1.03636e-06 -7.8662e-07 -0.000177104
1.28739e-06 -8.1419e-07 -0.000163377
9.23844e-07 -1.16079e-06 -0.000149112
1.30198e-06 -8.92443e-07 -0.000132874
9.15443e-07 -1.24014e-06 -0.000119444
1.2217e-06 -8.91401e-07 -0.000102651
9.22335e-07 -1.15428e-06 -9.15058e-05
1.38951e-06 -1.17841e-06 -7.61604e-05
1.03343e-06 -1.07993e-06 -6.67198e-05
1.01685e-06 -1.35368e-06 -5.17164e-05
1.07817e-06 -8.18915e-07 -4.55723e-05
1.17264e-06 -1.38548e-06 -3.47141e-05
1.01761e-06 -1.05084e-06 -2.91269e-05
1.20828e-06 -1.47877e-06 -2.09225e-05
8.31228e-07 -1.24323e-06 -1.68044e-05
6.07491e-07 -1.44181e-06 -1.14501e-05
0 0 0
0 0 0
1.80079e-08 -1.61764e-07 3.84308e-09
2.14809e-07 -1.16333e-07 -1.20203e-06
-1.02711e-07 1.30976e-07 -8.43423e-07
3.60426e-07 1.33238e-07 -3.3685e-06
1.55185e-07 3.94037e-07 -2.38583e-06
2.62874e-07 3.29216e-07 -4.66072e-06
1.19534e-07 3.18135e-07 -4.26666e-06
1.93283e-07 1.74534e-07 -7.75332e-06
-1.18891e-07 1.93373e-07 -7.39279e-06
-1.2639e-08 1.60333e-07 -1.01347e-05
2.55943e-07 2.59099e-08 -8.49897e-06
-1.17397e-07 -1.77091e-07 -1.05962e-05
2.26492e-07 -3.78397e-07 -9.05145e-06
-4.46016e-08 -3.76007e-07 -9.07128e-06
-7.77157e-09 -4.00058e-07 -9.0913e-06
3.87441e-07 -7.84114e-07 -1.10774e-05
4.33509e-09 -6.65354e-07 -1.50726e-05
1.27174e-07 -8.25306e-07 -1.70703e-05
1.75938e-07 -3.45824e-07 -1.99985e-05
2.84583e-08 -6.68902e-07 -2.10391e-05
2.91991e-07 -5.98788e-07 -2.39781e-05
1.43752e-07 -4.68519e-07 -2.71735e-05
3.84679e-07 -5.03295e-07 -2.90906e-05
3.52966e-07 -3.97744e-07 -3.06828e-05
3.44047e-07 -1.70178e-07 -2.98067e-05
6.02978e-07 -4.58635e-07 -3.18471e-05
3.56502e-07 -1.56345e-07 -3.11562e-05
6.33943e-07 -2.92919e-07 -3.53805e-05
3.06561e-07 -1.78378e-07 -3.44629e-05
4.32399e-07 -2.83956e-07 -3.85673e-05
6.17097e-07 -2.00048e-07 -3.68751e-05
3.9108e-07 -6.78685e-07 -4.02779e-05
5.53519e-07 -1.34528e-07 -3.91292e-05
4.0394e-07 -7.94139e-07 -4.27355e-05
3.68231e-07 -6.45696e-07 -4.14228e-05
4.13668e-07 -8.64733e-07 -4.29908e-05
6.60254e-07 -7.0819e-07 -3.8987e-05
3.39605e-07 -8.19287e-07 -3.89413e-05
6.99843e-07 -6.47879e-07 -3.55684e-05
2.7139e-07 -8.95552e-07 -3.74678e-05
6.63236e-07 -6.71298e-07 -3.50206e-05
3.9061e-07 -7.76816e-07 -3.72908e-05
7.57647e-07 -7.19895e-07 -3.52014e-05
5.20832e-07 -8.31941e-07 -3.72184e-05
6.72744e-07 -8.42072e-07 -3.35036e-05
4.02516e-07 -8.71759e-07 -3.41099e-05
6.63657e-07 -5.78195e-07 -2.94099e-05
4.9948e-07 -1.06393e-06 -2.95848e-05
4.69873e-07 -8.15109e-07 -2.29354e-05
7.87866e-07 -1.2201e-06 -2.11471e-05
6.3049e-07 -9.59784e-07 -1.52221e-05
6.44994e-07 -1.14337e-06 -1.35447e-05
5.37941e-07 -1.02832e-06 -9.30324e-06
7.04692e-07 -1.20305e-06 -9.14482e-06
4.31581e-07 -1.49296e-06 -7.98845e-06
0 0 0
0 0 0
2.51163e-08 1.10174e-07 -4.74257e-07
4.80644e-07 1.10101e-07 -5.1647e-06
3.8e-07 1.27055e-07 -1.43133e-05
1.59092e-07 -7.00209e-08 -2.55093e-05
5.15655e-07 2.82326e-07 -3.6166e-05
3.56881e-07 1.47845e-07 -4.9722e-05
5.79336e-07 2.44201e-07 -6.50439e-05
5.20496e-07 -2.02468e-07 -8.48927e-05
4.2871e-07 1.7721e-07 -0.000103832
5.37943e-07 -4.11587e-07 -0.00012212
2.20255e-07 -1.8354e-07 -0.000139439
6.46827e-07 -4.9888e-07 -0.000159956
6.37614e-07 -3.17257e-07 -0.000180492
6.81957e-07 -9.53335e-07 -0.000202527
4.9454e-07 -6.58816e-07 -0.000223533
6.13494e-07 -1.22316e-06 -0.000242669
1.93942e-08 -1.55088e-06 -0.000265037
-3.52239e-07 -1.35989e-06 -0.000283911
6.67283e-08 -1.22739e-06 -0.000290611
4.60008e-07 -1.35857e-06 -0.000292798
2.65934e-07 -1.24407e-06 -0.000296236
6.85051e-07 -1.32109e-06 -0.000297899
6.63436e-07 -1.01909e-06 -0.000299422
8.21507e-07 -1.46659e-06 -0.000299625
1.17406e-06 -7.53115e-07 -0.000299631
1.09722e-06 -1.24201e-06 -0.000300283
8.19779e-07 -7.49709e-07 -0.000297699
1.35526e-06 -1.07724e-06 -0.00029476
8.95165e-07 -9.64093e-07 -0.0002857
1.27609e-06 -1.12363e-06 -0.000280108
1.1245e-06 -9.41343e-07 -0.000268575
1.33035e-06 -7.52946e-07 -0.0002612
1.11468e-06 -8.04962e-07 -0.00024893
1.52628e-06 -6.92048e-07 -0.000238896
1.191e-06 -8.92783e-07 -0.000221401
2.00085e-06 -7.77524e-07 -0.000208429
1.13325e-06 -1.05046e-06 -0.000191313
1.38297e-06 -9.67624e-07 -0.00017688
1.03144e-06 -1.09109e-06 -0.000159778
1.35011e-06 -1.06277e-06 -0.0001438
9.0037e-07 -1.60513e-06 -0.000128083
1.24455e-06 -9.96455e-07 -0.000111945
5.91566e-07 -1.1708e-06 -9.87945e-05
8.84117e-07 -1.30435e-06 -8.42778e-05
6.12234e-07 -1.3899e-06 -7.39195e-05
8.75189e-07 -1.0893e-06 -5.92332e-05
8.14448e-07 -1.25977e-06 -4.98777e-05
9.73167e-07 -1.41554e-06 -3.85588e-05
1.00084e-06 -1.05745e-06 -3.21433e-05
9.69892e-07 -1.24431e-06 -2.22863e-05
9.62424e-07 -1.23782e-06 -1.68011e-05
7.60326e-07 -1.43562e-06 -1.11956e-05
6.30396e-07 -1.21018e-06 -8.42568e-06
5.87519e-07 -1.5566e-06 -6.19924e-06
0 0 0
0 0 0
-4.22167e-08 -9.88141e-08 -3.07514e-07
-2.11567e-07 -5.50415e-08 -7.50933e-09
1.04941e-07 -1.82837e-08 -1.85973e-06
1.44874e-07 5.92758e-08 -1.37851e-06
1.12214e-07 -4.76228e-08 -4.96818e-06
2.91338e-07 2.17119e-07 -4.11405e-06
-3.78506e-08 -1.53271e-07 -7.89889e-06
1.79938e-07 -1.16983e-07 -6.67844e-06
2.48748e-07 -1.1282e-07 -9.66151e-06
-3.14779e-08 -6.24625e-08 -7.73597e-06
3.42773e-07 -1.6496e-07 -9.75467e-06
-1.39203e-07 -4.42648e-08 -7.81859e-06
3.66778e-07 -1.29194e-07 -9.15829e-06
-6.02595e-08 -1.29549e-08 -8.84598e-06
4.88095e-07 -9.15805e-08 -1.0248e-05
-1.17754e-08 -1.72958e-07 -1.30723e-05
5.51471e-07 -4.23843e-07 -1.579e-05
-1.06376e-07 -2.39924e-07 -1.89364e-05
3.00616e-07 -1.65067e-07 -1.92944e-05
-2.22329e-07 -2.51361e-07 -2.07783e-05
2.44505e-07 -6.63036e-07 -2.26486e-05
6.33202e-08 -4.0914e-07 -2.4881e-05
2.76527e-07 -7.30864e-07 -2.82538e-05
3.00468e-07 -4.12912e-07 -2.87754e-05
3.93452e-07 -4.5685e-07 -3.06129e-05
2.7624e-07 -2.8129e-07 -2.98296e-05
1.89159e-07 -4.69365e-07 -3.30174e-05
4.35246e-07 -1.50595e-07 -3.27808e-05
5.5609e-07 -2.74263e-07 -3.64447e-05
4.73497e-07 -6.95154e-08 -3.44835e-05
6.21471e-07 -3.74715e-07 -3.64177e-05
5.96603e-07 -1.91847e-07 -3.49976e-05
4.0628e-07 -6.86837e-07 -3.82727e-05
4.86582e-07 -4.37908e-07 -3.8343e-05
4.86315e-07 -7.2347e-07 -4.09415e-05
3.31901e-07 -6.74702e-07 -3.91751e-05
8.2166e-07 -8.29744e-07 -3.92478e-05
3.59971e-07 -7.26362e-07 -3.651e-05
5.62261e-07 -9.99318e-07 -3.6562e-05
4.40882e-07 -8.65435e-07 -3.30898e-05
6.18723e-07 -8.77477e-07 -3.33628e-05
6.54483e-07 -9.48878e-07 -3.0747e-05
7.29722e-07 -1.154e-06 -3.25576e-05
5.13374e-07 -9.58935e-07 -3.0203e-05
6.25167e-07 -1.35392e-06 -3.1771e-05
4.30176e-07 -8.87698e-07 -2.77979e-05
7.16816e-07 -1.19786e-06 -2.84848e-05
4.72754e-07 -1.26186e-06 -2.27695e-05
8.3924e-07 -1.33651e-06 -2.2082e-05
6.1425e-07 -1.32358e-06 -1.63493e-05
7.57519e-07 -1.14742e-06 -1.56712e-05
4.58859e-07 -9.89677e-07 -1.11805e-05
5.33064e-07 -1.43224e-06 -1.01094e-05
4.22165e-07 -1.23235e-06 -6.17411e-06
4.47212e-07 -1.43649e-06 -4.8177e-06
5.41541e-07 -1.6379e-06 -4.21066e-06
0 0 0
0 0 0
1.16785e-07 2.35252e-08 -1.01915e-06
4.62685e-07 3.25052e-07 -5.33828e-06
3.73129e-07 -1.55672e-09 -1.49608e-05
2.97386e-07 3.33947e-07 -2.57108e-05
5.06338e-07 1.26587e-07 -3.76218e-05
6.164e-07 4.38676e-07 -4.99096e-05
3.32677e-07 5.05809e-08 -6.69949e-05
6.52551e-07 -7.58135e-09 -8.55595e-05
5.14525e-07 -4.15914e-08 -0.00010627
3.39362e-07 -2.68718e-07 -0.000123857
8.24749e-07 -5.43451e-07 -0.000143202
3.59482e-07 -5.36529e-07 -0.000163037
6.11982e-07 -1.02401e-06 -0.000187527
2.78754e-07 -1.10241e-06 -0.000210255
4.64174e-07 -1.16925e-06 -0.000233078
4.22754e-07 -8.59967e-07 -0.000252826
5.76918e-07 -2.01475e-06 -0.000271714
1.37167e-06 -1.07569e-06 -0.000288344
5.91306e-07 -1.63412e-06 -0.00029642
1.90329e-07 -1.15484e-06 -0.000300035
4.39467e-07 -1.80627e-06 -0.000303345
3.29132e-07 -1.01804e-06 -0.000306066
6.16879e-07 -1.61781e-06 -0.000306584
5.29532e-07 -1.06669e-06 -0.000306931
4.87893e-07 -1.63657e-06 -0.00030652
5.44963e-07 -1.04857e-06 -0.000305122
9.1676e-07 -1.58747e-06 -0.000303199
4.69869e-07 -1.18372e-06 -0.000296411
1.19938e-06 -1.21805e-06 -0.000289932
6.64315e-07 -1.05146e-06 -0.000279247
1.01503e-06 -1.23253e-06 -0.000271853
4.28473e-07 -1.00941e-06 -0.000260846
1.0107e-06 -1.00363e-06 -0.00025274
6.75205e-07 -1.01034e-06 -0.000237677
1.51516e-06 -8.67404e-07 -0.000224484
8.33712e-07 -1.22955e-06 -0.000206514
1.34317e-06 -7.33674e-07 -0.000192451
1.05296e-06 -1.11467e-06 -0.000174022
1.42727e-06 -8.13955e-07 -0.000157504
9.40277e-07 -1.31663e-06 -0.000139815
1.08804e-06 -1.39663e-06 -0.000123514
5.51137e-07 -1.6196e-06 -0.000109178
1.29133e-06 -1.04205e-06 -9.42913e-05
5.99251e-07 -1.37753e-06 -8.22923e-05
9.41897e-07 -1.35488e-06 -6.85267e-05
1.03023e-06 -1.39963e-06 -5.77564e-05
1.3226e-06 -1.39355e-06 -4.33125e-05
1.26426e-06 -1.1165e-06 -3.63771e-05
1.21038e-06 -1.39533e-06 -2.50294e-05
1.14831e-06 -1.25486e-06 -1.78578e-05
9.58329e-07 -1.49351e-06 -9.11303e-06
7.09229e-07 -1.10392e-06 -6.43192e-06
8.00169e-07 -1.61553e-06 -2.69748e-06
6.7669e-07 -1.18658e-06 -2.98514e-06
6.75484e-07 -1.54706e-06 -2.22579e-06
0 0 0
0 0 0
-2.16348e-07 3.87684e-08 3.42038e-07
1.67645e-07 -5.94912e-08 7.23747e-08
-3.06077e-07 -4.19296e-08 9.52715e-07
1.71937e-07 1.21866e-08 -1.42146e-06
-9.12944e-08 1.96406e-07 -2.0702e-06
2.00194e-07 5.73806e-08 -6.33154e-06
4.51817e-07 3.11955e-07 -6.8776e-06
1.82795e-07 -1.86669e-07 -9.37829e-06
1.79063e-07 2.41422e-07 -7.56413e-06
9.41884e-08 1.80059e-07 -8.87814e-06
3.52394e-07 -6.9508e-08 -7.24036e-06
1.77855e-07 -2.64911e-07 -9.37485e-06
2.28256e-07 -2.56077e-07 -9.08475e-06
2.54214e-07 -4.13534e-07 -1.02707e-05
9.49908e-08 -4.9981e-07 -1.19131e-05
4.48336e-07 -3.893e-07 -1.37999e-05
2.2958e-07 -3.95049e-07 -1.70265e-05
1.49237e-08 -3.78026e-07 -1.72138e-05
4.74651e-08 -4.27192e-07 -1.96462e-05
-8.27857e-08 -5.02926e-07 -1.94015e-05
-7.09496e-08 -3.87643e-07 -2.17653e-05
3.35553e-07 -6.8256e-07 -2.37313e-05
2.7972e-07 -2.62051e-07 -2.63913e-05
5.95637e-07 -5.54174e-07 -2.852e-05
1.77388e-07 -4.06525e-07 -2.92713e-05
2.60625e-07 -3.94628e-07 -3.16227e-05
1.68137e-07 -1.75388e-07 -3.19926e-05
2.80427e-07 -3.15718e-07 -3.54245e-05
3.52447e-07 -3.00886e-07 -3.42156e-05
3.97047e-07 -2.41743e-07 -3.56325e-05
6.42192e-07 -1.4731e-07 -3.35666e-05
2.65873e-07 -4.52288e-07 -3.5398e-05
1.00586e-06 -3.57067e-07 -3.5404e-05
3.40353e-07 -7.28779e-07 -3.77754e-05
7.73979e-07 -5.53293e-07 -3.73591e-05
6.45493e-07 -6.39929e-07 -3.85953e-05
6.25409e-07 -7.50601e-07 -3.69227e-05
7.0269e-07 -7.22443e-07 -3.75114e-05
7.53778e-07 -6.55598e-07 -3.47075e-05
4.71738e-07 -9.54031e-07 -3.41816e-05
8.15596e-07 -6.04828e-07 -2.95204e-05
5.29102e-07 -8.05409e-07 -2.94656e-05
6.72071e-07 -8.6766e-07 -2.68704e-05
5.96509e-07 -8.10231e-07 -2.94906e-05
6.52466e-07 -6.47702e-07 -2.64451e-05
2.3406e-07 -9.70199e-07 -2.77494e-05
7.50866e-07 -5.63287e-07 -2.25378e-05
4.74406e-07 -6.84588e-07 -2.29554e-05
5.82203e-07 -8.06945e-07 -1.69422e-05
4.90418e-07 -8.17805e-07 -1.7875e-05
3.32233e-07 -1.00232e-06 -1.31047e-05
5.49538e-07 -1.0769e-06 -1.34007e-05
6.02346e-07 -1.20789e-06 -8.73154e-06
4.56773e-07 -1.52018e-06 -8.21593e-06
5.94337e-07 -1.27384e-06 -3.34871e-06
3.61414e-07 -1.50121e-06 -9.0013e-07
1.26096e-07 -1.65198e-06 -1.16205e-06
0 0 0
0 0 0
3.02509e-08 2.0366e-07 -1.02556e-06
1.98027e-07 -3.02126e-08 -6.50568e-06
2.48483e-07 3.8226e-07 -1.49004e-05
1.03625e-07 -3.76627e-07 -2.56834e-05
1.68172e-07 6.11594e-07 -3.66685e-05
2.45353e-07 -7.6405e-08 -5.13743e-05
2.96247e-07 5.74756e-07 -6.73911e-05
4.65891e-07 -1.64479e-07 -8.79292e-05
1.72928e-07 3.652e-07 -0.000106321
6.80426e-07 -3.82126e-07 -0.000125978
6.32452e-07 -2.23439e-07 -0.000144637
6.39593e-07 -9.38627e-07 -0.000168949
8.15141e-07 -6.62187e-07 -0.000191853
7.19297e-07 -1.62549e-06 -0.000217835
5.55056e-07 -1.41426e-06 -0.000240686
7.14021e-07 -1.53735e-06 -0.000265207
2.02281e-06 -1.12576e-06 -0.000285429
1.11073e-06 -2.35305e-06 -0.000296189
8.96526e-07 -1.20784e-06 -0.000301517
5.99242e-07 -1.62662e-06 -0.000307631
3.9827e-07 -1.20591e-06 -0.000312244
9.04487e-07 -1.39908e-06 -0.000314557
8.28702e-07 -1.3038e-06 -0.000315396
1.33045e-06 -1.74737e-06 -0.000313893
9.15491e-07 -1.22999e-06 -0.000311857
1.08532e-06 -1.71797e-06 -0.000310852
9.30211e-07 -9.98185e-07 -0.000307051
1.04751e-06 -1.2003e-06 -0.000302043
9.34544e-07 -9.52153e-07 -0.000290967
1.40439e-06 -1.23569e-06 -0.000283558
1.11767e-06 -8.86796e-07 -0.000271763
1.34411e-06 -8.91788e-07 -0.000263918
7.53913e-07 -1.00166e-06 -0.000251977
1.5814e-06 -8.31576e-07 -0.000240689
1.06575e-06 -1.14131e-06 -0.000222802
1.481e-06 -1.13095e-06 -0.000208563
1.10981e-06 -9.03548e-07 -0.00019009
1.61908e-06 -1.15526e-06 -0.000173473
9.79958e-07 -1.1584e-06 -0.000154091
1.27475e-06 -1.29233e-06 -0.000137228
7.80408e-07 -1.49717e-06 -0.000121101
1.19662e-06 -1.56737e-06 -0.000106104
6.81261e-07 -1.30545e-06 -9.24184e-05
8.16988e-07 -1.44893e-06 -7.78768e-05
5.21898e-07 -1.23612e-06 -6.63598e-05
6.72702e-07 -1.43292e-06 -5.14221e-05
6.45946e-07 -1.17352e-06 -4.13041e-05
9.92039e-07 -1.60692e-06 -2.9847e-05
7.11201e-07 -1.37886e-06 -2.27632e-05
7.43862e-07 -1.38479e-06 -1.15562e-05
1.11617e-06 -1.31584e-06 -5.78434e-06
1.08057e-06 -1.39658e-06 5.16129e-07
7.73015e-07 -1.20151e-06 1.44499e-06
7.40488e-07 -1.1434e-06 3.41823e-06
7.58711e-07 -1.4427e-06 2.27772e-06
3.47643e-07 -1.3946e-06 3.68269e-06
0 0 0
0 0 0
1.46898e-07 -7.30202e-08 1.8029e-07
1.6912e-07 1.56087e-08 9.58593e-07
-5.98611e-08 6.83405e-10 2.04588e-07
8.94159e-09 9.047e-08 6.33362e-07
-1.93201e-07 -2.10583e-07 -3.49432e-06
2.2336e-07 1.16374e-07 -4.32004e-06
-7.82951e-08 -2.86229e-07 -8.41921e-06
4.27093e-07 1.92491e-07 -6.87016e-06
2.26826e-07 -2.4472e-07 -8.65764e-06
3.08023e-07 -7.53571e-08 -6.48595e-06
5.9114e-07 -2.63331e-07 -9.0446e-06
-8.85085e-08 -4.14595e-08 -8.30066e-06
7.05826e-07 -8.71935e-08 -1.06709e-05
2.0972e-07 2.61628e-08 -1.19535e-05
2.7911e-07 -2.61544e-07 -1.37818e-05
1.20085e-07 -2.96547e-07 -1.61097e-05
2.20854e-07 -5.52266e-08 -1.70891e-05
6.36096e-08 -1.22417e-07 -1.93578e-05
2.48095e-07 -1.29886e-08 -1.91037e-05
-1.3246e-07 -1.52061e-07 -2.07074e-05
1.52575e-07 -2.90679e-07 -2.08444e-05
5.20515e-08 -5.18065e-07 -2.22201e-05
4.39451e-07 -7.09688e-07 -2.39185e-05
3.6473e-07 -4.23924e-07 -2.57475e-05
3.7838e-07 -4.0366e-07 -2.78116e-05
2.36169e-07 -5.58604e-07 -2.92404e-05
5.24511e-07 -2.08884e-07 -3.22106e-05
2.06871e-07 -3.7007e-07 -3.32649e-05
4.83497e-07 -5.19273e-07 -3.52534e-05
9.97287e-08 -2.65382e-07 -3.39236e-05
5.90356e-07 -4.84768e-07 -3.39453e-05
4.8316e-07 -2.36503e-07 -3.36609e-05
6.15262e-07 -6.77631e-07 -3.49335e-05
4.8946e-07 -2.55558e-07 -3.52259e-05
7.39449e-07 -8.98568e-07 -3.57583e-05
6.58977e-07 -5.78626e-07 -3.49815e-05
7.44804e-07 -7.37604e-07 -3.54806e-05
3.94543e-07 -5.83243e-07 -3.53565e-05
5.98601e-07 -6.50617e-07 -3.56194e-05
3.19637e-07 -4.4683e-07 -3.22644e-05
5.51897e-07 -9.07888e-07 -2.96436e-05
4.5752e-07 -1.01661e-06 -2.50762e-05
7.95136e-07 -1.09122e-06 -2.46298e-05
3.18589e-07 -1.25294e-06 -2.28019e-05
8.71463e-07 -1.08664e-06 -2.50081e-05
6.04063e-07 -1.10554e-06 -2.22458e-05
1.02165e-06 -1.20118e-06 -2.28794e-05
4.32799e-07 -1.05952e-06 -1.78165e-05
6.02783e-07 -1.34727e-06 -1.82192e-05
3.73594e-07 -1.2631e-06 -1.42256e-05
4.78863e-07 -1.30001e-06 -1.53339e-05
3.79411e-07 -1.25323e-06 -1.16573e-05
5.8484e-07 -1.12377e-06 -1.22846e-05
2.77889e-07 -1.18302e-06 -8.31563e-06
5.3239e-07 -1.2845e-06 -6.24538e-06
3.19133e-07 -1.28683e-06 -1.04436e-06
4.29855e-07 -1.64568e-06 3.70529e-06
5.28186e-07 -1.66779e-06 3.38639e-06
0 0 0
0 0 0
2.75145e-07 -1.46434e-08 -1.41858e-06
1.35359e-07 5.19962e-08 -5.95896e-06
4.38898e-07 6.80169e-08 -1.48361e-05
4.25652e-07 3.52806e-07 -2.56259e-05
4.853e-07 1.9344e-07 -3.84462e-05
6.04403e-07 3.00692e-07 -5.22063e-05
7.37602e-07 2.89058e-07 -7.019e-05
6.3577e-07 2.47068e-07 -8.92206e-05
8.1358e-07 1.69564e-07 -0.000109686
8.40297e-07 -3.94963e-07 -0.00012802
6.29902e-07 -2.46003e-07 -0.000149501
7.57364e-07 -4.42651e-07 -0.000171588
6.82695e-07 -8.33796e-07 -0.00019858
3.49288e-07 -1.07596e-06 -0.000222704
2.78299e-07 -1.56046e-06 -0.000247241
3.26075e-07 -2.57703e-06 -0.000274701
4.56954e-07 -1.8599e-06 -0.000300729
2.32763e-07 -2.07499e-06 -0.00030841
3.55533e-07 -1.82505e-06 -0.000310525
7.07879e-07 -1.31822e-06 -0.000314942
4.82778e-07 -1.51597e-06 -0.000319659
6.88672e-07 -1.58523e-06 -0.000322675
1.16206e-06 -1.32614e-06 -0.000324024
6.63181e-07 -1.2012e-06 -0.000322761
9.03141e-07 -1.40134e-06 -0.000320827
6.58597e-07 -9.12516e-07 -0.000317437
9.04262e-07 -1.50206e-06 -0.0003155
8.13384e-07 -7.2527e-07 -0.000307219
1.12759e-06 -1.28627e-06 -0.000299748
1.17364e-06 -9.35403e-07 -0.000286608
1.07385e-06 -1.18397e-06 -0.000277868
6.33491e-07 -9.4233e-07 -0.000264922
1.12847e-06 -9.25878e-07 -0.000255414
7.82863e-07 -1.05783e-06 -0.000238802
1.30448e-06 -8.91728e-07 -0.000225019
8.90967e-07 -1.23795e-06 -0.000206317
1.32223e-06 -8.74513e-07 -0.000190934
8.62471e-07 -1.37696e-06 -0.000170555
1.4247e-06 -1.03213e-06 -0.000152277
7.57957e-07 -1.7047e-06 -0.000133603
1.19736e-06 -1.24287e-06 -0.000118123
5.2022e-07 -1.52542e-06 -0.000104111
1.11793e-06 -1.39655e-06 -8.89766e-05
8.84237e-07 -1.45348e-06 -7.45076e-05
8.94076e-07 -1.54239e-06 -5.93293e-05
8.34174e-07 -1.56585e-06 -4.72291e-05
1.06206e-06 -1.64681e-06 -3.35467e-05
1.17164e-06 -1.54247e-06 -2.64765e-05
8.61141e-07 -1.40551e-06 -1.59264e-05
9.65239e-07 -1.37137e-06 -8.85449e-06
9.10896e-07 -1.68096e-06 -4.31704e-07
1.00209e-06 -1.02682e-06 2.91954e-06
3.87027e-07 -1.7062e-06 8.45207e-06
5.22177e-07 -1.0545e-06 8.10338e-06
7.06098e-07 -1.56751e-06 8.90109e-06
5.25231e-07 -1.44112e-06 7.98828e-06
4.34158e-07 -1.75877e-06 7.57184e-06
0 0 0
0 0 0
-1.9081e-07 -9.23732e-09 -3.859e-09
8.68561e-08 -2.70403e-07 -1.47571e-07
-1.63695e-07 -4.59634e-08 3.74507e-07
8.25361e-08 9.83603e-08 -9.09016e-07
-1.33396e-07 3.82618e-08 -1.44666e-06
-4.09183e-08 1.4013e-07 -5.1773e-06
8.24485e-08 1.57903e-07 -5.71037e-06
3.24261e-07 1.02475e-07 -7.54535e-06
3.53968e-07 8.85543e-08 -5.76458e-06
2.32364e-07 -2.83677e-07 -6.92383e-06
3.01652e-07 1.41482e-07 -6.61088e-06
3.99611e-07 -1.98033e-07 -9.71879e-06
2.6441e-07 -2.82469e-08 -1.11036e-05
4.83348e-07 -2.84675e-07 -1.33771e-05
2.87658e-07 -2.34036e-07 -1.55295e-05
4.34788e-07 -1.04196e-07 -1.71062e-05
2.2536e-07 -4.19328e-07 -1.92466e-05
1.71344e-07 -3.06101e-07 -1.9126e-05
1.48634e-07 -4.12897e-07 -2.14351e-05
-5.20176e-08 -4.65684e-07 -2.08603e-05
6.99698e-08 -1.44161e-07 -2.14011e-05
2.39326e-07 -2.28931e-07 -2.09196e-05
2.92634e-08 -1.30291e-07 -2.17244e-05
2.22389e-07 -5.35074e-07 -2.34406e-05
2.24796e-07 -4.20579e-07 -2.53681e-05
1.95543e-07 -4.30988e-07 -2.88655e-05
2.83597e-07 -4.894e-07 -3.05518e-05
5.57432e-07 -2.60003e-07 -3.36468e-05
3.80506e-07 -2.30895e-07 -3.28804e-05
5.01079e-07 -6.03265e-07 -3.36557e-05
5.27158e-07 -4.17851e-07 -3.27691e-05
6.37829e-07 -6.03375e-07 -3.4032e-05
8.81497e-07 -4.04333e-07 -3.43527e-05
4.61896e-07 -6.77902e-07 -3.46027e-05
1.00083e-06 -4.26443e-07 -3.38293e-05
4.45478e-07 -8.75899e-07 -3.38993e-05
4.12763e-07 -5.14195e-07 -3.36184e-05
4.37624e-07 -6.72443e-07 -3.44054e-05
5.92045e-07 -4.70634e-07 -3.32345e-05
2.96384e-07 -8.62052e-07 -3.18685e-05
7.86094e-07 -6.5528e-07 -2.73248e-05
6.1445e-07 -9.11829e-07 -2.46462e-05
5.48129e-07 -7.75997e-07 -2.14906e-05
4.8651e-07 -9.04345e-07 -2.25277e-05
9.11213e-07 -6.21149e-07 -2.10044e-05
6.80437e-07 -9.03502e-07 -2.23065e-05
1.28635e-06 -5.78152e-07 -1.91245e-05
5.67209e-07 -7.36703e-07 -1.92008e-05
8.21532e-07 -6.65682e-07 -1.51006e-05
8.00715e-07 -6.53234e-07 -1.56587e-05
5.06444e-07 -7.79549e-07 -1.23594e-05
6.05266e-07 -8.70125e-07 -1.2883e-05
4.89668e-07 -1.15441e-06 -1.04476e-05
5.00017e-07 -1.19789e-06 -1.05602e-05
6.78208e-07 -1.41085e-06 -6.48523e-06
3.29635e-07 -1.50628e-06 -2.84741e-06
6.88928e-07 -1.38969e-06 1.64385e-06
-3.29424e-08 -1.3775e-06 6.96912e-06
2.39091e-07 -1.53922e-06 5.57704e-06
0 0 0
0 0 0
8.01819e-08 3.27677e-07 -1.31847e-06
1.81566e-07 1.84968e-07 -6.94176e-06
3.94825e-07 5.30326e-08 -1.61274e-05
3.26059e-07 -1.35184e-07 -2.77415e-05
3.07968e-07 5.23819e-07 -4.04386e-05
3.57152e-07 -1.69049e-07 -5.50874e-05
1.42872e-07 4.59954e-07 -7.21208e-05
3.70069e-07 -3.76693e-07 -9.33613e-05
5.13014e-07 1.6256e-07 -0.000113307
7.0358e-07 -5.24584e-07 -0.000133854
8.65893e-07 -1.638e-07 -0.000153678
9.99169e-07 -9.91862e-07 -0.000178723
7.78621e-07 -4.06858e-07 -0.000202418
1.22751e-06 -1.44721e-06 -0.000229363
9.24227e-07 -9.17541e-07 -0.000252471
1.98448e-06 -3.16209e-06 -0.000279433
2.11958e-06 -9.40043e-07 -0.000301402
9.65846e-07 -1.43856e-06 -0.00031337
9.22017e-07 -1.61065e-06 -0.000316171
1.09858e-06 -1.8295e-06 -0.000320869
1.0531e-06 -1.21864e-06 -0.000324994
1.24396e-06 -1.57167e-06 -0.000329338
1.06147e-06 -1.1686e-06 -0.000331895
1.24378e-06 -1.15609e-06 -0.000331539
1.27519e-06 -9.05161e-07 -0.000328047
1.27038e-06 -1.17601e-06 -0.000326167
9.85297e-07 -8.65196e-07 -0.000321224
1.01903e-06 -1.345e-06 -0.000315841
1.14885e-06 -8.16615e-07 -0.000303136
1.46317e-06 -1.30638e-06 -0.000294423
1.26689e-06 -8.22563e-07 -0.000280429
1.44752e-06 -1.22153e-06 -0.00027035
1.40482e-06 -8.74219e-07 -0.000255353
1.53996e-06 -1.01637e-06 -0.000241296
1.20298e-06 -1.13522e-06 -0.000221929
1.45189e-06 -1.17497e-06 -0.000207211
1.17603e-06 -9.50735e-07 -0.000187909
1.59287e-06 -1.25556e-06 -0.00017049
9.17337e-07 -1.40608e-06 -0.000148884
1.37617e-06 -1.53631e-06 -0.000130777
7.36012e-07 -1.55235e-06 -0.000113523
1.17592e-06 -1.8244e-06 -9.9362e-05
8.44793e-07 -1.46892e-06 -8.45e-05
9.20844e-07 -1.42132e-06 -6.83725e-05
8.73582e-07 -1.61591e-06 -5.41341e-05
6.70157e-07 -1.76711e-06 -3.87262e-05
6.28582e-07 -1.45144e-06 -2.91251e-05
6.19154e-07 -1.85859e-06 -1.8533e-05
2.57615e-07 -1.63166e-06 -1.22108e-05
7.23952e-07 -1.52955e-06 -2.78178e-06
7.66915e-07 -1.41828e-06 1.56304e-06
8.4632e-07 -1.51533e-06 7.97928e-06
9.16074e-07 -1.41306e-06 1.10256e-05
6.86645e-07 -1.45487e-06 1.51919e-05
9.53295e-07 -1.43198e-06 1.40331e-05
8.87409e-07 -1.54418e-06 1.40034e-05
8.56131e-07 -1.34687e-06 1.16643e-05
7.58111e-07 -1.59115e-06 1.0587e-05
0 0 0
0 0 0
8.22772e-08 -8.13522e-08 -5.21207e-07
-6.00281e-08 3.4093e-08 -1.4636e-06
-8.47784e-08 -2.70884e-07 -2.54232e-06
-2.8497e-09 2.24225e-08 -2.13113e-06
-9.52669e-08 -1.94611e-07 -4.01736e-06
3.70152e-07 -4.04988e-08 -3.70176e-06
-6.6287e-08 -2.16133e-07 -5.81025e-06
3.06546e-07 -8.56528e-08 -4.64346e-06
1.48163e-07 -2.12488e-07 -5.77252e-06
2.32282e-07 -1.26942e-07 -4.66423e-06
3.54235e-07 -2.56006e-07 -7.12417e-06
2.64899e-07 -1.7755e-07 -8.10634e-06
4.43593e-07 -2.47952e-07 -1.07483e-05
5.64812e-07 -7.96864e-08 -1.38494e-05
3.35592e-07 -1.1397e-08 -1.58094e-05
5.54783e-07 -9.10247e-08 -1.87501e-05
2.62654e-07 6.02474e-08 -1.9566e-05
8.55479e-08 -6.16078e-08 -2.21841e-05
2.46647e-07 -2.0514e-08 -2.18982e-05
1.72654e-08 -1.54208e-08 -2.2911e-05
1.35652e-07 -1.17092e-07 -2.12422e-05
5.62508e-08 -3.82162e-07 -2.04756e-05
4.02734e-07 -6.83963e-07 -2.02586e-05
7.15705e-08 -7.75192e-07 -2.19497e-05
2.60827e-07 -4.69746e-07 -2.4793e-05
-3.23055e-08 -5.83938e-07 -2.74569e-05
4.66402e-07 -3.91457e-07 -3.06242e-05
5.75596e-08 -4.26052e-07 -3.13853e-05
5.24661e-07 -5.73031e-07 -3.26775e-05
4.32982e-07 -2.62527e-07 -3.18263e-05
6.11404e-07 -6.0328e-07 -3.25902e-05
3.96207e-07 -4.31582e-07 -3.35644e-05
7.63633e-07 -4.59314e-07 -3.47927e-05
4.17712e-07 -4.37725e-07 -3.43168e-05
6.11133e-07 -7.54159e-07 -3.3998e-05
3.44933e-07 -1.49892e-07 -3.25935e-05
6.27734e-07 -5.22452e-07 -3.32943e-05
2.83001e-07 -2.75898e-07 -3.27398e-05
6.70542e-07 -6.42335e-07 -3.28886e-05
3.98822e-07 -2.58388e-07 -2.96657e-05
6.71705e-07 -9.94429e-07 -2.78378e-05
2.59723e-07 -8.33221e-07 -2.40293e-05
7.08641e-07 -1.0757e-06 -2.32549e-05
6.64758e-07 -1.05908e-06 -2.05427e-05
7.06145e-07 -1.38506e-06 -2.17641e-05
7.5297e-07 -9.88496e-07 -1.94462e-05
7.78834e-07 -1.17346e-06 -2.05615e-05
5.34159e-07 -9.45511e-07 -1.69956e-05
1.01437e-06 -1.13008e-06 -1.69532e-05
6.2121e-07 -1.1411e-06 -1.26579e-05
7.04908e-07 -1.1034e-06 -1.23723e-05
7.60101e-07 -1.33635e-06 -8.96422e-06
9.3641e-07 -1.22951e-06 -1.05403e-05
3.87265e-07 -1.17159e-06 -8.34403e-06
7.16229e-07 -1.30699e-06 -7.85038e-06
4.69728e-07 -1.03479e-06 -3.10907e-06
4.68453e-07 -1.29965e-06 2.1452e-07
3.73081e-07 -1.0642e-06 3.21094e-06
4.88987e-07 -1.33501e-06 7.53021e-06
2.40362e-07 -1.30083e-06 5.04237e-06
0 0 0
0 0 0
-6.84651e-08 -2.25174e-08 -1.4913e-06
2.74313e-07 1.51001e-07 -7.05638e-06
1.76755e-07 -1.81834e-08 -1.68444e-05
3.45481e-07 3.48435e-07 -3.04622e-05
7.42883e-07 3.36013e-07 -4.37598e-05
6.74681e-07 2.75896e-07 -5.74628e-05
9.29369e-07 1.23293e-07 -7.50151e-05
9.3736e-07 -1.80064e-07 -9.58358e-05
8.97367e-07 -1.0845e-07 -0.000118115
1.05681e-06 -1.91918e-07 -0.000138066
7.51891e-07 -5.44837e-07 -0.000160041
7.81246e-07 -1.44692e-07 -0.000181635
1.09936e-06 -9.3865e-07 -0.000209764
6.23334e-07 -9.8973e-07 -0.000233948
9.78203e-07 -1.65839e-06 -0.000259189
7.40874e-07 -1.0607e-06 -0.000280553
6.23725e-07 -1.54577e-06 -0.000302226
7.97205e-07 -1.55774e-06 -0.000316674
6.37495e-07 -1.33097e-06 -0.000324496
6.37121e-07 -1.55634e-06 -0.000328084
5.30142e-07 -1.32586e-06 -0.000333276
5.89171e-07 -1.20237e-06 -0.000337987
7.60881e-07 -8.97306e-07 -0.00034149
9.15881e-07 -8.96082e-07 -0.000341697
8.14779e-07 -1.03322e-06 -0.000337867
1.02295e-06 -8.21439e-07 -0.000332483
1.17625e-06 -9.42171e-07 -0.000328123
1.13221e-06 -9.27555e-07 -0.000319336
1.27938e-06 -1.00037e-06 -0.000310651
1.21966e-06 -6.87372e-07 -0.000297247
1.27198e-06 -6.46555e-07 -0.000286959
1.21958e-06 -1.09048e-06 -0.000273089
1.23062e-06 -9.87265e-07 -0.000259858
1.21006e-06 -1.12042e-06 -0.000240588
1.34909e-06 -9.16236e-07 -0.000223465
1.03841e-06 -1.50167e-06 -0.000204116
1.05586e-06 -9.96828e-07 -0.000187499
1.00807e-06 -1.431e-06 -0.000167341
1.47407e-06 -1.1283e-06 -0.000147143
8.47041e-07 -1.88561e-06 -0.000125728
1.29151e-06 -1.4152e-06 -0.000107862
6.71179e-07 -1.89526e-06 -9.27895e-05
7.04657e-07 -1.38229e-06 -7.81139e-05
9.14914e-07 -1.71557e-06 -6.29485e-05
1.01725e-06 -1.68525e-06 -4.71554e-05
8.84818e-07 -1.68878e-06 -3.41078e-05
1.10065e-06 -1.70483e-06 -2.12764e-05
1.06403e-06 -1.9099e-06 -1.39759e-05
8.98766e-07 -1.71416e-06 -4.09842e-06
7.12886e-07 -1.68343e-06 1.61507e-06
9.54495e-07 -1.82891e-06 7.97125e-06
5.48853e-07 -1.60646e-06 1.00426e-05
3.18442e-07 -1.71644e-06 1.65276e-05
7.87374e-07 -1.25147e-06 1.69734e-05
7.28429e-07 -1.62224e-06 1.89577e-05
9.01041e-07 -1.4796e-06 1.61337e-05
6.09013e-07 -1.71066e-06 1.45401e-05
1.92184e-07 -1.30172e-06 1.22057e-05
8.51927e-08 -1.16678e-06 1.04055e-05
0 0 0
0 0 0
-2.22989e-07 -3.82172e-08 -9.49204e-07
-2.95779e-09 -2.66296e-07 -2.65765e-06
-3.89139e-07 1.12196e-08 -3.90638e-06
-5.55894e-08 -8.43398e-08 -4.76069e-06
-2.21678e-07 1.31699e-07 -3.83938e-06
4.36313e-07 -5.56909e-08 -4.835e-06
-7.46596e-08 2.33599e-07 -3.92717e-06
3.3101e-07 -1.57837e-08 -5.41133e-06
2.13014e-07 6.91711e-09 -4.67586e-06
3.14316e-07 -2.19356e-07 -6.46266e-06
8.09469e-08 1.59522e-07 -7.0112e-06
5.15165e-07 7.16822e-08 -1.00321e-05
8.33583e-08 1.55217e-07 -1.19189e-05
4.87218e-07 -7.46514e-08 -1.43471e-05
1.27414e-07 -3.90606e-08 -1.66995e-05
1.16782e-07 -1.63612e-07 -1.87111e-05
2.9812e-07 -1.5587e-07 -2.05732e-05
3.91712e-07 -1.00572e-07 -2.11156e-05
4.03944e-07 -5.5461e-07 -2.3256e-05
2.60032e-07 -1.29913e-07 -2.31274e-05
1.53821e-07 -3.43953e-07 -2.28915e-05
-1.60756e-09 -2.35895e-07 -2.15337e-05
1.47969e-07 -2.42533e-07 -2.11087e-05
2.99698e-07 -3.90773e-07 -2.2578e-05
1.37589e-07 -3.18946e-07 -2.49685e-05
4.94545e-07 -5.33378e-07 -2.86371e-05
3.07276e-07 -6.65007e-07 -3.00508e-05
2.9161e-07 -4.95332e-07 -3.21247e-05
3.51356e-07 -3.78263e-07 -3.11192e-05
6.00309e-07 -4.61645e-07 -3.21586e-05
3.63406e-07 -3.56259e-07 -3.22499e-05
5.52515e-07 -7.20938e-07 -3.44019e-05
3.76105e-07 -4.67513e-07 -3.49289e-05
1.37323e-07 -8.76135e-07 -3.52841e-05
6.86221e-07 -1.64642e-07 -3.39061e-05
3.0063e-07 -6.91788e-07 -3.42085e-05
7.99928e-07 -3.02033e-07 -3.2899e-05
3.49355e-07 -9.72972e-07 -3.29377e-05
8.42269e-07 -6.55951e-07 -2.9953e-05
2.9405e-07 -1.02824e-06 -2.87349e-05
9.49026e-07 -8.16922e-07 -2.57012e-05
3.8383e-07 -1.10378e-06 -2.53358e-05
7.26202e-07 -7.9705e-07 -2.30896e-05
6.21869e-07 -1.1022e-06 -2.26051e-05
7.56164e-07 -8.03962e-07 -1.91542e-05
4.94881e-07 -1.09462e-06 -1.91985e-05
6.78322e-07 -6.56882e-07 -1.67968e-05
3.94976e-07 -6.80505e-07 -1.72815e-05
7.51478e-07 -5.49151e-07 -1.35023e-05
4.84173e-07 -6.19381e-07 -1.22327e-05
5.23854e-07 -9.20227e-07 -7.90046e-06
7.48765e-07 -1.11269e-06 -7.35256e-06
3.45956e-07 -1.09456e-06 -5.61375e-06
5.61494e-07 -1.25413e-06 -6.62146e-06
5.32277e-07 -1.1333e-06 -4.65356e-06
4.56074e-07 -1.31088e-06 -2.86791e-06
4.17033e-07 -1.24917e-06 -2.99936e-07
4.89155e-07 -1.35635e-06 2.27776e-06
5.1823e-07 -1.05707e-06 3.0108e-06
1.15558e-07 -1.27317e-06 6.39519e-06
2.20757e-07 -1.39029e-06 4.83771e-06
0 0 0
0 0 0
8.67574e-08 1.13154e-07 -1.36175e-06
2.08851e-07 2.92019e-07 -6.68533e-06
1.95439e-07 7.77489e-08 -1.72647e-05
4.69197e-07 8.77269e-08 -3.07363e-05
1.29535e-07 4.72433e-07 -4.50931e-05
5.27633e-07 5.50884e-08 -5.97287e-05
6.59644e-07 2.68599e-07 -7.6703e-05
3.77151e-07 -1.44104e-07 -9.89146e-05
9.71881e-07 1.3204e-07 -0.00012026
8.03457e-07 -6.43673e-07 -0.000142344
6.70534e-07 7.90291e-10 -0.000162811
6.81513e-07 -6.77114e-07 -0.000188495
1.0848e-06 -4.82379e-07 -0.000213272
1.05936e-06 -1.31034e-06 -0.000241598
1.14079e-06 -8.50023e-07 -0.000264028
1.4086e-06 -1.35357e-06 -0.000287642
8.36325e-07 -1.30768e-06 -0.000307745
9.29425e-07 -1.61552e-06 -0.000323243
1.58114e-06 -1.58485e-06 -0.000331472
6.60305e-07 -1.62115e-06 -0.000338514
1.20256e-06 -1.06104e-06 -0.000342939
6.95213e-07 -1.41303e-06 -0.000347139
8.57391e-07 -9.55632e-07 -0.000350148
1.12649e-06 -1.33275e-06 -0.000349483
1.14827e-06 -9.28183e-07 -0.000344672
1.64384e-06 -6.57677e-07 -0.000340204
1.37142e-06 -1.04561e-06 -0.000333337
1.6446e-06 -4.89667e-07 -0.000326376
1.15394e-06 -6.67209e-07 -0.000313022
1.53071e-06 -6.35143e-07 -0.000303022
1.49151e-06 -6.50114e-07 -0.000288293
1.60406e-06 -8.19342e-07 -0.000276327
1.48953e-06 -7.67661e-07 -0.000259987
1.43688e-06 -1.01536e-06 -0.000242408
1.39164e-06 -1.10704e-06 -0.000221689
1.29997e-06 -9.43906e-07 -0.00020401
1.26124e-06 -1.20871e-06 -0.000184504
1.3779e-06 -1.25894e-06 -0.000165926
1.12829e-06 -1.30683e-06 -0.00014412
1.32197e-06 -1.47808e-06 -0.000122722
7.73179e-07 -1.64312e-06 -0.000102722
8.70968e-07 -1.63845e-06 -8.64543e-05
8.32813e-07 -1.99411e-06 -7.1691e-05
6.65001e-07 -1.5295e-06 -5.68362e-05
8.67565e-07 -2.02687e-06 -4.29072e-05
7.40975e-07 -1.88668e-06 -2.77448e-05
7.85127e-07 -1.76146e-06 -1.71926e-05
4.89006e-07 -1.87936e-06 -6.15932e-06
4.18163e-07 -1.67235e-06 1.07131e-06
6.39538e-07 -1.93522e-06 8.99051e-06
4.25468e-07 -1.83535e-06 1.24044e-05
9.87547e-07 -1.63476e-06 1.67116e-05
8.48589e-07 -1.53798e-06 1.85048e-05
1.00204e-06 -1.85038e-06 2.19585e-05
9.54181e-07 -1.3125e-06 2.03692e-05
8.4159e-07 -1.61236e-06 2.04522e-05
8.98563e-07 -1.46818e-06 1.62968e-05
8.63753e-07 -1.40583e-06 1.52416e-05
6.26328e-07 -1.37213e-06 1.0631e-05
1.71666e-07 -1.51825e-06 8.38735e-06
0 0 0
0 0 0
-9.51179e-08 -9.23555e-08 -7.82704e-07
-4.16713e-07 -3.61301e-08 -2.90116e-06
-3.13217e-07 -1.80686e-07 -5.16794e-06
-7.61839e-08 -1.0023e-07 -5.66175e-06
-6.17271e-08 -2.49895e-07 -5.9755e-06
-1.16495e-07 -1.54465e-07 -3.91426e-06
-1.11528e-07 -3.89436e-07 -4.09151e-06
1.70373e-07 -2.33781e-07 -3.58388e-06
-1.70005e-08 -3.56104e-07 -6.06061e-06
4.53501e-07 -3.36218e-07 -6.99243e-06
1.55314e-07 -2.59043e-07 -1.00394e-05
5.00142e-07 -1.42866e-07 -1.1181e-05
4.47811e-07 -3.41306e-08 -1.2869e-05
2.45408e-07 -2.97704e-07 -1.51192e-05
4.23461e-07 -1.39938e-08 -1.64362e-05
6.08948e-07 -6.79782e-08 -1.8406e-05
1.7121e-07 1.93459e-07 -1.92179e-05
3.55629e-07 7.75582e-08 -2.12324e-05
2.74651e-07 9.79253e-08 -2.22751e-05
1.23227e-07 1.80876e-07 -2.39375e-05
5.12894e-07 -1.6129e-07 -2.41533e-05
-1.53557e-08 -1.55079e-07 -2.29663e-05
3.29967e-07 -2.97603e-07 -2.27215e-05
-2.0666e-07 -4.49743e-07 -2.28519e-05
2.64363e-07 -5.63534e-07 -2.56622e-05
1.69812e-07 -5.75018e-07 -2.69069e-05
4.0253e-07 -5.51694e-07 -3.0012e-05
1.15673e-07 -7.66778e-07 -2.96651e-05
3.03558e-07 -5.0442e-07 -3.20091e-05
2.36338e-07 -5.42778e-07 -3.10192e-05
5.30706e-07 -7.08797e-07 -3.26985e-05
7.39599e-08 -3.59224e-07 -3.26357e-05
3.86782e-07 -7.02194e-07 -3.43066e-05
3.39597e-07 -2.05827e-07 -3.31417e-05
4.45849e-07 -4.28399e-07 -3.42536e-05
4.31404e-07 -1.99391e-07 -3.24831e-05
4.54689e-07 -4.25463e-07 -3.34481e-05
2.842e-07 -4.07452e-07 -3.07039e-05
8.39426e-07 -5.98077e-07 -2.95961e-05
4.36936e-07 -4.73485e-07 -2.58331e-05
9.69602e-07 -9.2506e-07 -2.56988e-05
3.47408e-07 -5.25214e-07 -2.46959e-05
6.10758e-07 -8.4636e-07 -2.45943e-05
3.30923e-07 -8.47066e-07 -2.1221e-05
7.17487e-07 -1.085e-06 -1.89945e-05
4.37293e-07 -1.01946e-06 -1.62072e-05
5.49842e-07 -9.32865e-07 -1.604e-05
5.06292e-07 -9.69207e-07 -1.47072e-05
7.38434e-07 -1.03899e-06 -1.3532e-05
8.44664e-07 -1.28075e-06 -1.01704e-05
7.46237e-07 -1.24411e-06 -7.84645e-06
6.75674e-07 -1.34943e-06 -5.06195e-06
7.52742e-07 -1.0029e-06 -5.02437e-06
1.8456e-07 -1.07939e-06 -3.83367e-06
8.00805e-07 -9.82445e-07 -3.80614e-06
5.18594e-07 -7.77961e-07 -1.66404e-06
6.60497e-07 -9.41222e-07 -1.39923e-07
6.24881e-07 -8.89131e-07 1.17638e-06
3.52111e-07 -1.21644e-06 2.35414e-06
3.00324e-07 -9.06917e-07 2.97425e-06
5.35989e-07 -1.16257e-06 4.96334e-06
3.45841e-07 -1.63748e-06 4.96475e-06
0 0 0
0 0 0
2.89083e-08 1.1594e-07 -8.17057e-07
4.75433e-07 -2.88575e-08 -5.34576e-06
3.68215e-07 6.69786e-08 -1.43538e-05
2.46198e-07 3.31934e-07 -2.99338e-05
7.39331e-07 9.68998e-08 -4.54861e-05
7.21406e-07 3.6143e-07 -6.16659e-05
7.87781e-07 2.85039e-07 -7.9453e-05
6.70332e-07 7.46592e-08 -0.000100307
1.03106e-06 -9.46079e-08 -0.000121848
6.35842e-07 -3.55327e-07 -0.000143023
7.67018e-07 -4.66789e-07 -0.000165959
1.06433e-06 -5.23862e-07 -0.000188988
8.16219e-07 -5.98471e-07 -0.000218288
8.29179e-07 -9.33053e-07 -0.00024279
7.3032e-07 -1.15703e-06 -0.000267896
9.97494e-07 -1.30294e-06 -0.000288714
1.26483e-06 -1.26248e-06 -0.000313182
1.73129e-06 -2.31049e-06 -0.000331102
6.17542e-07 -1.36609e-06 -0.000342494
1.30616e-06 -1.43822e-06 -0.000346416
1.02213e-06 -1.45983e-06 -0.00035244
1.27091e-06 -1.36827e-06 -0.000354835
1.02932e-06 -1.25186e-06 -0.000357075
1.30749e-06 -1.16526e-06 -0.000355801
1.2615e-06 -8.8311e-07 -0.000352383
1.08745e-06 -8.69949e-07 -0.000346051
1.03504e-06 -6.8855e-07 -0.000341346
1.13106e-06 -8.00814e-07 -0.000330569
1.28849e-06 -6.94298e-07 -0.000321116
1.43179e-06 -6.35592e-07 -0.000305054
1.37552e-06 -4.4094e-07 -0.000293182
1.35376e-06 -9.67112e-07 -0.000276656
1.26382e-06 -6.13358e-07 -0.000261911
1.42527e-06 -9.36578e-07 -0.000240938
1.38054e-06 -4.95009e-07 -0.000222781
1.28646e-06 -1.3173e-06 -0.000201622
1.2406e-06 -1.0713e-06 -0.000183186
1.11696e-06 -1.468e-06 -0.000161987
8.94533e-07 -1.00657e-06 -0.000141222
9.42252e-07 -1.96807e-06 -0.000118124
1.23893e-06 -1.40093e-06 -9.86325e-05
8.84232e-07 -2.3009e-06 -8.13698e-05
6.23392e-07 -1.66888e-06 -6.64529e-05
9.09822e-07 -2.10129e-06 -5.16887e-05
8.56451e-07 -1.69315e-06 -3.72666e-05
7.92209e-07 -2.05614e-06 -2.39135e-05
8.25964e-07 -1.81801e-06 -1.04215e-05
8.22136e-07 -1.99644e-06 -9.47086e-07
8.00471e-07 -1.92013e-06 8.89235e-06
7.15796e-07 -1.57553e-06 1.45126e-05
7.92887e-07 -1.73542e-06 1.93111e-05
5.94804e-07 -1.56434e-06 2.14255e-05
9.36368e-07 -1.75168e-06 2.53274e-05
8.08362e-07 -1.75388e-06 2.4251e-05
7.99854e-07 -1.63466e-06 2.43853e-05
5.96821e-07 -1.52136e-06 2.13463e-05
5.74073e-07 -1.55469e-06 1.87653e-05
5.247e-07 -1.4294e-06 1.54751e-05
3.63054e-07 -1.41128e-06 1.28124e-05
6.53125e-07 -1.57335e-06 8.5634e-06
2.39233e-07 -1.54355e-06 7.01422e-06
0 0 0
0 0 0
-3.49472e-07 1.01721e-07 -7.8598e-07
8.30677e-08 -2.92432e-07 -2.5791e-06
-3.59938e-07 5.14806e-09 -4.96898e-06
-2.12584e-08 -3.73199e-07 -6.82333e-06
-2.41563e-07 -2.14282e-07 -5.53475e-06
1.95706e-07 -3.42124e-08 -5.38971e-06
-1.67261e-07 -1.31534e-07 -2.72796e-06
1.45563e-07 -1.67318e-07 -4.91904e-06
2.19879e-07 1.41787e-08 -5.42436e-06
5.09743e-07 1.39329e-07 -1.00208e-05
4.40651e-08 -1.63129e-07 -1.12528e-05
5.0465e-07 1.55945e-07 -1.44999e-05
6.9127e-08 5.50853e-09 -1.4729e-05
5.28519e-07 1.86259e-07 -1.62489e-05
3.41832e-07 -2.82841e-07 -1.65435e-05
5.32187e-07 1.31837e-08 -1.82393e-05
3.06227e-07 -7.15465e-08 -1.81918e-05
2.79669e-07 7.42133e-08 -1.97541e-05
3.07842e-07 1.02647e-07 -2.17996e-05
2.06877e-07 -8.74349e-08 -2.46769e-05
2.19717e-07 -2.22867e-07 -2.54516e-05
3.10282e-07 -3.76203e-08 -2.55795e-05
-1.76006e-07 -3.04661e-07 -2.31914e-05
3.60409e-07 -2.7427e-07 -2.3421e-05
-4.23367e-08 -4.70917e-07 -2.31285e-05
-4.12809e-09 -7.74933e-07 -2.6045e-05
2.14805e-07 -6.42376e-07 -2.66997e-05
1.26312e-07 -6.28063e-07 -2.99919e-05
1.65562e-07 -7.17196e-07 -3.01349e-05
4.49329e-07 -6.45904e-07 -3.26497e-05
1.48643e-07 -3.41106e-07 -3.17256e-05
3.12665e-07 -4.85199e-07 -3.27458e-05
4.95648e-07 -3.84109e-07 -3.14683e-05
-1.23104e-07 -6.40845e-07 -3.26492e-05
6.56211e-07 -4.27712e-07 -3.17916e-05
-1.97106e-07 -6.27056e-07 -3.35527e-05
6.42792e-07 -2.93353e-07 -3.14395e-05
3.28664e-07 -6.13801e-07 -3.07749e-05
1.05722e-06 -4.49288e-07 -2.63997e-05
4.77072e-07 -8.68885e-07 -2.52135e-05
7.11776e-07 -5.4412e-07 -2.35378e-05
9.34135e-08 -9.17053e-07 -2.4408e-05
8.98601e-07 -6.44908e-07 -2.30797e-05
3.48055e-07 -8.0027e-07 -2.10494e-05
9.13093e-07 -7.77057e-07 -1.64545e-05
5.33966e-07 -7.45508e-07 -1.44806e-05
5.82967e-07 -7.60555e-07 -1.26129e-05
5.69393e-07 -8.62225e-07 -1.2747e-05
8.14834e-07 -6.28164e-07 -1.08253e-05
7.45986e-07 -6.0681e-07 -9.45783e-06
7.83818e-07 -8.97435e-07 -6.53443e-06
6.6173e-07 -1.00936e-06 -5.23136e-06
3.92647e-07 -1.07352e-06 -3.23582e-06
7.70518e-07 -1.09951e-06 -2.98818e-06
3.03474e-07 -9.08767e-07 -1.52295e-06
4.3263e-07 -8.99472e-07 -1.40352e-06
4.94509e-07 -9.20566e-07 -5.91234e-07
3.79295e-07 -1.19164e-06 3.9477e-07
4.91249e-07 -1.35393e-06 1.28578e-06
3.90827e-07 -1.31101e-06 2.62689e-06
5.1616e-07 -1.22026e-06 3.8738e-06
2.51559e-07 -1.2057e-06 5.34998e-06
1.63981e-07 -1.42702e-06 5.56487e-06
0 0 0
0 0 0
6.86573e-08 1.69096e-07 -8.42626e-07
1.95439e-07 1.78076e-07 -4.23676e-06
5.49836e-08 3.48358e-07 -1.39937e-05
1.98383e-07 1.65922e-07 -2.78239e-05
2.54554e-07 5.13371e-07 -4.54002e-05
3.86283e-07 3.27486e-07 -6.27455e-05
4.20627e-07 5.89355e-07 -8.1252e-05
1.03572e-06 -3.41775e-07 -0.000102061
6.57937e-07 2.93112e-07 -0.000121974
8.48927e-07 -5.14988e-07 -0.000143263
5.82458e-07 8.8422e-09 -0.000165033
8.21492e-07 -7.2589e-07 -0.000191744
1.07439e-06 -2.22873e-07 -0.000217387
1.14151e-06 -1.19673e-06 -0.000245858
1.33192e-06 -5.90147e-07 -0.000268728
1.52295e-06 -1.51162e-06 -0.000293656
1.17315e-06 -4.49394e-07 -0.000319037
1.06098e-06 -2.25229e-06 -0.000342215
1.28705e-06 -3.16515e-07 -0.000349246
1.29235e-06 -1.41361e-06 -0.00035521
1.12476e-06 -1.02412e-06 -0.000359731
1.11545e-06 -1.66415e-06 -0.000362343
1.24148e-06 -1.0475e-06 -0.000362863
1.27078e-06 -1.05349e-06 -0.000360867
1.39716e-06 -5.25983e-07 -0.00035685
1.12977e-06 -7.77634e-07 -0.000352892
1.65896e-06 -7.70742e-07 -0.000345637
1.35216e-06 -6.30058e-07 -0.00033663
1.59089e-06 -8.84569e-07 -0.000321937
1.52586e-06 -6.70887e-07 -0.000309842
1.90448e-06 -5.56054e-07 -0.00029383
1.58043e-06 -6.92837e-07 -0.0002792
1.91766e-06 -5.34815e-07 -0.000262124
1.49902e-06 -6.33795e-07 -0.000242376
1.47197e-06 -8.12444e-07 -0.000222172
1.18502e-06 -1.25603e-06 -0.000202001
1.42565e-06 -1.01116e-06 -0.000181561
9.09938e-07 -1.23464e-06 -0.000160291
1.03428e-06 -1.31849e-06 -0.000138304
7.65248e-07 -1.6836e-06 -0.000115271
8.66582e-07 -2.02908e-06 -9.49565e-05
6.04532e-07 -1.86048e-06 -7.75921e-05
8.60229e-07 -1.89673e-06 -6.11843e-05
5.80315e-07 -1.84964e-06 -4.61347e-05
8.65786e-07 -2.10207e-06 -3.18418e-05
8.84343e-07 -1.75881e-06 -1.78581e-05
7.9324e-07 -1.88322e-06 -5.95757e-06
5.59619e-07 -1.95106e-06 5.64861e-06
5.36442e-07 -1.88548e-06 1.39753e-05
5.27862e-07 -2.03689e-06 2.0079e-05
5.63437e-07 -1.60808e-06 2.3745e-05
8.61211e-07 -2.11773e-06 2.75073e-05
5.81226e-07 -1.79904e-06 2.93207e-05
9.8749e-07 -1.9491e-06 3.06459e-05
5.79961e-07 -1.69916e-06 2.78949e-05
6.47053e-07 -1.72252e-06 2.66833e-05
5.01764e-07 -1.70828e-06 2.13678e-05
3.47617e-07 -1.20554e-06 1.85168e-05
5.75207e-07 -1.37563e-06 1.23794e-05
2.72241e-07 -1.47027e-06 9.86569e-06
6.50025e-07 -1.24022e-06 6.95874e-06
1.28381e-07 -1.61948e-06 7.2381e-06
0 0 0
0 0 0
-1.2597e-08 2.43141e-08 -3.37992e-07
5.63336e-08 -3.67775e-07 -2.11086e-06
-1.45513e-07 -3.09267e-08 -4.54457e-06
-2.51806e-07 -4.60823e-07 -6.39874e-06
-1.55e-07 -3.10229e-07 -7.04681e-06
-2.04207e-07 -4.02228e-07 -5.02229e-06
4.60867e-07 -5.13756e-07 -4.07089e-06
-1.99885e-08 -4.36874e-07 -3.3867e-06
2.45295e-07 -3.05327e-07 -6.53035e-06
1.37133e-07 -5.34331e-07 -8.98699e-06
2.28337e-07 -1.41461e-07 -1.29192e-05
3.20935e-07 -3.46068e-07 -1.40285e-05
2.15511e-07 1.91121e-07 -1.48064e-05
4.02771e-07 -1.87466e-07 -1.57246e-05
2.65114e-07 3.31127e-07 -1.62887e-05
2.94448e-07 -1.50293e-07 -1.72148e-05
-5.0683e-08 1.97012e-07 -1.80894e-05
4.32711e-07 2.38927e-07 -1.9676e-05
-4.89077e-08 2.30546e-08 -2.18688e-05
-4.27071e-08 6.96273e-08 -2.40628e-05
5.30906e-07 -7.90061e-08 -2.60296e-05
5.04555e-08 -8.84121e-08 -2.45313e-05
4.50938e-07 -1.45523e-07 -2.38037e-05
-6.16255e-08 -3.4519e-07 -2.11795e-05
4.72651e-07 -4.37954e-07 -2.269e-05
-6.82712e-08 -5.83373e-07 -2.22914e-05
3.90408e-07 -6.06659e-07 -2.64563e-05
-1.88228e-08 -5.15508e-07 -2.71289e-05
4.17018e-07 -6.28338e-07 -3.20872e-05
-3.23469e-08 -5.29096e-07 -3.18642e-05
3.93489e-07 -3.20803e-07 -3.35841e-05
2.06981e-08 -3.86798e-07 -3.11256e-05
3.7286e-07 -4.66401e-07 -3.16922e-05
-3.63148e-08 -4.83939e-07 -2.9475e-05
2.66275e-07 -5.61955e-07 -3.19325e-05
2.66871e-07 -2.44171e-07 -3.01939e-05
3.81786e-07 -7.12442e-07 -3.14502e-05
3.67873e-07 -2.34644e-07 -2.75852e-05
6.32052e-07 -7.24382e-07 -2.63345e-05
4.55877e-07 -5.6091e-07 -2.25676e-05
8.4294e-07 -6.57065e-07 -2.25794e-05
5.62922e-07 -6.06483e-07 -2.18654e-05
5.75149e-07 -7.86164e-07 -2.10876e-05
5.35563e-07 -1.03226e-06 -1.81584e-05
7.07661e-07 -8.36665e-07 -1.50107e-05
5.23058e-07 -1.20922e-06 -1.26342e-05
8.79225e-07 -1.0778e-06 -1.12998e-05
6.56168e-07 -1.02585e-06 -1.06538e-05
6.74125e-07 -1.07963e-06 -9.67849e-06
3.82326e-07 -1.10857e-06 -7.95043e-06
1.00307e-06 -1.23248e-06 -6.39662e-06
5.43676e-07 -1.10438e-06 -3.85365e-06
7.03305e-07 -1.06169e-06 -2.92459e-06
4.43632e-07 -1.14106e-06 -9.23479e-07
4.47144e-07 -8.93191e-07 -1.46254e-06
4.70794e-07 -1.14486e-06 -3.35363e-07
3.71015e-07 -9.48234e-07 -1.39467e-06
6.38917e-07 -1.01185e-06 -3.92133e-07
3.34121e-07 -1.08982e-06 -4.82837e-07
4.99071e-07 -1.33246e-06 1.82544e-06
3.0792e-07 -1.23775e-06 3.74808e-06
3.48768e-07 -1.47594e-06 6.03218e-06
3.15463e-07 -1.4507e-06 6.45626e-06
3.10628e-07 -1.40302e-06 6.77302e-06
0 0 0
0 0 0
1.81639e-07 2.72674e-08 -8.24589e-07
2.88107e-07 1.53525e-07 -4.63371e-06
3.37677e-07 4.6505e-07 -1.26032e-05
3.43916e-07 2.03119e-07 -2.79442e-05
4.60761e-07 4.20602e-07 -4.48721e-05
4.37895e-07 5.57883e-07 -6.29441e-05
7.29184e-07 2.2344e-07 -8.17849e-05
4.68665e-07 2.98253e-07 -0.000102184
8.66416e-07 1.58189e-07 -0.000121798
6.23764e-07 -8.56208e-08 -0.000142358
8.76583e-07 -1.85619e-07 -0.000165137
7.30874e-07 -5.76752e-07 -0.000189421
7.29219e-07 -5.60954e-07 -0.000219362
7.57416e-07 -7.64907e-07 -0.000245198
8.64315e-07 -1.07135e-06 -0.000271851
1.0779e-06 -8.98032e-07 -0.000295997
6.85278e-07 -1.41891e-06 -0.000323171
1.81685e-06 -2.13945e-06 -0.000343787
1.77657e-06 -8.45764e-07 -0.000355554
1.18444e-06 -1.35939e-06 -0.000359988
1.29433e-06 -1.31818e-06 -0.000365766
1.03029e-06 -9.5407e-07 -0.00036803
1.12825e-06 -1.05902e-06 -0.000367501
1.08338e-06 -7.05933e-07 -0.000365465
1.13922e-06 -8.95116e-07 -0.000360617
1.38835e-06 -6.26493e-07 -0.000355378
1.31669e-06 -6.36253e-07 -0.000348187
1.3301e-06 -8.89484e-07 -0.000336606
1.31165e-06 -4.48558e-07 -0.000324537
1.39843e-06 -8.73474e-07 -0.000309375
1.16297e-06 -2.27974e-07 -0.000296173
1.50985e-06 -6.09543e-07 -0.000280609
1.27945e-06 -6.14453e-07 -0.000263098
1.48165e-06 -7.0703e-07 -0.000242693
1.41028e-06 -6.99792e-07 -0.00022159
1.49127e-06 -1.27673e-06 -0.000201021
1.07366e-06 -1.05572e-06 -0.00017857
1.10594e-06 -1.42963e-06 -0.000157616
7.66e-07 -1.24948e-06 -0.000133855
8.27902e-07 -1.80653e-06 -0.000111502
9.88561e-07 -1.63087e-06 -9.04549e-05
9.32308e-07 -2.06171e-06 -7.39449e-05
8.94007e-07 -2.11018e-06 -5.67186e-05
7.46151e-07 -2.02448e-06 -4.09927e-05
7.1513e-07 -1.86045e-06 -2.55573e-05
7.57422e-07 -2.19178e-06 -1.29579e-05
9.43702e-07 -1.64007e-06 8.90227e-08
6.27465e-07 -2.02542e-06 9.90834e-06
4.94254e-07 -2.08823e-06 1.91659e-05
5.97449e-07 -2.02439e-06 2.39005e-05
6.90086e-07 -2.13262e-06 2.74874e-05
8.80436e-07 -1.67285e-06 3.07273e-05
7.94433e-07 -2.05686e-06 3.45989e-05
8.7542e-07 -1.63435e-06 3.37767e-05
9.19058e-07 -1.84305e-06 3.29686e-05
5.5206e-07 -1.7613e-06 2.91384e-05
7.61675e-07 -1.55384e-06 2.56054e-05
7.07158e-07 -1.77733e-06 1.98024e-05
5.53915e-07 -1.28838e-06 1.58438e-05
7.32728e-07 -1.53576e-06 1.00643e-05
2.68416e-07 -1.5459e-06 9.35508e-06
4.98873e-07 -1.65147e-06 7.42666e-06
5.87602e-07 -1.31154e-06 7.6639e-06
0 0 0
0 0 0
-1.81192e-07 -1.91934e-10 -3.5812e-07
1.1043e-07 1.29252e-07 -1.28117e-06
-2.9072e-07 -1.83336e-07 -3.34248e-06
1.11321e-07 -2.36186e-07 -5.56621e-06
-1.06063e-07 -3.08446e-07 -5.85468e-06
2.02634e-07 -2.14027e-07 -6.532e-06
2.3932e-07 -3.5054e-07 -4.27867e-06
1.87912e-07 8.14198e-08 -5.69778e-06
1.0894e-07 -1.82127e-07 -5.90833e-06
3.09387e-07 -1.75351e-07 -1.01064e-05
-8.33918e-08 -2.96395e-07 -1.14918e-05
6.41048e-07 7.94164e-09 -1.3886e-05
9.41698e-08 -1.67633e-07 -1.4038e-05
5.94044e-07 1.49236e-07 -1.48271e-05
1.18502e-07 -3.99451e-08 -1.53025e-05
6.38142e-07 3.92909e-07 -1.72003e-05
4.34415e-08 -1.11522e-08 -1.75778e-05
2.78718e-07 2.74907e-07 -1.97081e-05
-1.06484e-07 -7.76349e-08 -2.12253e-05
1.81695e-07 -1.30898e-07 -2.4024e-05
-1.57389e-09 -1.31669e-07 -2.4269e-05
5.95694e-08 -1.26261e-07 -2.49947e-05
-2.27062e-08 -1.69856e-07 -2.20813e-05
1.96882e-07 -7.82472e-08 -2.23356e-05
1.22223e-07 -4.34791e-07 -2.08315e-05
2.92892e-07 -2.97804e-07 -2.36682e-05
1.91642e-07 -5.72344e-07 -2.42183e-05
8.6065e-08 -6.67337e-07 -2.83842e-05
1.14569e-07 -6.15012e-07 -2.95099e-05
1.78719e-08 -8.04828e-07 -3.30098e-05
1.1267e-07 -6.59668e-07 -3.21959e-05
-3.93575e-08 -4.617e-07 -3.23577e-05
3.8084e-07 -4.78926e-07 -2.97156e-05
-4.27482e-08 -6.02814e-07 -2.99295e-05
6.17588e-07 -4.84053e-07 -2.83897e-05
2.1792e-08 -6.86939e-07 -2.9752e-05
9.07776e-07 -6.37704e-07 -2.73176e-05
-5.73774e-08 -5.00174e-07 -2.64187e-05
6.86443e-07 -6.44505e-07 -2.25944e-05
3.21045e-08 -6.42473e-07 -2.09254e-05
9.47398e-07 -7.44205e-07 -1.87698e-05
3.62793e-07 -6.11433e-07 -1.76416e-05
1.05738e-06 -6.86478e-07 -1.63157e-05
3.20809e-07 -6.12878e-07 -1.44064e-05
9.77725e-07 -9.6463e-07 -1.24863e-05
6.26291e-07 -7.7365e-07 -1.03776e-05
7.51017e-07 -8.34197e-07 -9.55211e-06
6.43274e-07 -7.62805e-07 -7.57389e-06
6.69551e-07 -9.65589e-07 -6.92484e-06
4.5554e-07 -9.31687e-07 -4.69481e-06
6.25433e-07 -9.15614e-07 -3.69861e-06
8.04179e-07 -1.13271e-06 -1.39929e-06
2.97541e-07 -7.96335e-07 -2.78058e-07
7.64579e-07 -9.56485e-07 1.23966e-06
2.54453e-07 -1.14184e-06 1.00969e-06
7.13435e-07 -8.17296e-07 1.0882e-06
4.00516e-07 -1.15529e-06 -4.60711e-07
4.84235e-07 -1.0516e-06 6.21281e-07
3.28727e-07 -1.16543e-06 2.00532e-09
6.22871e-07 -1.38776e-06 2.34278e-06
2.67111e-07 -1.29872e-06 3.24231e-06
6.87661e-07 -1.32219e-06 6.41143e-06
3.72586e-07 -1.27153e-06 6.50592e-06
5.11415e-07 -1.53445e-06 7.3205e-06
4.86037e-07 -1.36983e-06 7.77563e-06
0 0 0
0 0 0
-2.67129e-09 1.64342e-07 -1.2297e-06
7.6681e-08 3.29397e-07 -5.4289e-06
2.15381e-07 4.00959e-07 -1.4868e-05
2.8932e-07 2.71725e-07 -2.82903e-05
2.73996e-07 7.99957e-07 -4.46052e-05
6.60732e-07 1.7325e-07 -6.15136e-05
5.00445e-07 6.72872e-07 -8.03543e-05
1.0838e-06 -5.27364e-08 -0.000102123
6.73603e-07 5.28919e-07 -0.000122367
9.74237e-07 -1.59157e-07 -0.000143084
6.52895e-07 5.10651e-08 -0.00016463
1.0422e-06 -3.82049e-07 -0.000191075
8.49235e-07 -4.04945e-07 -0.000218014
1.32676e-06 -1.07512e-06 -0.000247253
1.30294e-06 -5.42839e-07 -0.000272228
1.12682e-06 -1.23167e-06 -0.000299708
1.74539e-06 -1.40429e-06 -0.000324071
1.19224e-06 -1.78569e-06 -0.000345594
1.28103e-06 -1.67355e-06 -0.000356201
1.74188e-06 -1.37181e-06 -0.000364898
1.59973e-06 -1.22653e-06 -0.000369163
1.57366e-06 -1.38355e-06 -0.000372085
1.53165e-06 -5.5355e-07 -0.000371571
1.45802e-06 -7.6936e-07 -0.000367758
1.11449e-06 -5.50595e-07 -0.000363321
1.72224e-06 -6.40607e-07 -0.000359012
1.71003e-06 -3.47627e-07 -0.000351815
1.92298e-06 -3.37949e-07 -0.000340955
1.68461e-06 -6.29035e-07 -0.000325906
1.85669e-06 -2.6503e-07 -0.000312665
1.67808e-06 -6.033e-07 -0.000297252
1.82818e-06 -5.78333e-07 -0.000280707
1.82114e-06 -6.43218e-07 -0.000263133
1.59348e-06 -6.00977e-07 -0.000240025
1.52709e-06 -8.04632e-07 -0.000219939
1.42236e-06 -1.06411e-06 -0.000196822
1.4168e-06 -1.08526e-06 -0.000176347
1.23104e-06 -1.32444e-06 -0.000152131
9.62765e-07 -1.62765e-06 -0.000131065
8.55481e-07 -1.58319e-06 -0.000106043
7.84343e-07 -2.16197e-06 -8.67855e-05
6.42339e-07 -1.60885e-06 -6.79897e-05
7.68216e-07 -2.32275e-06 -5.08814e-05
4.59771e-07 -2.00623e-06 -3.39059e-05
6.08e-07 -2.11998e-06 -1.94909e-05
3.7257e-07 -1.88438e-06 -6.24089e-06
7.41109e-07 -1.91017e-06 4.88856e-06
7.24931e-07 -2.16211e-06 1.56338e-05
5.91303e-07 -2.06111e-06 2.3416e-05
7.10157e-07 -2.13991e-06 2.7712e-05
6.84968e-07 -1.99208e-06 3.07052e-05
5.23941e-07 -2.28435e-06 3.37727e-05
4.74114e-07 -1.78623e-06 3.65232e-05
4.6876e-07 -2.06819e-06 3.79472e-05
3.72496e-07 -1.66721e-06 3.58198e-05
4.33378e-07 -1.88928e-06 3.4169e-05
4.81512e-07 -1.67594e-06 2.84156e-05
3.39951e-07 -1.48583e-06 2.42256e-05
3.7273e-07 -1.53486e-06 1.60898e-05
1.95356e-07 -1.42641e-06 1.26298e-05
2.35177e-07 -1.43246e-06 9.08868e-06
4.38435e-08 -1.62895e-06 9.67379e-06
-3.3238e-08 -1.47124e-06 8.24091e-06
2.54912e-07 -1.3975e-06 7.69443e-06
0 0 0
0 0 0
-1.52104e-07 -3.06438e-08 6.03415e-08
-1.63255e-07 -2.48434e-07 -6.67524e-07
1.40957e-07 -8.68529e-08 -1.81887e-06
-3.45991e-07 -2.6027e-07 -3.47719e-06
4.11352e-07 -3.05809e-07 -5.62205e-06
-1.29147e-07 -3.75518e-07 -5.80193e-06
5.23077e-07 -2.69642e-07 -6.93289e-06
1.32126e-07 -4.58114e-07 -6.02412e-06
2.96317e-07 -5.74137e-08 -8.60934e-06
1.28797e-07 -2.85106e-07 -8.71284e-06
2.37926e-07 -7.92798e-08 -1.18936e-05
2.95266e-07 -2.72745e-07 -1.13658e-05
-7.09275e-08 5.88433e-08 -1.29162e-05
3.47915e-07 -9.00941e-09 -1.28792e-05
-1.07377e-07 3.41057e-07 -1.4981e-05
3.95205e-07 7.14286e-08 -1.55921e-05
1.77115e-07 3.40705e-07 -1.84219e-05
1.40474e-07 3.29508e-08 -1.92149e-05
7.25679e-08 -2.25953e-08 -2.14442e-05
-8.78428e-10 -2.73689e-08 -2.13228e-05
5.6447e-09 -1.10263e-07 -2.31197e-05
-1.96734e-07 -2.82233e-07 -2.17604e-05
5.31294e-07 -3.20775e-07 -2.32766e-05
-1.54129e-07 -5.92311e-07 -2.18906e-05
6.55945e-07 -2.06203e-07 -2.43741e-05
1.68107e-07 -7.19676e-07 -2.32221e-05
3.52127e-07 -3.35589e-07 -2.59256e-05
-1.32725e-07 -5.38185e-07 -2.48544e-05
3.41169e-07 -4.46939e-07 -2.8392e-05
-2.55451e-07 -5.33124e-07 -2.85117e-05
2.08804e-07 -4.68058e-07 -3.09257e-05
-1.85842e-07 -3.11351e-07 -2.93802e-05
1.65617e-07 -4.84864e-07 -2.94316e-05
8.60471e-08 -7.08973e-07 -2.62166e-05
2.62352e-07 -3.95665e-07 -2.7047e-05
2.40342e-07 -4.17271e-07 -2.44098e-05
4.3983e-07 -3.9629e-07 -2.50906e-05
6.09142e-07 -3.55202e-07 -2.21985e-05
4.79408e-07 -4.23321e-07 -2.1673e-05
6.68788e-07 -6.0847e-07 -1.87372e-05
5.0137e-07 -3.73969e-07 -1.66355e-05
5.56069e-07 -4.76773e-07 -1.46736e-05
9.26801e-07 -7.06225e-07 -1.20477e-05
7.6269e-07 -8.16509e-07 -1.14762e-05
1.06878e-06 -8.13659e-07 -9.70344e-06
5.4622e-07 -8.1603e-07 -1.03052e-05
7.5631e-07 -9.67049e-07 -7.86672e-06
3.57972e-07 -6.95633e-07 -7.69791e-06
6.97652e-07 -1.02821e-06 -4.26726e-06
5.66535e-07 -7.59849e-07 -3.44313e-06
6.78272e-07 -9.07607e-07 4.13806e-08
3.92248e-07 -6.61404e-07 9.69766e-07
4.67725e-07 -9.39652e-07 3.48193e-06
7.02296e-07 -8.94373e-07 3.03699e-06
4.56786e-07 -9.85966e-07 3.62047e-06
7.36746e-07 -1.17383e-06 2.00424e-06
5.49344e-07 -7.90363e-07 2.24251e-06
4.03817e-07 -1.1355e-06 5.22294e-07
4.94491e-07 -8.0022e-07 1.80794e-06
7.25758e-07 -1.20492e-06 8.95632e-07
2.69451e-07 -1.16875e-06 4.34027e-06
5.87797e-07 -1.31926e-06 3.92237e-06
3.15741e-07 -1.28816e-06 7.01252e-06
4.82225e-07 -1.41713e-06 5.24992e-06
3.72757e-07 -1.24121e-06 6.84648e-06
2.27029e-07 -1.66123e-06 7.53879e-06
0 0 0
0 0 0
-9.07742e-08 1.56991e-08 -1.48818e-06
1.72383e-07 3.17832e-08 -5.51642e-06
2.29292e-07 2.59175e-07 -1.42227e-05
2.53488e-07 3.2489e-07 -2.81551e-05
3.96588e-07 9.22668e-08 -4.31413e-05
3.76464e-07 7.10107e-07 -5.84209e-05
7.03772e-07 3.37345e-08 -7.74128e-05
4.7704e-07 4.60695e-07 -9.98317e-05
8.64667e-07 9.82956e-08 -0.000121849
4.96238e-07 2.95859e-07 -0.0001433
6.59541e-07 -3.44801e-07 -0.000164843
5.17233e-07 -3.63264e-07 -0.000188919
8.81195e-07 -3.59895e-07 -0.000218787
9.16088e-07 -6.12413e-07 -0.00024527
1.00862e-06 -9.89823e-07 -0.000272198
1.46107e-06 -1.00749e-06 -0.000296567
1.52502e-06 -1.36183e-06 -0.000324102
1.69564e-06 -1.33889e-06 -0.000346249
1.48138e-06 -1.3888e-06 -0.000360266
1.54794e-06 -1.8353e-06 -0.000366698
1.55632e-06 -1.3149e-06 -0.000372227
1.14348e-06 -7.99506e-07 -0.000374226
1.63853e-06 -8.36063e-07 -0.000373647
1.30133e-06 -6.3233e-07 -0.000371553
1.43037e-06 -5.24452e-07 -0.00036681
1.27321e-06 -4.56488e-07 -0.000363086
1.71219e-06 -1.17312e-07 -0.000356366
1.37788e-06 -2.95598e-07 -0.000345104
1.55131e-06 -1.69089e-07 -0.000331274
1.5144e-06 -5.3119e-07 -0.000314822
1.891e-06 -2.51735e-07 -0.0002986
1.57382e-06 -5.75964e-07 -0.00028074
1.63567e-06 -5.7072e-07 -0.000258596
1.65328e-06 -9.04613e-07 -0.000235855
1.54444e-06 -1.13588e-06 -0.000211846
1.33953e-06 -7.77945e-07 -0.000191901
1.19192e-06 -1.23114e-06 -0.00016767
7.84547e-07 -1.25913e-06 -0.000147347
6.68649e-07 -1.5057e-06 -0.000122689
9.34785e-07 -1.80962e-06 -0.000101636
8.49422e-07 -1.91462e-06 -8.01855e-05
8.30093e-07 -2.29077e-06 -6.32959e-05
9.73723e-07 -1.75838e-06 -4.41627e-05
9.48462e-07 -2.29912e-06 -2.72498e-05
8.16108e-07 -2.0773e-06 -1.25615e-05
7.03536e-07 -2.30924e-06 -8.0381e-07
6.93935e-07 -2.20047e-06 1.08091e-05
6.47774e-07 -2.10949e-06 2.06601e-05
8.73104e-07 -1.93962e-06 2.80572e-05
8.21963e-07 -2.13014e-06 3.23492e-05
7.79156e-07 -2.3696e-06 3.37032e-05
8.25247e-07 -2.04201e-06 3.73354e-05
7.14538e-07 -2.12742e-06 3.92789e-05
5.41338e-07 -1.85185e-06 3.94076e-05
7.06231e-07 -1.78016e-06 3.75076e-05
8.18982e-07 -1.98227e-06 3.4644e-05
5.98361e-07 -1.63715e-06 3.06044e-05
6.54468e-07 -1.82766e-06 2.46165e-05
6.87372e-07 -1.39916e-06 1.97006e-05
5.06812e-07 -1.83575e-06 1.28512e-05
3.76793e-07 -1.33083e-06 1.19015e-05
5.0188e-07 -1.52028e-06 9.72602e-06
4.2256e-07 -1.3959e-06 9.66853e-06
7.52079e-07 -1.59476e-06 8.76513e-06
7.17843e-07 -1.32401e-06 8.70497e-06
0 0 0
0 0 0
1.88107e-07 -3.20442e-08 3.5828e-08
-2.95674e-08 -1.13133e-07 3.85821e-07
1.9318e-07 -2.60811e-07 -1.10102e-08
3.69619e-07 -3.38597e-07 -8.32554e-07
5.80567e-08 -4.88945e-07 -2.11208e-06
2.38178e-07 -6.8053e-07 -5.0803e-06
1.23971e-07 -3.64784e-07 -6.08598e-06
1.62436e-07 -2.48536e-07 -8.8627e-06
8.886e-08 -3.25647e-07 -8.58711e-06
1.61424e-07 -6.08844e-08 -1.05739e-05
-4.65318e-08 -3.00189e-07 -9.89422e-06
4.08417e-07 5.53691e-08 -1.1178e-05
1.54013e-07 -1.05351e-07 -1.1508e-05
4.41679e-07 4.15043e-07 -1.27824e-05
1.75234e-07 7.97143e-08 -1.33658e-05
5.50852e-07 3.57572e-07 -1.5746e-05
-1.79169e-07 3.23127e-07 -1.61655e-05
5.84399e-07 2.41849e-07 -1.87051e-05
-3.35891e-07 1.61056e-08 -1.86397e-05
1.71485e-07 -4.39571e-08 -2.04659e-05
3.07835e-08 -2.36901e-07 -1.93336e-05
8.68947e-08 -4.464e-07 -2.18375e-05
1.70196e-07 -3.46511e-07 -2.10106e-05
2.17226e-07 -1.86372e-07 -2.48192e-05
1.95844e-07 -6.63765e-07 -2.39644e-05
-6.79462e-08 -5.41539e-08 -2.6398e-05
1.91463e-07 -5.50791e-07 -2.35511e-05
5.54644e-08 -2.62711e-07 -2.43325e-05
1.44618e-07 -5.71866e-07 -2.25053e-05
4.74634e-08 -4.75524e-07 -2.54309e-05
7.34163e-08 -5.2055e-07 -2.58547e-05
-7.70246e-08 -5.33084e-07 -2.76272e-05
1.49774e-07 -3.266e-07 -2.57228e-05
-2.04422e-07 -3.39234e-07 -2.54338e-05
5.33786e-07 -4.93812e-07 -2.23068e-05
-1.4853e-07 -5.05388e-07 -2.21789e-05
8.59667e-07 -4.53237e-07 -1.95843e-05
1.99568e-07 -7.07678e-07 -1.96863e-05
8.57003e-07 -5.51858e-07 -1.82975e-05
-4.69419e-08 -4.75176e-07 -1.74563e-05
1.07734e-06 -7.30208e-07 -1.54601e-05
6.53752e-08 -6.03072e-07 -1.20894e-05
9.15292e-07 -7.95435e-07 -1.01696e-05
3.29742e-07 -6.8276e-07 -7.63623e-06
8.42832e-07 -5.37956e-07 -7.89347e-06
4.95328e-07 -6.54915e-07 -6.05763e-06
7.34657e-07 -6.41829e-07 -6.75093e-06
4.39398e-07 -8.729e-07 -3.72155e-06
8.06062e-07 -6.75323e-07 -3.39714e-06
4.58773e-07 -9.79839e-07 4.99419e-07
7.54785e-07 -6.67481e-07 1.66039e-06
7.33641e-07 -1.01537e-06 4.99106e-06
4.07111e-07 -8.76183e-07 5.34277e-06
7.15252e-07 -7.91224e-07 6.80111e-06
4.70027e-07 -9.56868e-07 5.31964e-06
7.82578e-07 -7.72435e-07 5.23714e-06
2.7114e-07 -1.24777e-06 2.46699e-06
8.68329e-07 -8.65143e-07 3.34492e-06
2.39125e-07 -1.34801e-06 9.83237e-07
4.90772e-07 -1.24417e-06 2.59144e-06
6.9048e-08 -1.33144e-06 1.00685e-06
4.96438e-07 -1.29784e-06 4.07792e-06
-6.31776e-08 -1.54441e-06 3.3522e-06
4.49966e-07 -1.15279e-06 6.69874e-06
4.6986e-07 -1.6257e-06 5.71625e-06
6.11305e-07 -1.17694e-06 6.50098e-06
4.31679e-07 -1.3862e-06 8.60984e-06
0 0 0
0 0 0
5.23614e-08 4.62717e-08 -1.05655e-06
-5.82091e-08 -1.51619e-08 -5.74352e-06
1.48762e-07 1.26949e-07 -1.42484e-05
4.36788e-07 1.46245e-07 -2.65066e-05
4.72505e-07 5.15594e-07 -3.98022e-05
2.94354e-07 1.82406e-07 -5.45711e-05
2.84281e-07 6.32252e-07 -7.31293e-05
7.27366e-07 3.27726e-07 -9.65557e-05
6.26442e-07 3.41974e-07 -0.000119411
7.25865e-07 1.77153e-08 -0.000140982
5.09876e-07 7.4133e-08 -0.00016247
7.13333e-07 -3.01147e-07 -0.000188174
8.8152e-07 -3.29084e-07 -0.000215303
8.41441e-07 -6.60024e-07 -0.000243758
1.22824e-06 -6.70399e-07 -0.000268189
1.34176e-06 -1.05431e-06 -0.000295097
1.35892e-06 -9.38196e-07 -0.000321626
2.32536e-06 -8.4641e-07 -0.000351312
3.01131e-06 -2.07378e-06 -0.00036768
1.28535e-06 -1.96922e-06 -0.000375259
9.23558e-07 -7.6621e-07 -0.00037445
1.52029e-06 -1.16037e-06 -0.000376258
1.29114e-06 -6.4774e-07 -0.000374701
1.39152e-06 -8.19655e-07 -0.000371748
1.06903e-06 -3.31662e-07 -0.000367901
1.62575e-06 -1.33981e-07 -0.000364781
1.48748e-06 -2.54885e-07 -0.000358001
1.76527e-06 -1.75433e-08 -0.000347142
1.68336e-06 -3.21895e-07 -0.00033127
1.75175e-06 -3.13763e-07 -0.000316037
1.84353e-06 -4.0269e-07 -0.000298214
1.78624e-06 -3.4544e-07 -0.000278319
1.66628e-06 -7.19977e-07 -0.000257103
1.62318e-06 -6.71357e-07 -0.000229337
1.55172e-06 -1.0239e-06 -0.000207471
1.41078e-06 -9.77074e-07 -0.000183355
1.3731e-06 -1.10845e-06 -0.000164056
1.30867e-06 -8.9905e-07 -0.000138842
1.02647e-06 -1.9243e-06 -0.000118569
1.00064e-06 -1.42942e-06 -9.29627e-05
9.7739e-07 -2.37799e-06 -7.51382e-05
7.98143e-07 -1.65741e-06 -5.50813e-05
4.88526e-07 -2.78208e-06 -3.72693e-05
3.65504e-07 -1.99073e-06 -1.90676e-05
6.4995e-07 -2.46524e-06 -6.63722e-06
3.72087e-07 -2.19454e-06 4.71956e-06
6.95811e-07 -2.11892e-06 1.48073e-05
4.13278e-07 -2.20338e-06 2.54119e-05
3.54557e-07 -2.35303e-06 3.25244e-05
6.43277e-07 -2.31986e-06 3.56968e-05
6.04221e-07 -1.97729e-06 3.80908e-05
7.85893e-07 -2.38405e-06 4.00094e-05
4.74848e-07 -1.84618e-06 4.22179e-05
4.99252e-07 -2.22357e-06 4.21094e-05
1.52777e-07 -1.70764e-06 3.94157e-05
2.02976e-07 -1.95786e-06 3.64585e-05
3.48438e-07 -1.65072e-06 3.13601e-05
1.74957e-07 -1.80244e-06 2.6884e-05
2.70595e-07 -1.71989e-06 1.89105e-05
2.51568e-07 -1.69673e-06 1.54211e-05
3.10558e-07 -1.34168e-06 1.17568e-05
2.6244e-07 -1.64185e-06 1.20796e-05
2.05543e-07 -1.12574e-06 1.02942e-05
2.43642e-07 -1.2995e-06 9.28242e-06
3.54957e-07 -1.23046e-06 8.97112e-06
3.71735e-07 -1.24609e-06 9.40328e-06
0 0 0
0 0 0
7.68844e-08 -1.9347e-07 1.73582e-07
-2.65473e-07 9.19403e-08 2.95146e-07
3.39246e-07 -2.32861e-07 1.09558e-06
-4.65821e-08 4.90539e-09 1.0469e-06
3.77911e-07 -2.97954e-07 -4.65928e-07
1.85666e-07 -2.51189e-07 -2.55062e-06
4.66775e-08 -1.45916e-07 -6.35902e-06
1.54769e-07 -2.13408e-07 -7.66356e-06
1.04513e-07 -2.20523e-07 -1.02472e-05
2.69835e-07 -2.11878e-07 -8.84474e-06
8.53754e-08 4.11376e-09 -1.08766e-05
1.86275e-07 -3.71424e-08 -9.91631e-06
-1.21288e-07 2.16324e-07 -1.28109e-05
2.8548e-07 5.64719e-08 -1.2499e-05
1.3551e-07 1.37368e-07 -1.49611e-05
7.04178e-08 4.27399e-08 -1.4042e-05
5.108e-07 3.31182e-07 -1.71148e-05
1.45103e-07 -1.92806e-07 -1.66875e-05
2.0738e-07 1.41e-07 -1.89548e-05
2.89751e-07 -1.30954e-07 -1.72803e-05
2.29844e-07 -2.2932e-08 -1.9184e-05
-1.06101e-07 -1.25379e-07 -1.83483e-05
5.26355e-07 -2.66218e-07 -2.24586e-05
2.48702e-07 -4.32799e-07 -2.28491e-05
2.45853e-07 -1.66138e-07 -2.63923e-05
1.62292e-08 -5.54735e-07 -2.3816e-05
4.82894e-07 -3.71649e-07 -2.38102e-05
-1.26067e-07 -7.73042e-07 -1.94302e-05
3.81189e-07 -3.6799e-07 -2.03708e-05
-3.05942e-07 -5.91623e-07 -1.99466e-05
3.62276e-07 -2.71417e-07 -2.31789e-05
-1.50372e-07 -5.09785e-07 -2.32186e-05
2.81123e-07 -4.66557e-07 -2.45267e-05
-1.41612e-07 -5.4782e-07 -2.16444e-05
2.32787e-07 -5.62881e-07 -2.17492e-05
8.58734e-08 -6.7947e-07 -1.77913e-05
3.71427e-07 -3.86204e-07 -1.79447e-05
4.60845e-07 -2.86382e-07 -1.57342e-05
4.27214e-07 -2.81728e-07 -1.71326e-05
5.56954e-07 -3.40353e-07 -1.63153e-05
4.6947e-07 -2.68962e-07 -1.48192e-05
5.57147e-07 -6.36169e-07 -1.26488e-05
6.64727e-07 -4.72258e-07 -8.31351e-06
4.99353e-07 -5.36325e-07 -6.62544e-06
6.14266e-07 -7.14983e-07 -3.34803e-06
4.01244e-07 -7.26423e-07 -4.21809e-06
6.94867e-07 -6.97816e-07 -1.81205e-06
2.34229e-07 -9.42067e-07 -3.55319e-06
7.13444e-07 -8.44305e-07 -4.44941e-07
6.12558e-07 -8.20027e-07 -5.98614e-07
6.49128e-07 -9.32068e-07 4.06502e-06
4.67783e-07 -7.72715e-07 4.90894e-06
5.35122e-07 -1.06955e-06 8.51094e-06
7.47801e-07 -9.14107e-07 7.43146e-06
4.40064e-07 -8.79303e-07 8.47941e-06
6.48258e-07 -9.00929e-07 5.94073e-06
4.16595e-07 -8.06674e-07 6.03394e-06
3.82281e-07 -1.07402e-06 2.94211e-06
1.57368e-07 -9.98731e-07 3.61601e-06
6.97665e-07 -1.29606e-06 8.47074e-07
3.48923e-07 -1.10112e-06 3.14567e-06
5.60621e-07 -1.35654e-06 9.08625e-07
3.61119e-07 -1.39215e-06 4.70668e-06
3.51232e-07 -1.51127e-06 3.79722e-06
4.84427e-07 -1.44923e-06 8.16942e-06
1.90576e-07 -1.33648e-06 6.97648e-06
5.22419e-07 -1.51611e-06 8.06504e-06
5.12292e-07 -1.38195e-06 9.44043e-06
0 0 0
0 0 0
-1.25532e-07 1.01239e-07 -2.30159e-06
-3.3418e-08 2.81945e-07 -6.37883e-06
-4.3189e-08 -2.23595e-07 -1.40963e-05
9.59116e-08 5.17708e-07 -2.57257e-05
1.78201e-07 3.77146e-07 -3.87601e-05
2.09583e-07 9.77216e-07 -5.25335e-05
3.10523e-07 5.04871e-07 -7.08875e-05
4.8524e-07 5.35519e-07 -9.30011e-05
5.21897e-07 2.36898e-07 -0.000115389
7.42412e-07 5.62355e-07 -0.000137552
5.44096e-07 -2.3321e-08 -0.00015924
8.59552e-07 1.36042e-07 -0.00018353
8.09613e-07 -3.17426e-07 -0.000212508
1.03637e-06 -4.50324e-07 -0.00023861
1.02209e-06 -8.67952e-07 -0.000265185
1.40371e-06 -6.51117e-07 -0.000290215
1.43812e-06 -1.16838e-06 -0.00031965
8.24457e-07 -2.37587e-07 -0.000351526
1.9853e-06 -7.39079e-07 -0.000378417
1.10613e-06 4.25363e-08 -0.000380404
1.25784e-06 -8.88365e-07 -0.000378434
1.63356e-06 -1.39174e-06 -0.00037788
1.71705e-06 -8.99909e-07 -0.00037622
9.61186e-07 -3.90268e-07 -0.000373329
1.4694e-06 -5.67067e-07 -0.000368355
1.465e-06 -3.86867e-07 -0.000363706
1.82026e-06 -8.52403e-08 -0.000356104
1.36537e-06 -3.20267e-07 -0.000344838
1.60875e-06 1.41395e-07 -0.000330576
1.58092e-06 -3.9784e-07 -0.00031345
1.46648e-06 -1.7388e-07 -0.0002957
1.82629e-06 -4.61786e-07 -0.000277016
1.63017e-06 -7.43719e-07 -0.000252628
1.86943e-06 -5.7861e-07 -0.00022722
1.26672e-06 -1.20703e-06 -0.000199498
1.21989e-06 -1.01405e-06 -0.000178503
9.5778e-07 -1.31371e-06 -0.000153717
9.73567e-07 -1.34578e-06 -0.000133408
8.52132e-07 -1.6125e-06 -0.000107341
1.17247e-06 -2.11222e-06 -8.58766e-05
8.1763e-07 -1.79673e-06 -6.4277e-05
9.45619e-07 -2.74395e-06 -4.79795e-05
9.52699e-07 -2.22438e-06 -2.87191e-05
6.64664e-07 -2.62792e-06 -1.23112e-05
8.19597e-07 -2.27941e-06 5.41578e-07
5.50371e-07 -2.29612e-06 8.98695e-06
3.80776e-07 -2.56241e-06 1.95214e-05
7.04491e-07 -2.08922e-06 2.86186e-05
8.80067e-07 -2.65215e-06 3.65715e-05
7.23512e-07 -2.24386e-06 4.01e-05
1.17844e-06 -2.17084e-06 4.17734e-05
6.63312e-07 -1.91331e-06 4.41192e-05
6.09732e-07 -1.84653e-06 4.56632e-05
6.95385e-07 -1.75446e-06 4.4557e-05
7.17185e-07 -1.79042e-06 4.1651e-05
5.40585e-07 -2.05123e-06 3.69602e-05
4.30114e-07 -1.68984e-06 3.28373e-05
3.77659e-07 -1.94767e-06 2.63064e-05
6.78487e-07 -1.56937e-06 2.28606e-05
5.26739e-07 -2.03005e-06 1.57421e-05
2.95414e-07 -1.39717e-06 1.59808e-05
7.09844e-07 -1.54432e-06 1.18418e-05
3.89121e-07 -1.21474e-06 1.1133e-05
4.76488e-07 -1.31354e-06 8.67476e-06
5.28282e-07 -1.22759e-06 9.64703e-06
7.40731e-07 -1.08053e-06 7.75234e-06
4.76391e-07 -1.1653e-06 9.71106e-06
0 0 0
0 0 0
1.43026e-07 -2.39488e-07 -6.73957e-08
-1.62936e-07 -3.98529e-07 7.60197e-07
2.88938e-07 -4.19589e-07 1.58286e-06
1.62903e-07 -6.83907e-07 2.7685e-06
1.21661e-07 -3.6863e-07 2.09613e-06
1.86705e-07 -5.12959e-07 -1.06647e-06
5.06083e-08 -2.09771e-07 -3.959e-06
8.81583e-08 -3.54437e-07 -7.96664e-06
1.0658e-07 -3.45054e-07 -8.23191e-06
2.14067e-07 -1.80375e-07 -1.00524e-05
-6.95365e-08 -1.72173e-07 -9.15987e-06
2.90588e-07 2.24173e-07 -1.14587e-05
-9.72358e-08 -1.43106e-08 -1.21891e-05
1.94129e-07 3.00613e-07 -1.42659e-05
7.98463e-08 3.84464e-07 -1.32198e-05
3.05735e-07 3.08357e-07 -1.47729e-05
-1.51064e-08 1.05569e-07 -1.33327e-05
5.83531e-07 9.16293e-08 -1.60544e-05
3.41402e-08 -6.0918e-08 -1.50525e-05
3.24175e-07 4.6534e-08 -1.74295e-05
2.46145e-07 -1.347e-07 -1.56133e-05
2.66589e-07 6.27837e-08 -1.9097e-05
2.17762e-07 -3.65279e-07 -1.84415e-05
-1.18179e-07 -1.44635e-07 -2.31486e-05
3.8144e-07 -5.071e-07 -2.14459e-05
2.89154e-07 -1.07493e-08 -2.31271e-05
3.11933e-07 -6.05952e-07 -1.85765e-05
1.4032e-07 -1.46659e-07 -1.86166e-05
6.72282e-08 -3.42206e-07 -1.58669e-05
1.57941e-07 -1.65087e-08 -1.84832e-05
1.47331e-07 -2.20891e-07 -1.87215e-05
1.82096e-07 -1.07998e-07 -2.13944e-05
2.05991e-07 -3.49777e-07 -2.01733e-05
8.52132e-09 -3.40716e-07 -2.16589e-05
3.35936e-07 -6.16079e-07 -1.81457e-05
3.10798e-09 -4.60314e-07 -1.85267e-05
5.63766e-07 -6.00256e-07 -1.46482e-05
1.09076e-09 -3.13864e-07 -1.56547e-05
6.17022e-07 -5.21358e-07 -1.41324e-05
-5.69487e-08 -3.61246e-07 -1.54584e-05
7.4776e-07 -6.28838e-07 -1.4351e-05
-8.09193e-08 -6.67059e-07 -1.24544e-05
9.76894e-07 -6.88008e-07 -9.47572e-06
2.61587e-07 -4.38293e-07 -5.24757e-06
7.60045e-07 -4.89952e-07 -2.6098e-06
7.34319e-08 -4.8495e-07 1.00119e-06
5.94177e-07 -8.3009e-07 2.2646e-07
1.45755e-07 -8.25012e-07 1.64986e-06
7.35576e-07 -1.02066e-06 -8.5756e-07
5.62668e-07 -8.09896e-07 1.54193e-06
9.22505e-07 -7.66378e-07 1.38639e-06
5.29319e-07 -7.81099e-07 5.49012e-06
8.84387e-07 -7.57828e-07 5.95218e-06
5.08092e-07 -9.90319e-07 9.12585e-06
5.22536e-07 -6.71798e-07 8.05637e-06
8.03133e-07 -8.72702e-07 9.47322e-06
4.62518e-07 -8.42542e-07 6.5817e-06
7.98922e-07 -9.23291e-07 7.95261e-06
3.63706e-07 -1.1303e-06 4.57127e-06
7.80091e-07 -1.14198e-06 5.95241e-06
2.57762e-07 -9.9397e-07 2.54923e-06
9.21523e-07 -1.16269e-06 5.18649e-06
2.20047e-07 -1.34728e-06 3.27634e-06
6.22339e-07 -1.36044e-06 7.81575e-06
3.01803e-07 -1.19156e-06 6.45881e-06
4.61094e-07 -1.59536e-06 9.74171e-06
3.12224e-07 -1.19678e-06 7.16233e-06
2.37068e-07 -1.11122e-06 6.81532e-06
3.97547e-07 -1.26998e-06 8.16818e-06
0 0 0
0 0 0
1.63287e-07 2.60733e-07 -2.40456e-06
2.09094e-07 3.04972e-07 -8.56398e-06
2.14778e-07 2.47798e-07 -1.57521e-05
4.81234e-07 5.52682e-07 -2.57032e-05
3.81508e-07 7.32963e-07 -3.75959e-05
2.10292e-07 6.89381e-07 -5.12502e-05
4.87591e-07 7.55575e-07 -6.91652e-05
5.22484e-07 3.31374e-07 -8.98201e-05
7.37637e-07 4.98582e-07 -0.000111874
4.09816e-07 3.13077e-07 -0.00013264
4.40941e-07 3.62269e-07 -0.000156127
6.83773e-07 -9.28792e-08 -0.00018125
8.74446e-07 -3.32697e-07 -0.000208641
1.05044e-06 -5.15749e-07 -0.000235453
1.06793e-06 -4.10335e-07 -0.000261315
9.40271e-07 -1.04287e-06 -0.000288303
9.63493e-07 -4.65346e-07 -0.000316132
1.0255e-06 -1.79731e-06 -0.000347254
3.25884e-06 -1.743e-06 -0.000369776
2.74632e-06 -6.41159e-07 -0.00038063
1.91344e-06 -1.30864e-06 -0.000381052
1.46648e-06 -1.6576e-06 -0.000380686
1.27574e-06 -9.02561e-09 -0.000378793
1.54433e-06 -9.47786e-07 -0.000373576
1.33262e-06 -1.02052e-07 -0.000369864
1.89325e-06 -6.95192e-07 -0.000362919
1.49349e-06 -2.17798e-07 -0.000355638
2.06174e-06 -1.99342e-08 -0.000342529
1.72057e-06 -8.8335e-08 -0.000327821
1.95842e-06 -3.32483e-07 -0.000309938
1.82432e-06 -2.43302e-07 -0.000292029
1.76957e-06 -4.77664e-07 -0.00027059
1.93712e-06 -5.27416e-07 -0.000250749
1.75602e-06 -7.89694e-07 -0.000220752
1.82967e-06 -1.00135e-06 -0.000196836
1.45194e-06 -1.16112e-06 -0.000168409
1.70036e-06 -1.86156e-06 -0.000148591
8.82521e-07 -1.63694e-06 -0.000121421
1.25511e-06 -2.16207e-06 -0.000100397
7.76609e-07 -1.92697e-06 -7.24526e-05
7.98538e-07 -2.49092e-06 -5.45047e-05
7.90859e-07 -2.08573e-06 -3.53007e-05
3.56742e-07 -2.69948e-06 -1.97806e-05
3.72271e-07 -1.91193e-06 -3.28259e-06
5.30369e-07 -2.94679e-06 6.56423e-06
4.76508e-07 -2.0701e-06 1.48181e-05
6.92125e-07 -2.35212e-06 2.28213e-05
5.89934e-07 -2.63642e-06 3.23216e-05
2.7445e-07 -2.46883e-06 3.92627e-05
6.31083e-07 -2.46921e-06 4.25908e-05
5.83205e-07 -2.08374e-06 4.50042e-05
8.02407e-07 -2.20414e-06 4.56529e-05
4.6733e-07 -1.67424e-06 4.72042e-05
1.46172e-07 -2.08691e-06 4.68277e-05
1.08177e-07 -1.71109e-06 4.40535e-05
2.19813e-07 -1.93752e-06 3.96236e-05
1.39479e-07 -1.80395e-06 3.37311e-05
6.24526e-07 -1.74644e-06 2.89426e-05
2.67194e-07 -1.70237e-06 2.1957e-05
1.04922e-07 -1.4599e-06 1.98461e-05
1.62232e-07 -1.50345e-06 1.57685e-05
3.3637e-07 -1.70854e-06 1.51195e-05
2.8545e-07 -1.17632e-06 1.07637e-05
4.33811e-07 -1.51679e-06 8.26209e-06
5.05897e-07 -1.36499e-06 7.62144e-06
2.97125e-07 -1.0396e-06 8.99732e-06
4.1785e-07 -1.09716e-06 7.75252e-06
3.47299e-07 -1.05546e-06 7.99442e-06
0 0 0
0 0 0
-7.04783e-08 -6.85727e-08 -7.28536e-08
-2.43895e-07 -2.19332e-07 -4.14597e-08
7.93178e-08 -2.98931e-07 1.45499e-06
-3.24374e-07 -1.69096e-07 2.24476e-06
1.99223e-07 -1.82893e-07 1.46081e-06
-1.77292e-07 -3.29033e-07 -7.6955e-07
5.30476e-08 -2.81789e-07 -4.39995e-06
3.34804e-08 -4.22074e-07 -5.93097e-06
1.79484e-07 -2.14186e-07 -8.56684e-06
2.13768e-07 8.26798e-08 -7.92454e-06
7.00036e-08 9.35404e-08 -1.08573e-05
1.53982e-07 2.0177e-07 -1.03336e-05
9.85219e-08 3.78034e-08 -1.35704e-05
3.30154e-07 4.40549e-08 -1.20091e-05
2.57627e-07 3.3925e-07 -1.38058e-05
1.76354e-07 -2.77088e-08 -1.08465e-05
2.42721e-07 7.74336e-08 -1.35302e-05
-2.35796e-07 -1.90918e-07 -1.1992e-05
1.21949e-07 -2.45056e-09 -1.51106e-05
2.05009e-07 -3.52547e-07 -1.32582e-05
5.75882e-07 -1.87136e-07 -1.61978e-05
1.79241e-07 -5.93306e-07 -1.4849e-05
4.22052e-07 -1.357e-07 -1.91463e-05
5.92021e-08 -5.32352e-07 -1.79916e-05
4.13097e-07 -2.461e-07 -2.06094e-05
3.81988e-08 -4.57771e-07 -1.69872e-05
3.35962e-07 -2.30634e-07 -1.7411e-05
4.69637e-08 -5.71354e-07 -1.4247e-05
4.30024e-07 -1.01632e-07 -1.58525e-05
-1.16957e-07 -1.91656e-07 -1.52675e-05
4.66186e-07 -1.43159e-08 -1.71634e-05
2.93248e-08 -4.91637e-07 -1.63345e-05
4.01351e-07 -1.86196e-07 -1.79121e-05
-7.94029e-08 -5.79753e-07 -1.60892e-05
3.58743e-07 -4.96237e-07 -1.79757e-05
-7.56737e-08 -3.81338e-07 -1.4536e-05
2.24223e-07 -2.13186e-07 -1.58671e-05
2.82438e-07 -5.85056e-07 -1.26233e-05
2.64161e-07 -3.10866e-07 -1.42575e-05
1.38869e-07 -6.34614e-07 -1.26533e-05
4.37288e-07 -3.59775e-07 -1.31047e-05
4.26e-07 -5.10085e-07 -1.19614e-05
6.81059e-07 -5.16672e-07 -9.36262e-06
4.54878e-07 -5.3692e-07 -6.27832e-06
4.24464e-07 -6.02854e-07 -1.25553e-06
1.49565e-07 -5.27084e-07 1.02361e-06
5.42525e-07 -7.97342e-07 4.30127e-06
1.49518e-07 -9.40518e-07 2.55052e-06
5.04771e-07 -9.056e-07 3.28172e-06
1.87796e-07 -7.69405e-07 8.84965e-07
5.09642e-07 -6.67584e-07 3.4858e-06
6.62363e-07 -8.07812e-07 3.74442e-06
7.20399e-07 -7.56044e-07 7.64629e-06
6.38747e-07 -7.0933e-07 7.68444e-06
3.40485e-07 -8.25241e-07 1.028e-05
3.12236e-07 -6.40949e-07 9.61155e-06
5.70097e-07 -7.92555e-07 1.15733e-05
5.88772e-07 -9.00726e-07 9.59186e-06
6.09167e-07 -9.28061e-07 1.06558e-05
8.33607e-07 -8.4479e-07 7.63816e-06
3.78086e-07 -9.66134e-07 9.42387e-06
7.42457e-07 -1.24451e-06 6.45369e-06
6.15659e-07 -1.1409e-06 9.72208e-06
5.42006e-07 -1.32575e-06 7.80009e-06
5.28802e-07 -1.16347e-06 1.14489e-05
4.29798e-07 -1.39788e-06 9.05871e-06
2.28628e-07 -1.04193e-06 1.08259e-05
5.58584e-08 -9.87729e-07 7.69728e-06
2.33714e-07 -1.22189e-06 4.88953e-06
4.2569e-07 -8.39132e-07 8.82974e-06
0 0 0
0 0 0
6.77779e-08 -1.08204e-07 -3.53575e-06
-1.82549e-07 3.55683e-07 -8.604e-06
2.68725e-07 1.37256e-07 -1.56009e-05
3.09574e-07 8.98872e-07 -2.61254e-05
5.00488e-07 5.40446e-07 -3.75727e-05
3.63419e-07 5.41089e-07 -5.09994e-05
3.69095e-07 1.72504e-07 -6.7223e-05
7.65432e-07 5.64732e-07 -8.83247e-05
4.40085e-07 8.82989e-08 -0.000108968
7.29368e-07 6.01943e-07 -0.000132374
5.09934e-07 1.46404e-08 -0.00015438
7.07822e-07 1.67774e-07 -0.00017948
8.29998e-07 -2.49043e-07 -0.000206306
9.62658e-07 -2.60819e-07 -0.0002328
1.10103e-06 -9.48038e-07 -0.000258844
1.06817e-06 -5.2531e-07 -0.000285321
1.32672e-06 -1.2978e-06 -0.000312766
1.47003e-06 -9.73864e-07 -0.000340203
3.34396e-06 -3.81234e-07 -0.000367875
4.8925e-06 -2.89471e-06 -0.000385737
1.91543e-06 -1.44122e-06 -0.000387223
1.25806e-06 -4.53416e-07 -0.000383494
1.55965e-06 -6.77353e-07 -0.000379154
1.60727e-06 -4.64413e-07 -0.000376157
1.58765e-06 -5.31363e-07 -0.00036877
1.75844e-06 -3.66668e-07 -0.000362263
1.61687e-06 -4.30651e-07 -0.00035135
1.6581e-06 -4.97788e-07 -0.000339018
1.69171e-06 -2.13098e-07 -0.000323035
1.76964e-06 -6.34366e-07 -0.000304722
1.77664e-06 -6.63441e-07 -0.000284421
1.80687e-06 -7.5701e-07 -0.000265093
1.51244e-06 -9.96374e-07 -0.000240221
1.78333e-06 -6.98477e-07 -0.000215921
1.31815e-06 -1.48219e-06 -0.000185392
1.60523e-06 -1.09923e-06 -0.000162624
8.64913e-07 -1.7738e-06 -0.000134556
1.35666e-06 -1.85314e-06 -0.000114236
6.36543e-07 -2.06734e-06 -8.57817e-05
1.09077e-06 -2.24509e-06 -6.38581e-05
9.29511e-07 -2.32777e-06 -4.02334e-05
7.94842e-07 -2.34269e-06 -2.55462e-05
9.217e-07 -2.30267e-06 -8.72175e-06
6.39519e-07 -2.54092e-06 4.6695e-06
7.19409e-07 -2.47298e-06 1.47387e-05
4.48478e-07 -2.36074e-06 2.01501e-05
5.25786e-07 -2.66695e-06 2.81614e-05
2.97105e-07 -2.24616e-06 3.54106e-05
6.33329e-07 -2.66518e-06 4.26086e-05
7.68004e-07 -2.16805e-06 4.61893e-05
8.19767e-07 -2.29844e-06 4.77144e-05
5.21373e-07 -1.94195e-06 4.85437e-05
7.59819e-07 -1.97421e-06 4.84357e-05
6.77927e-07 -1.83789e-06 4.80808e-05
5.92593e-07 -2.01367e-06 4.6009e-05
5.66472e-07 -1.68994e-06 4.17036e-05
5.48275e-07 -1.68694e-06 3.56857e-05
4.96848e-07 -1.95044e-06 2.86779e-05
6.26628e-07 -1.54874e-06 2.56125e-05
2.68376e-07 -1.93724e-06 1.92622e-05
6.50354e-07 -1.36435e-06 1.91904e-05
4.51996e-07 -1.73155e-06 1.35389e-05
4.42566e-07 -1.29357e-06 1.13611e-05
5.28044e-07 -1.61791e-06 7.3466e-06
4.01332e-07 -1.06785e-06 7.4378e-06
5.96782e-07 -1.22131e-06 5.85174e-06
6.381e-07 -9.65714e-07 7.9389e-06
2.10824e-07 -1.07724e-06 5.0698e-06
2.83876e-07 -1.17013e-06 5.67992e-06
0 0 0
0 0 0
3.67488e-08 -2.3413e-07 -3.04e-07
-6.43181e-08 -3.04401e-07 2.72613e-07
-1.48898e-07 -5.21267e-07 5.66937e-07
-1.15762e-07 -5.59606e-07 1.90469e-06
1.51749e-07 -3.7041e-07 6.74434e-07
-1.56634e-08 -2.13379e-07 -1.48162e-06
1.37968e-07 -4.7834e-07 -3.81844e-06
5.09415e-08 -2.85171e-07 -6.31789e-06
-2.61018e-08 -7.24805e-08 -7.05516e-06
3.0055e-08 -7.94753e-08 -9.4899e-06
1.34687e-07 1.20718e-07 -9.24728e-06
3.12941e-07 -9.2326e-09 -1.12967e-05
-1.54354e-07 7.93323e-08 -1.02442e-05
4.06117e-07 1.38715e-07 -1.16623e-05
-5.89365e-08 2.41163e-07 -9.17585e-06
2.36128e-07 2.84454e-07 -1.07565e-05
-6.79449e-08 -1.80764e-08 -8.32489e-06
3.78621e-07 1.50501e-07 -1.12657e-05
1.53598e-07 -9.1189e-08 -1.00176e-05
3.83479e-07 -5.61469e-09 -1.34541e-05
2.14904e-08 -8.28232e-08 -1.19566e-05
1.54813e-07 1.23183e-07 -1.56926e-05
3.59324e-07 -2.82175e-07 -1.45134e-05
-6.19334e-09 2.54206e-07 -1.80235e-05
2.43476e-07 -1.79156e-07 -1.53323e-05
1.11615e-07 -1.23954e-07 -1.65622e-05
1.51129e-07 -1.74313e-07 -1.3331e-05
9.20915e-08 -2.16063e-07 -1.49362e-05
1.36037e-07 -1.04384e-07 -1.34524e-05
2.66148e-07 1.14079e-07 -1.48188e-05
1.43387e-07 -1.86725e-07 -1.33234e-05
3.30885e-07 -1.14108e-07 -1.35167e-05
3.96205e-07 -5.66658e-07 -1.13928e-05
3.30122e-07 3.10548e-08 -1.35287e-05
3.48021e-07 -6.64718e-07 -1.15858e-05
1.13216e-07 3.11376e-08 -1.42896e-05
5.13209e-07 -4.87418e-07 -1.12298e-05
1.68016e-07 -3.04791e-07 -1.27464e-05
4.47935e-07 -5.88214e-07 -9.14499e-06
2.08511e-07 -2.5519e-07 -1.02793e-05
5.83218e-07 -6.55734e-07 -8.59993e-06
2.34622e-07 -4.67841e-07 -9.05646e-06
8.16478e-07 -6.83888e-07 -7.19452e-06
2.45768e-07 -5.64631e-07 -4.49895e-06
6.71802e-07 -6.28344e-07 -1.08682e-06
1.61917e-07 -5.40647e-07 3.9239e-06
6.05432e-07 -7.73072e-07 5.39453e-06
2.85682e-07 -9.57028e-07 8.23458e-06
2.44937e-07 -8.42253e-07 5.67713e-06
2.98903e-07 -6.84176e-07 6.81018e-06
2.79506e-07 -5.40242e-07 4.60061e-06
4.09354e-07 -6.3492e-07 7.6534e-06
6.33333e-07 -6.24041e-07 7.29542e-06
4.89046e-07 -6.51062e-07 1.1009e-05
2.45749e-07 -4.84186e-07 1.03832e-05
5.02183e-07 -6.65326e-07 1.32974e-05
8.31732e-08 -9.03773e-07 1.22677e-05
8.51692e-07 -9.71323e-07 1.53111e-05
3.74494e-07 -7.96083e-07 1.30268e-05
7.59271e-07 -9.01819e-07 1.46419e-05
2.94847e-07 -1.06755e-06 1.15591e-05
4.80454e-07 -1.09436e-06 1.39551e-05
3.01852e-07 -1.36998e-06 1.16668e-05
7.31629e-07 -1.28242e-06 1.48325e-05
2.88829e-07 -1.25732e-06 1.20845e-05
6.16872e-07 -1.01574e-06 1.4193e-05
1.14502e-07 -1.44978e-06 1.13286e-05
6.42745e-07 -1.10669e-06 1.3017e-05
2.8736e-07 -1.14085e-06 1.04444e-05
-8.48297e-08 -6.63124e-07 5.75657e-06
3.1133e-07 -9.52112e-07 1.158e-05
0 0 0
0 0 0
1.86042e-07 1.66215e-07 -2.01788e-06
8.69121e-08 1.36477e-07 -7.87061e-06
2.00828e-07 6.57953e-07 -1.50646e-05
5.12361e-07 2.57816e-07 -2.48108e-05
5.06503e-07 8.30056e-07 -3.57275e-05
6.94596e-07 9.27105e-07 -4.76926e-05
1.47696e-07 4.93127e-07 -6.49037e-05
5.91929e-07 6.01336e-07 -8.49382e-05
4.05095e-07 6.75712e-07 -0.000108031
4.2673e-07 6.32277e-08 -0.000128561
5.51679e-07 2.24658e-07 -0.000152635
4.63768e-07 1.3059e-07 -0.000175941
5.98654e-07 -3.94254e-08 -0.000202845
9.39696e-07 -3.65817e-07 -0.000228083
6.27678e-07 -2.17131e-07 -0.0002549
8.58236e-07 -1.00742e-06 -0.000281215
7.36734e-07 -7.31216e-07 -0.000307964
1.51608e-06 -1.4952e-06 -0.000333546
8.03465e-07 8.56139e-07 -0.000365754
4.47932e-06 1.21229e-06 -0.000392079
6.82188e-07 1.4423e-06 -0.000390585
1.55104e-06 -9.55356e-07 -0.00038214
1.19142e-06 -1.81753e-07 -0.000379948
1.70239e-06 -6.0659e-07 -0.00037405
1.84535e-06 -2.44751e-07 -0.000368644
2.00686e-06 -4.6829e-07 -0.000360001
1.82405e-06 -4.6631e-07 -0.000348948
1.96753e-06 -4.03497e-07 -0.000334852
1.87668e-06 -5.25328e-07 -0.000317577
2.04788e-06 -6.39286e-07 -0.000299623
1.80384e-06 -5.69142e-07 -0.000278312
1.78128e-06 -5.6439e-07 -0.000255497
1.47501e-06 -8.00024e-07 -0.000232738
1.48836e-06 -1.36669e-06 -0.000203249
1.67222e-06 -1.24485e-06 -0.000177803
1.44993e-06 -1.37814e-06 -0.000148248
1.4566e-06 -1.57794e-06 -0.000127127
9.98019e-07 -1.79135e-06 -9.88203e-05
1.15966e-06 -2.11163e-06 -7.81324e-05
7.18917e-07 -2.34542e-06 -4.90054e-05
8.94066e-07 -2.88677e-06 -3.12442e-05
5.31773e-07 -2.21496e-06 -1.19442e-05
6.08677e-07 -2.79992e-06 8.95896e-07
6.06313e-07 -2.17571e-06 1.56302e-05
2.9585e-07 -3.06691e-06 2.22296e-05
4.84321e-07 -2.2638e-06 2.79516e-05
3.69316e-07 -2.70957e-06 3.26218e-05
5.60249e-07 -2.64292e-06 4.02623e-05
4.44018e-07 -2.397e-06 4.53701e-05
5.22135e-07 -2.23674e-06 4.85405e-05
5.60835e-07 -2.131e-06 5.02801e-05
7.12748e-07 -2.04188e-06 4.99252e-05
2.57971e-07 -1.90429e-06 4.90791e-05
2.45313e-07 -2.23197e-06 4.8665e-05
5.06001e-07 -1.47659e-06 4.68766e-05
1.17616e-07 -2.08969e-06 4.37766e-05
2.36851e-07 -1.69258e-06 3.65435e-05
3.25037e-07 -1.9751e-06 3.06172e-05
8.13723e-08 -1.65411e-06 2.29768e-05
8.23785e-08 -1.45845e-06 2.13284e-05
-4.93136e-08 -1.91011e-06 1.56831e-05
1.61976e-07 -1.55202e-06 1.50042e-05
1.68802e-07 -1.36338e-06 1.06717e-05
4.28057e-07 -1.44636e-06 8.51328e-06
3.99979e-07 -1.1782e-06 6.87237e-06
4.6581e-07 -1.3072e-06 7.43264e-06
5.19915e-07 -1.14681e-06 6.06375e-06
6.1348e-07 -1.31515e-06 6.41759e-06
3.89576e-07 -9.86936e-07 3.54418e-06
6.97659e-07 -5.31116e-07 6.54198e-06
0 0 0
0 0 0
-1.07055e-07 3.61761e-08 -2.15433e-07
-1.52958e-07 -4.28638e-07 -6.34213e-07
-6.03578e-08 -1.54363e-07 -2.00567e-08
-1.27441e-07 -4.02765e-07 -3.09697e-07
2.47982e-07 -1.25972e-07 -1.13273e-06
-3.71609e-07 -3.23726e-07 -2.65062e-06
2.79567e-07 -4.26032e-07 -4.2155e-06
-4.86739e-07 -8.58983e-08 -4.76113e-06
3.44289e-08 -1.46665e-07 -6.92836e-06
-6.81699e-08 5.9421e-08 -7.38611e-06
-7.33238e-08 4.95895e-08 -1.02557e-05
4.02016e-07 -1.26436e-07 -8.86022e-06
7.94587e-08 1.16016e-07 -1.04547e-05
8.13311e-08 8.4889e-08 -7.64562e-06
3.65449e-08 8.72084e-08 -9.41923e-06
1.94809e-08 1.01967e-08 -6.30718e-06
1.13675e-07 -1.75005e-07 -9.26227e-06
8.82554e-08 -3.15108e-07 -6.99553e-06
1.45791e-07 -3.2365e-07 -1.03674e-05
-1.25761e-07 -6.1352e-07 -8.20436e-06
3.31435e-07 -3.7243e-07 -1.19296e-05
1.01024e-07 -4.68334e-07 -1.00924e-05
2.44952e-07 7.03852e-08 -1.4712e-05
-1.13898e-07 -2.56964e-07 -1.26804e-05
4.06351e-07 -1.44024e-07 -1.55981e-05
6.13948e-08 -9.29542e-08 -1.25308e-05
3.23543e-07 -4.21107e-07 -1.45247e-05
8.7238e-08 -2.34067e-07 -1.2682e-05
3.33446e-07 -4.10672e-07 -1.43193e-05
2.21367e-07 -4.96346e-07 -1.23739e-05
4.70496e-07 -1.85203e-07 -1.18434e-05
2.58256e-07 -4.58833e-07 -8.42753e-06
5.27678e-07 -1.46188e-07 -8.51501e-06
1.36606e-07 -5.31768e-07 -6.13372e-06
5.98774e-07 -1.24284e-07 -9.68487e-06
4.10633e-07 -6.96753e-07 -7.54947e-06
3.40794e-07 -3.47578e-07 -1.11696e-05
2.05829e-07 -8.08014e-07 -7.31037e-06
5.79986e-07 -5.14213e-07 -9.23134e-06
4.62721e-07 -7.08236e-07 -5.89894e-06
7.74371e-07 -3.53819e-07 -7.20096e-06
4.18513e-07 -7.05411e-07 -5.51924e-06
5.28954e-07 -5.21349e-07 -5.31888e-06
4.04294e-07 -5.80822e-07 -3.24825e-06
5.36125e-07 -6.42615e-07 -8.41493e-07
2.93283e-07 -5.14364e-07 1.97421e-06
2.58595e-07 -8.88791e-07 5.95129e-06
2.30956e-07 -4.62574e-07 7.57237e-06
2.6717e-07 -6.93484e-07 9.6165e-06
1.63855e-07 -4.05834e-07 8.41909e-06
5.25614e-07 -5.05829e-07 9.58752e-06
3.90336e-07 -8.13629e-07 9.33935e-06
2.02445e-07 -8.50882e-07 1.18956e-05
5.33408e-07 -5.52722e-07 1.20038e-05
2.88311e-07 -7.09876e-07 1.3603e-05
4.647e-07 -6.03463e-07 1.34349e-05
3.66705e-07 -6.9342e-07 1.58325e-05
7.70414e-07 -9.44805e-07 1.60972e-05
4.04802e-07 -7.91226e-07 1.83732e-05
5.33825e-07 -8.26707e-07 1.7427e-05
4.71851e-07 -9.68634e-07 1.89396e-05
4.88566e-07 -9.62922e-07 1.65564e-05
5.62757e-07 -1.05963e-06 1.7864e-05
3.87912e-07 -1.08875e-06 1.49411e-05
6.09424e-07 -9.78374e-07 1.59671e-05
4.25755e-07 -7.63947e-07 1.31937e-05
4.74966e-07 -7.8578e-07 1.41129e-05
1.64104e-07 -7.72147e-07 1.24219e-05
6.28816e-07 -4.24025e-07 1.39987e-05
1.63491e-07 -6.82517e-07 1.19216e-05
5.25488e-07 -7.93504e-07 8.46139e-06
6.79498e-07 -4.02626e-07 1.2067e-05
0 0 0
0 0 0
4.50257e-08 -5.46617e-08 -2.04588e-06
1.12807e-08 4.02627e-07 -5.17229e-06
9.65807e-08 2.95364e-07 -1.23103e-05
4.71054e-07 5.19072e-07 -2.31863e-05
5.49895e-07 4.31838e-07 -3.31401e-05
3.31667e-07 9.09648e-07 -4.48545e-05
7.1965e-07 5.09112e-07 -5.95419e-05
3.60397e-07 9.50056e-07 -8.2134e-05
5.4458e-07 4.40603e-07 -0.000103289
5.71431e-07 9.36135e-07 -0.000127024
5.1344e-07 2.89466e-07 -0.000147408
5.61337e-07 5.10788e-07 -0.000171464
1.07158e-06 -4.62316e-07 -0.000197148
9.27517e-07 1.46915e-07 -0.000223243
1.13937e-06 -8.80748e-07 -0.000248684
9.39333e-07 -4.11819e-07 -0.000275207
1.35738e-06 -9.79987e-07 -0.000301897
8.55883e-07 -5.41009e-07 -0.000328089
2.14377e-06 -2.02e-06 -0.000354282
4.99619e-06 -1.77341e-06 -0.000374781
4.4849e-06 1.37623e-06 -0.000380597
1.52837e-06 -3.35549e-07 -0.00037853
1.86657e-06 -7.81557e-07 -0.000377349
1.35848e-06 -4.36634e-07 -0.000373283
2.06977e-06 -5.56149e-07 -0.000367325
1.44739e-06 -3.70888e-07 -0.000356574
1.8608e-06 -2.70983e-07 -0.000344951
1.56088e-06 -3.80403e-07 -0.000328048
2.11856e-06 -2.52223e-07 -0.000312027
1.92808e-06 -3.72021e-07 -0.000290447
1.89824e-06 -1.5936e-07 -0.000270098
1.88324e-06 -7.5133e-07 -0.000245858
1.61136e-06 -8.94026e-07 -0.000219743
1.74701e-06 -1.02568e-06 -0.00019234
1.37951e-06 -1.56738e-06 -0.000162623
1.5149e-06 -1.70559e-06 -0.000138322
1.27187e-06 -1.98397e-06 -0.000110581
1.12285e-06 -1.98481e-06 -8.91192e-05
5.97109e-07 -2.18813e-06 -6.09725e-05
7.77485e-07 -2.39522e-06 -4.00797e-05
7.24829e-07 -2.57631e-06 -1.60738e-05
7.98854e-07 -2.31156e-06 -3.01967e-06
5.3773e-07 -2.50392e-06 1.325e-05
8.22003e-07 -2.35926e-06 2.46713e-05
6.77318e-07 -2.32119e-06 3.31341e-05
5.18663e-07 -2.75403e-06 3.49892e-05
5.14671e-07 -2.84047e-06 3.9725e-05
2.87759e-07 -2.31329e-06 4.3685e-05
5.17616e-07 -2.58155e-06 4.98832e-05
4.2656e-07 -2.21152e-06 5.14737e-05
4.93739e-07 -2.44177e-06 5.28903e-05
6.22835e-07 -1.97096e-06 5.20853e-05
6.77016e-07 -2.23982e-06 5.05326e-05
3.84281e-07 -1.76299e-06 4.8039e-05
4.0767e-07 -2.00689e-06 4.65083e-05
4.12625e-07 -1.73559e-06 4.28567e-05
5.23393e-07 -1.83962e-06 3.71365e-05
5.99697e-07 -2.05082e-06 2.85929e-05
4.84759e-07 -1.54761e-06 2.52442e-05
4.57594e-07 -1.83085e-06 1.73685e-05
3.52252e-07 -1.79979e-06 1.73914e-05
3.82469e-07 -1.69821e-06 1.09368e-05
3.25152e-07 -1.28722e-06 1.18084e-05
4.9938e-07 -1.58925e-06 8.88255e-06
7.15196e-07 -1.034e-06 9.57662e-06
4.73633e-07 -1.30276e-06 5.98585e-06
5.58639e-07 -9.96332e-07 7.54858e-06
1.95139e-07 -8.05194e-07 4.79777e-06
2.53872e-07 -9.80817e-07 5.83096e-06
-3.22741e-08 -7.89457e-07 4.70857e-06
1.44035e-07 -9.87578e-07 9.46801e-06
0 0 0
0 0 0
4.16017e-08 -1.90683e-07 -1.70983e-07
-2.11902e-07 -3.69904e-07 1.62214e-07
6.49126e-08 -3.01465e-07 -7.12413e-07
-1.56205e-07 -3.76185e-07 -3.4085e-07
2.45529e-07 -2.96063e-07 -1.67445e-06
-3.13739e-07 -3.78823e-07 -2.25255e-06
1.13031e-07 -2.70583e-07 -3.23006e-06
-1.28823e-07 -2.78703e-07 -4.43928e-06
-1.64608e-07 -1.34589e-07 -5.44206e-06
-2.3876e-08 -1.19503e-07 -7.94261e-06
9.72661e-08 -2.44442e-08 -7.41304e-06
3.59337e-08 2.62873e-08 -9.01082e-06
-8.30507e-08 2.76168e-07 -6.4214e-06
3.17634e-07 2.59791e-07 -8.25672e-06
-3.20205e-07 1.33677e-07 -5.34861e-06
3.04972e-07 2.17433e-07 -8.05255e-06
-1.92018e-07 1.47706e-07 -5.08418e-06
1.43119e-07 -1.19543e-08 -8.27898e-06
-1.0336e-08 -1.03437e-07 -5.89228e-06
3.37703e-07 -1.08806e-07 -9.41464e-06
8.13298e-08 -3.04486e-07 -7.00246e-06
2.5989e-07 1.31348e-07 -1.07246e-05
-4.65283e-08 -2.95656e-07 -8.91402e-06
3.90103e-08 -2.0978e-07 -1.25648e-05
2.27258e-07 -2.1169e-07 -1.06927e-05
-1.53307e-07 -2.93035e-08 -1.35975e-05
5.28877e-07 -7.44902e-08 -1.20926e-05
8.21359e-08 -7.32698e-08 -1.44688e-05
3.55089e-07 -3.82853e-08 -1.2435e-05
1.87089e-07 -1.94681e-07 -1.18765e-05
5.89065e-07 -2.08334e-07 -8.49924e-06
3.54556e-07 -7.61035e-08 -6.79991e-06
2.31943e-07 -3.07347e-07 -3.30967e-06
4.10024e-07 -3.55948e-07 -4.8499e-06
4.36248e-07 -3.04779e-07 -2.81585e-06
3.80545e-07 4.31424e-08 -6.76685e-06
4.43457e-07 -3.40993e-07 -4.40735e-06
4.1534e-07 1.06966e-07 -7.6089e-06
7.2023e-07 -4.88186e-07 -4.08091e-06
4.81595e-07 -2.09136e-07 -6.65387e-06
6.65537e-07 -6.1954e-07 -4.00548e-06
3.78205e-07 -4.6612e-07 -4.71072e-06
5.81058e-07 -4.89916e-07 -2.01758e-06
1.40061e-07 -6.32525e-07 -1.34693e-06
5.4484e-07 -3.06959e-07 2.6495e-07
2.52822e-08 -5.17123e-07 2.80901e-06
1.49107e-07 -5.59068e-07 4.85612e-06
7.31629e-08 -8.42703e-07 8.90667e-06
2.95251e-07 -3.88105e-07 9.30712e-06
3.8098e-08 -7.74491e-07 1.11622e-05
1.15232e-07 -4.20456e-07 9.66484e-06
1.15459e-07 -4.25036e-07 1.12445e-05
8.49703e-08 -4.86723e-07 1.09191e-05
1.70867e-07 -3.71328e-07 1.36529e-05
1.44112e-08 -5.66018e-07 1.32598e-05
5.21218e-07 -6.94116e-07 1.47275e-05
7.04152e-08 -6.43064e-07 1.42826e-05
4.49547e-07 -9.07976e-07 1.7369e-05
6.03002e-08 -7.01566e-07 1.79728e-05
5.23836e-07 -9.09755e-07 2.07418e-05
2.96416e-07 -1.00963e-06 1.95459e-05
7.01756e-07 -1.10816e-06 2.03708e-05
3.92587e-07 -9.11463e-07 1.74628e-05
4.55447e-07 -1.05929e-06 1.74705e-05
3.50086e-07 -8.67264e-07 1.42779e-05
2.35844e-07 -5.89006e-07 1.4333e-05
2.35764e-07 -9.09676e-07 1.21957e-05
4.66314e-07 -7.52432e-07 1.29089e-05
-7.71339e-08 -8.88412e-07 1.16868e-05
3.81354e-07 -5.52978e-07 1.28059e-05
4.33321e-08 -9.03581e-07 1.13741e-05
-1.58213e-07 -8.97258e-07 9.6762e-06
3.06202e-07 -4.84552e-07 1.2122e-05
0 0 0
0 0 0
3.2595e-07 1.6483e-07 -3.4843e-07
2.99178e-07 8.65529e-08 -4.16795e-06
3.03502e-07 7.36914e-07 -1.16523e-05
6.80544e-07 5.07181e-07 -2.15618e-05
7.20859e-07 8.41058e-07 -3.2306e-05
6.87279e-07 5.77627e-07 -4.25078e-05
4.3921e-07 9.33707e-07 -5.97679e-05
7.56229e-07 7.01881e-07 -7.96546e-05
5.50979e-07 7.01988e-07 -0.000103269
5.1789e-07 2.72406e-07 -0.000122085
6.06507e-07 6.08272e-07 -0.000145257
7.87516e-07 2.54676e-07 -0.000167578
6.32592e-07 8.13592e-09 -0.000194659
8.37404e-07 -3.37843e-07 -0.000218581
6.2417e-07 -2.03192e-08 -0.000244283
1.02373e-06 -8.5731e-07 -0.000270015
6.07936e-07 -5.41966e-07 -0.000297843
1.61797e-06 -1.38686e-06 -0.000322217
1.76811e-06 -9.57611e-07 -0.000340999
2.56633e-06 -1.00492e-06 -0.000356681
1.86555e-06 -1.18509e-06 -0.000368611
2.06742e-06 -7.09815e-07 -0.000376029
1.20312e-06 -5.02931e-07 -0.00037601
1.91525e-06 -5.39012e-07 -0.000373039
1.69969e-06 -1.85837e-07 -0.000365857
2.29708e-06 -3.10912e-07 -0.000356655
1.78732e-06 -2.5504e-07 -0.000341916
2.16992e-06 -1.55468e-07 -0.000325892
1.88613e-06 -5.29182e-07 -0.000305004
2.41269e-06 -2.71032e-07 -0.000286548
1.99171e-06 -5.29023e-07 -0.000262726
1.89756e-06 -7.40963e-07 -0.000238513
1.7666e-06 -6.43075e-07 -0.000211447
1.46481e-06 -1.51705e-06 -0.000181208
1.52687e-06 -1.15698e-06 -0.000153368
1.3704e-06 -1.91706e-06 -0.000124476
1.40268e-06 -1.77514e-06 -0.000100249
8.7167e-07 -2.17241e-06 -7.16299e-05
6.94166e-07 -2.32846e-06 -4.93599e-05
5.53108e-07 -2.34194e-06 -2.2398e-05
8.39601e-07 -2.58469e-06 -4.98346e-06
5.61749e-07 -2.48577e-06 1.23635e-05
7.18737e-07 -2.56057e-06 2.37284e-05
4.77999e-07 -2.21906e-06 3.72123e-05
5.1268e-07 -2.86629e-06 4.2968e-05
3.46638e-07 -2.40955e-06 4.60664e-05
3.69622e-07 -2.74637e-06 4.67653e-05
4.02701e-07 -2.49912e-06 5.05222e-05
4.38417e-07 -2.47912e-06 5.37934e-05
4.16496e-07 -2.27369e-06 5.4551e-05
5.2333e-07 -2.10882e-06 5.49864e-05
4.92224e-07 -2.07379e-06 5.33524e-05
3.8181e-07 -2.03301e-06 5.1138e-05
3.71063e-07 -2.08798e-06 4.79665e-05
2.62697e-07 -1.76702e-06 4.48836e-05
2.04357e-07 -2.25151e-06 4.19277e-05
2.6841e-07 -1.60829e-06 3.59997e-05
7.83633e-08 -2.032e-06 2.98261e-05
1.49793e-07 -1.78224e-06 2.17364e-05
6.40653e-08 -1.73188e-06 1.92055e-05
1.83589e-07 -1.66439e-06 1.29759e-05
1.25071e-07 -1.46214e-06 1.32216e-05
4.60979e-07 -1.72029e-06 1.07384e-05
5.19946e-07 -1.69819e-06 1.04126e-05
4.25013e-07 -1.25242e-06 9.19588e-06
4.53151e-07 -1.03748e-06 8.52773e-06
2.18801e-07 -1.01414e-06 5.87446e-06
8.49399e-07 -9.12652e-07 6.683e-06
5.57796e-07 -1.16332e-06 4.31113e-06
9.37146e-07 -7.97376e-07 6.60157e-06
4.60319e-07 -5.55719e-07 7.11765e-06
6.71267e-07 -7.59239e-07 1.06177e-05
0 0 0
0 0 0
8.73568e-08 -9.85419e-08 1.04025e-07
9.80062e-08 -1.66452e-07 -4.60228e-07
3.30743e-07 -8.81365e-08 -2.30976e-07
-1.39528e-07 2.15872e-08 -1.48778e-06
1.91164e-07 -1.51531e-07 -1.12126e-06
-3.33182e-07 -1.54754e-07 -2.24937e-06
1.86776e-07 -1.62712e-07 -1.71477e-06
-2.12069e-07 -1.14427e-07 -2.79554e-06
6.91415e-08 -1.55004e-07 -3.56093e-06
-1.91637e-07 -1.76109e-07 -4.95046e-06
-1.76215e-07 -2.51139e-07 -6.61594e-06
5.35117e-08 -1.5653e-07 -6.34839e-06
5.88226e-09 -5.46459e-08 -7.26341e-06
1.19175e-07 1.81489e-07 -5.32256e-06
1.23366e-07 -7.71667e-08 -6.75289e-06
-1.22956e-07 1.46188e-07 -4.25044e-06
6.51272e-09 -1.15953e-07 -7.19516e-06
4.04309e-07 -1.9864e-07 -5.13323e-06
1.93085e-07 -4.70547e-07 -8.01776e-06
9.26011e-08 -2.85975e-07 -5.57842e-06
1.6932e-07 -8.68529e-08 -8.74698e-06
-2.86831e-07 -3.25622e-07 -6.28403e-06
1.92249e-07 1.81772e-07 -9.8202e-06
-4.39943e-08 -2.53724e-07 -7.36853e-06
8.55453e-08 2.22618e-07 -1.04665e-05
-8.27042e-09 -2.97466e-07 -9.72373e-06
9.97968e-08 -4.97024e-08 -1.29477e-05
1.53611e-07 -2.45117e-07 -1.25259e-05
1.78753e-07 -2.83827e-07 -1.25432e-05
3.55671e-07 -3.68107e-07 -9.65159e-06
3.95055e-07 -3.79352e-07 -7.17544e-06
3.02941e-07 -5.431e-07 -3.96502e-06
6.01214e-07 -5.547e-07 -3.31109e-06
2.44251e-07 -5.19588e-07 -9.7046e-07
4.50044e-07 -5.66223e-07 -3.26113e-06
5.5627e-07 -7.11518e-07 -8.48035e-07
6.39441e-07 -5.8656e-07 -4.61935e-06
3.51222e-07 -6.4393e-07 -2.08021e-06
6.77217e-07 -5.71936e-07 -6.00701e-06
4.2527e-07 -5.59996e-07 -3.59656e-06
6.1222e-07 -5.45612e-07 -5.17649e-06
5.34942e-07 -6.67217e-07 -1.49333e-06
5.52224e-07 -5.76908e-07 -7.92383e-07
6.14819e-07 -5.37952e-07 1.55807e-06
3.89378e-07 -5.42991e-07 1.78197e-06
2.95321e-07 -5.94251e-07 2.96506e-06
2.80362e-07 -7.07768e-07 5.2721e-06
2.36433e-07 -4.80586e-07 7.321e-06
1.5871e-07 -7.11645e-07 9.82553e-06
2.65236e-07 -4.4756e-07 9.91828e-06
2.04072e-07 -8.25579e-07 1.04579e-05
6.91707e-08 -5.4257e-07 1.01747e-05
2.58676e-07 -6.07706e-07 1.1804e-05
3.44059e-07 -5.66799e-07 1.29538e-05
8.16174e-08 -4.57616e-07 1.46223e-05
2.2616e-07 -5.87425e-07 1.47752e-05
6.14009e-09 -8.25656e-07 1.62947e-05
4.3157e-07 -6.00932e-07 1.61329e-05
-3.30564e-08 -8.37369e-07 1.90304e-05
3.47026e-07 -8.34636e-07 1.91814e-05
3.92958e-07 -1.10141e-06 2.14308e-05
3.68987e-07 -9.60343e-07 1.85115e-05
5.95701e-07 -9.76357e-07 1.84609e-05
4.91044e-07 -8.38662e-07 1.41219e-05
1.46817e-07 -9.17652e-07 1.41984e-05
3.29495e-07 -6.49164e-07 1.10181e-05
1.85911e-07 -8.36943e-07 1.11165e-05
-1.89411e-08 -6.81712e-07 8.93011e-06
2.742e-07 -5.00783e-07 1.01106e-05
-1.14004e-07 -6.21746e-07 9.12074e-06
6.50725e-07 -4.86267e-07 1.06853e-05
-1.50393e-07 -7.45172e-07 9.70095e-06
2.66685e-07 -7.94938e-07 1.04821e-05
4.8345e-07 -4.18802e-07 1.0484e-05
0 0 0
0 0 0
-1.87262e-07 1.19198e-07 -1.13543e-06
-2.40414e-08 5.89149e-07 -3.35968e-06
6.81797e-08 1.66254e-07 -1.06205e-05
1.7011e-07 5.94417e-07 -2.24607e-05
4.7879e-07 5.26809e-07 -3.3388e-05
2.89052e-07 1.4543e-06 -4.59817e-05
4.55584e-07 6.40592e-07 -6.00043e-05
4.30673e-07 8.98131e-07 -8.21871e-05
5.24158e-07 5.02453e-07 -0.000101187
4.19874e-07 8.74369e-07 -0.000123428
5.11629e-07 5.88359e-07 -0.000142821
7.29503e-07 1.27069e-07 -0.000167022
7.73843e-07 -5.14892e-08 -0.000192559
1.068e-06 1.14953e-07 -0.000217384
1.29766e-06 -4.44167e-07 -0.000240843
1.09171e-06 -4.34582e-07 -0.000267092
1.42236e-06 -1.11653e-06 -0.000293922
1.26519e-06 -9.49853e-07 -0.000318101
1.89172e-06 -9.08125e-07 -0.000335137
2.12651e-06 -1.14563e-06 -0.000350222
2.72188e-06 -5.82682e-07 -0.000365566
1.69861e-06 -9.09959e-07 -0.000375903
2.05573e-06 -6.24997e-07 -0.000378192
1.60443e-06 -2.49017e-07 -0.000373898
1.88077e-06 -1.57844e-07 -0.000366599
1.68393e-06 3.59547e-08 -0.000354766
1.79743e-06 -2.79129e-07 -0.000340923
1.27572e-06 -1.55377e-07 -0.000321541
1.90183e-06 -3.45471e-07 -0.000302699
1.7302e-06 -4.86631e-07 -0.00028019
2.07367e-06 -3.93428e-07 -0.000258572
1.57912e-06 -1.00372e-06 -0.000232017
1.7277e-06 -6.07882e-07 -0.00020252
1.47417e-06 -1.06642e-06 -0.000172309
1.11655e-06 -1.56766e-06 -0.000141368
1.44983e-06 -1.74829e-06 -0.000114779
7.82906e-07 -1.97081e-06 -8.41425e-05
8.13884e-07 -2.32873e-06 -5.81379e-05
3.43048e-07 -2.24724e-06 -2.9517e-05
6.78464e-07 -2.74862e-06 -8.59795e-06
3.71483e-07 -2.56904e-06 1.33945e-05
4.11891e-07 -2.71644e-06 2.57925e-05
4.56962e-07 -2.55107e-06 3.904e-05
2.59254e-07 -2.72486e-06 4.8594e-05
7.85113e-07 -2.15445e-06 5.53977e-05
9.97869e-07 -2.50568e-06 5.64495e-05
3.71316e-07 -2.95766e-06 5.65703e-05
5.11362e-07 -2.51622e-06 5.66462e-05
4.10322e-07 -2.65904e-06 5.9247e-05
4.26045e-07 -2.39243e-06 5.81956e-05
3.59058e-07 -2.26979e-06 5.65694e-05
6.25255e-07 -2.06518e-06 5.40594e-05
2.41383e-07 -2.12473e-06 5.06396e-05
4.54283e-07 -1.79273e-06 4.64065e-05
2.29527e-08 -2.19998e-06 4.257e-05
1.0642e-07 -1.64959e-06 3.88667e-05
4.39303e-07 -2.18702e-06 3.41038e-05
6.17825e-07 -1.71045e-06 2.72259e-05
3.95549e-07 -1.47483e-06 2.34099e-05
2.3289e-07 -1.61609e-06 1.57394e-05
1.72435e-07 -1.66398e-06 1.61511e-05
2.88877e-07 -1.89386e-06 1.09192e-05
3.19627e-07 -1.5875e-06 1.2205e-05
1.00425e-07 -1.72666e-06 1.00822e-05
4.01599e-07 -1.39762e-06 1.03752e-05
3.86726e-07 -1.12197e-06 7.05567e-06
3.36183e-07 -1.10198e-06 7.14644e-06
3.16992e-08 -8.16142e-07 5.52854e-06
4.46774e-07 -1.13313e-06 6.42999e-06
1.35564e-07 -8.37175e-07 6.19156e-06
3.20115e-07 -9.27092e-07 9.38112e-06
-8.01607e-09 -6.24143e-07 9.92402e-06
1.06035e-07 -4.31633e-07 1.1817e-05
0 0 0
0 0 0
5.56058e-08 1.04539e-07 -4.15341e-08
1.69463e-07 1.16067e-07 5.55151e-07
2.11773e-07 -4.8218e-08 -8.00726e-07
9.40679e-09 -2.36902e-07 -8.28838e-08
3.64168e-07 -2.46428e-07 -1.37096e-06
1.04091e-07 -2.37705e-07 -4.61062e-07
1.47305e-07 -1.97493e-07 -1.89583e-06
3.13772e-08 -1.29204e-07 -1.5724e-06
-8.67358e-08 -2.97476e-07 -3.1322e-06
-1.42023e-07 -9.52652e-08 -3.57173e-06
-2.07184e-07 -1.19515e-07 -3.99503e-06
-1.10619e-08 4.72867e-08 -5.1925e-06
-2.90923e-07 3.56296e-07 -4.02154e-06
-6.84146e-09 1.56739e-07 -5.46394e-06
-4.1038e-07 3.65028e-07 -3.22551e-06
2.62482e-07 1.88103e-07 -5.51978e-06
-1.78626e-07 1.20251e-07 -3.42704e-06
1.49796e-08 -1.18671e-07 -6.40819e-06
7.97108e-08 -2.74799e-07 -4.5615e-06
8.40247e-08 -1.44317e-07 -8.05539e-06
8.5323e-08 -3.41269e-07 -5.79802e-06
8.63427e-08 -2.01964e-07 -8.85588e-06
-1.0951e-08 -4.48349e-07 -5.83572e-06
4.10447e-09 1.29003e-07 -8.0913e-06
1.57332e-07 -3.50938e-07 -6.23777e-06
8.87411e-08 1.19243e-08 -9.93914e-06
2.41242e-07 -3.60152e-07 -1.05018e-05
4.89533e-08 -6.33644e-08 -1.32276e-05
5.11265e-07 -1.92839e-07 -1.13399e-05
1.32722e-07 -7.76568e-08 -8.89904e-06
4.40332e-07 -2.31819e-07 -5.55638e-06
4.75978e-07 -2.78494e-07 -3.72934e-06
2.05795e-07 -3.01193e-07 -1.68365e-06
5.14502e-07 -3.17475e-07 -2.51675e-06
4.52756e-07 -2.67845e-07 3.92526e-07
5.23442e-07 -2.9157e-07 -1.32704e-06
7.80718e-07 -1.42855e-07 1.63078e-06
4.98308e-07 -2.1151e-07 -1.95196e-06
6.22275e-07 -3.81451e-07 3.322e-07
6.81811e-07 -2.51174e-07 -3.22452e-06
4.86826e-07 -4.33006e-07 3.24398e-07
6.28097e-07 -3.80922e-07 -7.18784e-08
5.43184e-07 -3.49775e-07 4.30925e-06
3.75566e-07 -2.5537e-07 3.93464e-06
6.28922e-07 -4.29269e-07 5.93319e-06
4.16504e-07 -4.20677e-07 5.63759e-06
6.39388e-07 -3.75683e-07 7.26219e-06
1.43842e-07 -4.06016e-07 8.37643e-06
3.15694e-07 -4.58249e-07 9.83694e-06
3.13082e-07 -8.04176e-07 1.02502e-05
2.57395e-07 -4.02511e-07 1.07214e-05
2.86959e-07 -6.54808e-07 1.0253e-05
2.93909e-07 -4.92488e-07 1.17924e-05
2.61169e-07 -4.86625e-07 1.32608e-05
3.04611e-07 -5.4056e-07 1.61141e-05
4.81442e-07 -5.78335e-07 1.63405e-05
2.83117e-07 -3.6686e-07 1.7203e-05
2.65585e-07 -3.80804e-07 1.69882e-05
2.58496e-07 -7.5446e-07 1.79145e-05
6.71103e-07 -8.64883e-07 1.88459e-05
2.06907e-07 -8.4721e-07 1.86759e-05
5.64834e-07 -1.05034e-06 1.83231e-05
2.38134e-07 -8.04148e-07 1.55418e-05
3.37614e-07 -7.69152e-07 1.43127e-05
2.3449e-07 -5.31302e-07 1.1476e-05
2.91822e-09 -8.03386e-07 1.08273e-05
9.51082e-09 -4.93601e-07 8.67576e-06
1.80684e-07 -8.88561e-07 8.20902e-06
-1.26429e-07 -5.04868e-07 7.02343e-06
3.33456e-07 -7.14693e-07 8.7225e-06
1.53877e-07 -6.2412e-07 8.87503e-06
3.75398e-07 -5.40249e-07 1.03627e-05
2.37291e-07 -6.62863e-07 7.95718e-06
5.4293e-08 -8.02263e-07 8.96004e-06
5.70446e-07 -3.80076e-07 7.34224e-06
0 0 0
0 0 0
1.58533e-07 2.18008e-07 -2.79009e-07
2.31058e-07 8.84617e-08 -3.7934e-06
3.07643e-07 5.73877e-07 -1.13658e-05
3.84908e-07 5.43174e-07 -2.2568e-05
5.27654e-07 8.20124e-07 -3.56712e-05
2.90235e-07 4.34555e-07 -4.81261e-05
1.33219e-07 8.87574e-07 -6.50969e-05
5.07688e-07 6.84665e-07 -8.32728e-05
3.94934e-07 8.20894e-07 -0.000104055
5.82764e-07 5.28644e-07 -0.000122026
6.75711e-07 7.32344e-07 -0.000144423
6.52611e-07 2.9162e-07 -0.000167506
7.36635e-07 2.88439e-07 -0.000193681
7.22571e-07 -6.56932e-07 -0.000217266
8.57789e-07 2.07474e-07 -0.000241429
9.03604e-07 -8.98033e-07 -0.000266292
8.25582e-07 -3.08738e-07 -0.000292676
1.65641e-06 -1.07849e-06 -0.000314401
1.42423e-06 -7.66938e-07 -0.000330792
1.92902e-06 -7.39856e-07 -0.000348024
1.70637e-06 -7.95883e-07 -0.000364686
1.9933e-06 -1.06123e-06 -0.000379641
1.53291e-06 -4.90575e-07 -0.000380313
2.02759e-06 -3.99339e-07 -0.000376133
1.85687e-06 -5.70236e-08 -0.000366292
2.1164e-06 -3.59202e-07 -0.000356081
2.04941e-06 8.03199e-08 -0.000338058
2.04369e-06 -1.50078e-07 -0.000319846
1.63356e-06 -2.02073e-07 -0.000294769
1.94772e-06 -6.57307e-07 -0.000275154
1.79945e-06 -4.00081e-07 -0.000248825
1.9095e-06 -6.82024e-07 -0.000223706
1.359e-06 -1.08938e-06 -0.000192663
1.63187e-06 -1.53337e-06 -0.000160992
1.47573e-06 -1.41196e-06 -0.000130653
1.09647e-06 -2.01755e-06 -0.000100974
1.23015e-06 -1.78013e-06 -7.17698e-05
5.64157e-07 -2.59e-06 -3.98643e-05
5.36095e-07 -2.68919e-06 -1.45734e-05
1.86138e-07 -2.61119e-06 1.0947e-05
1.96944e-07 -2.42562e-06 2.87067e-05
9.32314e-08 -2.49816e-06 4.46582e-05
6.09025e-07 -2.41943e-06 5.43189e-05
5.04785e-07 -2.54426e-06 6.38435e-05
5.87053e-07 -2.83577e-06 6.74359e-05
3.83351e-07 -2.36094e-06 6.88355e-05
5.62005e-07 -2.35034e-06 6.65956e-05
2.4743e-08 -2.59471e-06 6.48585e-05
3.53181e-07 -2.48881e-06 6.39174e-05
3.71586e-08 -2.55243e-06 6.0843e-05
4.23685e-07 -2.33031e-06 5.80158e-05
2.91518e-07 -2.28917e-06 5.3107e-05
4.53713e-07 -2.08962e-06 4.83889e-05
4.13618e-07 -2.04904e-06 4.4049e-05
5.65024e-07 -1.97128e-06 3.96081e-05
3.44453e-07 -2.09487e-06 3.63825e-05
4.86261e-07 -1.74564e-06 3.1178e-05
-3.40659e-08 -1.76213e-06 2.68775e-05
1.26072e-07 -1.6307e-06 1.92677e-05
3.50468e-07 -1.53227e-06 1.79102e-05
4.98572e-07 -1.77538e-06 1.27945e-05
2.16045e-07 -1.56312e-06 1.48267e-05
2.69995e-07 -1.68703e-06 1.18566e-05
5.62921e-07 -1.39968e-06 1.10125e-05
3.958e-07 -1.33415e-06 9.41911e-06
4.08005e-07 -1.32677e-06 8.92761e-06
1.43002e-07 -1.11342e-06 6.43358e-06
7.44031e-07 -9.35662e-07 7.03599e-06
4.14757e-07 -1.41155e-06 5.24325e-06
8.1276e-07 -1.02267e-06 7.767e-06
2.4639e-07 -4.02955e-07 8.84276e-06
5.35576e-07 -7.03105e-07 1.15716e-05
1.98655e-07 -6.1168e-07 1.14543e-05
4.56965e-07 -4.77141e-07 9.5263e-06
0 0 0
0 0 0
3.17932e-07 -9.7226e-08 2.66471e-07
3.34308e-07 1.3379e-07 -3.62746e-07
2.7853e-07 -3.20623e-08 5.77953e-07
2.27342e-07 1.14797e-07 -8.43042e-07
2.2196e-07 -2.79622e-08 7.21619e-07
2.52976e-07 -8.97691e-08 -8.50653e-07
2.76042e-07 8.71977e-08 7.22819e-07
8.8645e-08 -2.82003e-07 -8.08834e-07
9.29228e-08 6.33532e-08 3.82277e-07
-4.77141e-08 -2.42069e-07 -1.03987e-06
-7.07041e-08 -1.48315e-07 -1.69359e-06
-9.51636e-08 -1.09229e-07 -2.86284e-06
-3.53375e-07 -1.21603e-07 -3.92117e-06
-6.84301e-08 -4.11111e-09 -2.91193e-06
-2.51538e-07 -1.90549e-07 -4.05073e-06
2.0319e-08 1.43334e-07 -1.99058e-06
9.67186e-08 -1.33672e-07 -4.817e-06
-1.75545e-08 -1.50902e-07 -3.1645e-06
3.38133e-07 -2.2331e-07 -6.18084e-06
2.1931e-07 -2.57391e-08 -4.82004e-06
8.48436e-08 1.20509e-07 -8.19028e-06
-1.08414e-07 -2.46891e-07 -6.30124e-06
-1.37388e-08 4.11474e-08 -8.18609e-06
-2.6323e-07 -1.90715e-07 -5.39645e-06
1.14587e-07 1.24098e-07 -6.80432e-06
1.58009e-07 -4.29066e-07 -7.38043e-06
3.4331e-07 7.96128e-08 -1.01299e-05
1.63072e-07 -2.88609e-07 -1.14247e-05
1.83232e-07 2.66128e-08 -1.01942e-05
2.32705e-07 -2.96144e-07 -8.15406e-06
2.20142e-07 -4.93266e-07 -4.59538e-06
2.75973e-08 -4.9519e-07 -3.24679e-06
5.23775e-07 -5.22263e-07 -2.75156e-06
3.37809e-07 -3.99899e-07 -1.44603e-06
5.12461e-07 -3.85874e-07 -1.68744e-06
4.96705e-07 -5.31755e-07 2.17114e-06
4.03717e-07 -4.14893e-07 6.49009e-07
7.8053e-07 -8.24081e-07 3.82934e-06
6.52803e-07 -4.55306e-07 3.03924e-07
5.61739e-07 -6.40674e-07 3.12262e-06
5.31974e-07 -3.74135e-07 1.33899e-06
6.65189e-07 -5.08995e-07 5.19587e-06
2.37787e-07 -5.10249e-07 4.52755e-06
4.74606e-07 -5.68361e-07 6.92243e-06
4.79858e-07 -5.69935e-07 5.94147e-06
2.17444e-07 -5.37062e-07 6.94666e-06
6.45006e-07 -2.81537e-07 7.12543e-06
3.3544e-07 -4.81015e-07 8.40076e-06
3.16965e-07 -4.55251e-07 9.52342e-06
3.16963e-07 -4.28211e-07 1.08231e-05
1.92344e-07 -5.41908e-07 1.13786e-05
3.32524e-07 -3.41065e-07 1.24015e-05
4.18146e-09 -5.14821e-07 1.27313e-05
1.31033e-07 -5.34334e-07 1.47371e-05
2.70531e-07 -6.58164e-07 1.53285e-05
4.97595e-07 -4.69523e-07 1.71299e-05
1.5777e-07 -6.13603e-07 1.71201e-05
5.43528e-07 -4.54921e-07 1.69299e-05
2.37041e-07 -8.40802e-07 1.69352e-05
4.32486e-07 -5.71091e-07 1.67078e-05
2.89949e-07 -7.08125e-07 1.69196e-05
3.95118e-07 -6.4388e-07 1.493e-05
-1.32831e-07 -8.73028e-07 1.39442e-05
3.43785e-08 -6.65447e-07 1.09964e-05
-9.99785e-08 -7.74334e-07 1.06926e-05
1.71719e-08 -4.52089e-07 8.86655e-06
-2.02777e-07 -9.03317e-07 8.61232e-06
-1.15803e-07 -3.90058e-07 6.83797e-06
3.23214e-07 -8.87956e-07 7.34723e-06
-2.25556e-07 -6.50941e-07 6.41369e-06
3.67402e-07 -8.2385e-07 8.12005e-06
-6.51361e-08 -4.97767e-07 7.29236e-06
3.68239e-07 -6.53556e-07 7.66227e-06
-2.70348e-07 -3.65148e-07 4.12558e-06
2.64028e-07 -5.13262e-07 4.6907e-06
4.02379e-07 -5.69686e-07 2.81852e-06
0 0 0
0 0 0
-1.08264e-07 -2.23253e-08 -1.58651e-06
9.62438e-08 5.26215e-07 -4.09971e-06
1.47248e-08 3.83827e-08 -1.09196e-05
1.5143e-07 5.31361e-07 -2.29959e-05
3.1772e-07 2.96374e-07 -3.60742e-05
1.9514e-07 9.45572e-07 -5.04269e-05
4.57791e-07 5.9035e-07 -6.43935e-05
6.87783e-07 8.78565e-07 -8.40398e-05
4.61388e-07 2.85911e-07 -0.000101651
5.78242e-07 4.96465e-07 -0.000124262
7.31017e-07 3.87392e-07 -0.000144435
6.54307e-07 2.49123e-07 -0.000168428
8.03419e-07 -2.96398e-08 -0.000193532
1.26188e-06 -6.94668e-08 -0.000218159
1.0103e-06 -6.65521e-07 -0.000240753
1.5165e-06 -3.14662e-07 -0.000265074
1.33353e-06 -1.07745e-06 -0.000288349
1.8616e-06 -6.48089e-07 -0.000309749
1.94522e-06 -8.24369e-07 -0.000327515
2.11102e-06 -8.79764e-07 -0.000343827
2.14607e-06 -7.54447e-07 -0.000362344
2.50169e-06 -8.61485e-07 -0.000377037
2.06275e-06 -2.29935e-07 -0.000385053
1.82215e-06 1.0615e-09 -0.000379331
2.10449e-06 -3.58963e-07 -0.000370392
1.77884e-06 3.27076e-07 -0.00035538
1.85422e-06 -4.62885e-07 -0.000339745
1.83952e-06 1.91338e-07 -0.000315506
1.71419e-06 -2.55389e-07 -0.000293298
1.97352e-06 -1.51658e-07 -0.000265673
1.28494e-06 -2.42668e-07 -0.000242466
1.63144e-06 -6.49567e-07 -0.000212946
1.31025e-06 -9.88475e-07 -0.000182693
1.16326e-06 -1.43567e-06 -0.000149225
1.09084e-06 -1.76536e-06 -0.000118553
1.24005e-06 -1.8605e-06 -8.86423e-05
8.3017e-07 -2.3452e-06 -5.69889e-05
4.40353e-07 -2.48844e-06 -2.59223e-05
3.29797e-07 -2.35197e-06 2.0825e-06
1.85997e-07 -3.1053e-06 2.45709e-05
-3.63078e-09 -2.70723e-06 4.48883e-05
3.06999e-07 -2.79185e-06 5.951e-05
4.78088e-08 -2.65116e-06 7.02301e-05
5.28287e-07 -2.86048e-06 7.7237e-05
5.67402e-07 -2.44501e-06 7.95972e-05
5.4042e-07 -2.53301e-06 7.93837e-05
4.88905e-07 -2.62007e-06 7.53284e-05
7.95959e-07 -1.94721e-06 7.14219e-05
1.05948e-07 -2.5392e-06 6.77269e-05
4.65085e-07 -2.2406e-06 6.41287e-05
3.56872e-07 -2.2663e-06 5.82527e-05
4.38063e-07 -2.18532e-06 5.28307e-05
2.93369e-07 -2.29654e-06 4.54751e-05
2.52263e-07 -1.91271e-06 4.1353e-05
6.91392e-08 -2.15319e-06 3.70261e-05
2.71296e-07 -1.55763e-06 3.382e-05
-1.53116e-07 -2.09146e-06 2.88263e-05
3.59423e-07 -1.64859e-06 2.33816e-05
1.62917e-07 -1.82202e-06 1.96179e-05
4.30889e-07 -1.70108e-06 1.40696e-05
3.16911e-07 -1.43775e-06 1.58055e-05
2.11165e-07 -1.69012e-06 1.23099e-05
2.23203e-07 -1.50423e-06 1.31691e-05
-4.3619e-08 -1.64139e-06 1.15027e-05
2.02124e-07 -1.38541e-06 1.07613e-05
4.45413e-08 -1.2538e-06 8.47793e-06
3.83065e-07 -1.10834e-06 8.07994e-06
1.24688e-07 -1.17672e-06 6.9295e-06
4.4035e-07 -1.26031e-06 6.64448e-06
-2.4938e-08 -9.47101e-07 7.72863e-06
3.03503e-07 -5.42945e-07 1.04339e-05
1.43973e-07 -7.50842e-07 1.12292e-05
2.07703e-07 -5.16021e-07 1.21566e-05
-9.77345e-09 -7.66517e-07 8.82657e-06
6.04596e-07 -3.41836e-07 4.86024e-06
0 0 0
0 0 0
3.84853e-09 2.94495e-08 2.5566e-09
3.53586e-07 -4.10847e-08 1.09007e-06
5.07998e-07 -8.29835e-08 1.07772e-07
2.6707e-07 -6.82115e-09 1.80557e-06
2.37408e-07 -1.88219e-07 3.61097e-07
1.87564e-07 -2.53764e-07 2.4014e-06
-1.01715e-07 -1.56806e-07 1.31984e-07
3.47674e-07 -5.14853e-08 2.17872e-06
7.98711e-08 -6.70903e-08 4.81457e-08
3.63092e-07 2.00736e-07 1.77477e-06
-3.9498e-07 1.13647e-07 1.34025e-07
8.15168e-08 1.06135e-07 -5.31254e-07
-6.17672e-07 3.50863e-07 -1.55444e-06
9.33059e-08 1.16266e-07 -3.29372e-06
-5.17695e-07 2.30403e-07 -2.7246e-06
-6.00918e-08 6.46384e-08 -4.66747e-06
8.42045e-08 4.54515e-08 -2.70602e-06
1.08838e-07 -1.42767e-07 -4.68184e-06
1.08698e-07 -7.59212e-08 -2.88794e-06
-2.33734e-08 -9.60383e-08 -6.39317e-06
4.58744e-08 -8.24685e-08 -4.76411e-06
-4.03432e-08 3.24454e-08 -7.79774e-06
2.7133e-07 -3.44567e-07 -4.96753e-06
3.54732e-08 1.75255e-07 -6.27405e-06
3.70309e-07 -4.59997e-07 -4.36108e-06
8.39094e-08 -4.4836e-08 -5.97312e-06
8.39985e-08 -4.25469e-07 -6.53593e-06
1.98627e-07 6.03147e-09 -7.34538e-06
3.18187e-07 -1.70618e-07 -7.02662e-06
2.30781e-07 -9.55873e-08 -4.34368e-06
1.90993e-07 -3.63617e-07 -3.52591e-06
3.88066e-07 -4.93519e-07 -1.781e-06
5.37643e-08 -5.71957e-07 -1.76948e-06
5.16065e-07 -2.82132e-07 -1.87966e-06
3.41201e-07 -4.11775e-07 4.01139e-07
4.5818e-07 -2.89119e-07 6.76736e-07
5.66128e-07 -5.79092e-07 4.4813e-06
2.53832e-07 -2.77089e-07 3.52903e-06
4.2594e-07 -4.93167e-07 7.09534e-06
5.67326e-07 -2.75177e-07 4.81093e-06
3.54236e-07 -4.55908e-07 7.80058e-06
6.86396e-07 -5.01949e-07 5.44814e-06
3.37514e-07 -4.80789e-07 8.17798e-06
2.37459e-07 -3.72412e-07 6.26053e-06
3.62281e-07 -3.16522e-07 8.41636e-06
3.41807e-07 -2.50533e-07 6.89174e-06
6.36952e-07 -3.31145e-07 8.25998e-06
4.39232e-07 -2.79664e-07 7.80584e-06
5.3607e-07 -3.21317e-07 9.89545e-06
2.68913e-07 -4.5786e-07 1.06338e-05
2.92099e-07 -7.08322e-07 1.28551e-05
2.04233e-07 -4.58589e-07 1.23121e-05
2.11453e-07 -4.08606e-07 1.36058e-05
3.94372e-07 -6.42701e-07 1.27427e-05
3.69892e-07 -2.6006e-07 1.46355e-05
4.41085e-07 -7.3224e-07 1.3676e-05
1.67632e-07 -2.24363e-07 1.53175e-05
4.41018e-07 -7.78432e-07 1.44175e-05
3.12589e-07 -3.19447e-07 1.54043e-05
5.70138e-07 -7.35303e-07 1.45138e-05
2.30347e-07 -5.87431e-07 1.38694e-05
4.88037e-07 -7.88044e-07 1.27685e-05
-1.68262e-08 -5.51498e-07 1.12792e-05
3.37008e-07 -7.83673e-07 1.09174e-05
-4.9164e-08 -7.02499e-07 9.97918e-06
1.64609e-07 -8.6753e-07 9.70984e-06
-2.16685e-07 -2.87139e-07 8.65946e-06
2.32294e-07 -8.22403e-07 7.80166e-06
-2.09983e-07 -3.81811e-07 6.37843e-06
1.68872e-07 -6.83513e-07 6.69636e-06
3.33899e-08 -4.46347e-07 5.51271e-06
-1.82109e-08 -7.26016e-07 6.3807e-06
2.19925e-07 -2.7575e-07 3.82208e-06
1.79126e-07 -3.4316e-07 4.03901e-06
-3.43131e-08 -9.25759e-08 5.59646e-07
-5.31857e-08 -4.30403e-07 -1.40759e-07
6.2152e-08 -5.67079e-07 2.30039e-07
0 0 0
0 0 0
8.84509e-09 3.47959e-07 -1.33705e-06
-2.75021e-08 3.45833e-07 -5.32418e-06
3.2032e-07 7.4609e-07 -1.17201e-05
4.41517e-08 5.96232e-08 -2.16728e-05
1.5284e-07 7.58361e-07 -3.49502e-05
1.64014e-07 7.25487e-07 -4.85235e-05
1.28692e-07 7.19528e-07 -6.53694e-05
3.02502e-07 5.57673e-07 -8.1526e-05
3.29272e-07 5.63873e-07 -0.000102169
5.2922e-07 2.69925e-07 -0.000122031
5.45954e-07 9.89246e-07 -0.000145343
6.04604e-07 -5.78371e-08 -0.000168076
8.5534e-07 -1.47386e-07 -0.000193989
9.04986e-07 -4.26296e-07 -0.000217205
9.08561e-07 1.86624e-07 -0.000241289
1.13639e-06 -4.10695e-07 -0.000262526
1.42549e-06 -9.29637e-07 -0.000285249
1.72396e-06 -8.51106e-07 -0.00030477
1.68116e-06 -1.16734e-06 -0.000322337
1.85377e-06 -8.63574e-07 -0.000340663
2.58256e-06 -1.15072e-06 -0.00035691
2.182e-06 -5.52108e-07 -0.000375525
2.04859e-06 -6.55064e-07 -0.000387487
2.11151e-06 2.38687e-07 -0.000386381
1.92705e-06 2.28564e-07 -0.000373672
2.12244e-06 2.60243e-07 -0.000359329
2.01758e-06 2.37388e-07 -0.000338462
2.08136e-06 2.27065e-07 -0.000317372
1.93515e-06 -7.01774e-08 -0.000289419
1.87975e-06 -1.18369e-07 -0.000264952
1.80575e-06 -4.31062e-07 -0.000234461
1.47866e-06 -6.07159e-07 -0.00020506
1.52989e-06 -1.04124e-06 -0.000170851
1.18983e-06 -1.43203e-06 -0.000136982
8.52474e-07 -1.76751e-06 -0.000105593
8.20493e-07 -2.04802e-06 -7.41823e-05
6.4687e-07 -2.05947e-06 -4.31884e-05
3.91361e-07 -2.74677e-06 -1.03322e-05
1.85356e-07 -2.74909e-06 1.58609e-05
-4.06345e-08 -3.03119e-06 4.02154e-05
-3.58869e-08 -3.00499e-06 5.82848e-05
-4.11668e-07 -2.87519e-06 7.37361e-05
1.80085e-07 -2.77319e-06 8.33684e-05
3.04702e-07 -2.52752e-06 9.01176e-05
6.72822e-07 -2.82514e-06 9.04961e-05
1.14105e-07 -2.74352e-06 8.91041e-05
3.64554e-07 -2.45057e-06 8.36191e-05
4.2697e-07 -2.36786e-06 7.67001e-05
6.98097e-07 -2.34854e-06 7.10291e-05
2.3598e-07 -2.34559e-06 6.506e-05
5.0358e-07 -2.44368e-06 5.99446e-05
2.1673e-07 -2.08104e-06 5.1888e-05
5.34027e-07 -2.08624e-06 4.3997e-05
-7.12166e-08 -1.80587e-06 3.9102e-05
5.03253e-07 -2.07238e-06 3.52864e-05
1.57635e-07 -1.81762e-06 3.266e-05
3.72344e-07 -1.88041e-06 2.71132e-05
3.20056e-09 -1.76337e-06 2.26673e-05
1.28598e-07 -1.49911e-06 1.50603e-05
2.40824e-07 -1.56061e-06 1.53158e-05
4.43304e-07 -1.67231e-06 1.13479e-05
3.50209e-07 -1.41586e-06 1.43414e-05
2.66335e-07 -1.75299e-06 1.22365e-05
1.62804e-07 -1.36923e-06 1.27368e-05
1.11761e-07 -1.36676e-06 1.17567e-05
3.66539e-07 -1.56042e-06 1.05053e-05
5.30315e-08 -1.32696e-06 8.18818e-06
5.35464e-07 -1.29812e-06 7.78189e-06
6.34577e-09 -9.3989e-07 5.9473e-06
6.84193e-07 -9.88347e-07 7.96165e-06
9.60937e-08 -7.37083e-07 9.69135e-06
2.00084e-07 -7.4364e-07 1.14256e-05
-8.66933e-08 -5.67865e-07 1.1119e-05
3.80544e-07 -7.08069e-07 9.06519e-06
2.00446e-07 -6.87459e-07 4.12456e-06
2.34352e-07 -7.14799e-07 5.87536e-07
0 0 0
0 0 0
7.77681e-08 -1.69912e-07 4.93022e-07
2.55901e-07 -3.48164e-08 3.25414e-07
2.47721e-07 8.95962e-08 2.11471e-06
5.58235e-07 1.63439e-07 9.12599e-07
8.50147e-08 1.07365e-07 3.12835e-06
4.40479e-07 1.72613e-07 1.30241e-06
-1.30287e-08 -1.21521e-08 3.43315e-06
2.04293e-07 1.43445e-07 1.59908e-06
1.43388e-07 -8.21955e-08 3.89852e-06
-2.00773e-07 -3.03735e-09 2.56024e-06
-7.3998e-09 -2.57872e-07 2.62752e-06
-1.02138e-07 -9.05366e-08 5.36706e-07
-3.5842e-07 -2.31356e-07 -1.79794e-06
-1.53383e-07 -2.84215e-08 -2.74387e-06
-2.66248e-07 -5.35396e-08 -5.23071e-06
-4.92524e-08 -1.74546e-07 -3.24572e-06
-3.17195e-07 -1.35827e-07 -5.33103e-06
1.16796e-07 -2.66703e-07 -2.03434e-06
7.50632e-08 -8.20972e-10 -3.93224e-06
1.45384e-07 -1.72167e-07 -1.44665e-06
1.86715e-07 2.05819e-07 -4.53333e-06
1.56932e-07 -1.54521e-07 -3.1016e-06
1.31459e-07 1.29434e-08 -5.61443e-06
5.94537e-08 -3.68252e-07 -4.00023e-06
2.41011e-07 1.58712e-08 -4.7509e-06
-2.27563e-07 -2.51384e-07 -4.00078e-06
3.00306e-07 -1.13883e-07 -3.47373e-06
-2.08139e-07 -4.4447e-07 -3.41244e-06
5.37243e-07 -1.58389e-07 -1.72738e-06
1.41909e-07 -5.66057e-07 -2.62064e-06
6.34014e-07 -3.6592e-07 -1.16444e-06
1.65589e-07 -3.6627e-07 -2.27237e-06
6.64768e-07 -3.22976e-07 -1.7241e-06
1.28148e-07 -6.47028e-07 -8.20322e-07
5.42958e-07 -7.43221e-08 -5.46982e-07
3.26943e-07 -5.60603e-07 2.92229e-06
5.35112e-07 -6.30965e-08 2.58039e-06
3.2142e-07 -6.05951e-07 7.35821e-06
1.73399e-07 -1.78534e-07 5.96083e-06
9.41511e-08 -7.83161e-07 9.94124e-06
3.39926e-07 -4.37574e-07 6.80751e-06
2.51561e-07 -3.51837e-07 9.18814e-06
4.40797e-07 -3.8824e-07 5.58548e-06
1.91707e-07 -3.02941e-07 8.11e-06
7.74176e-08 -3.34186e-07 5.96672e-06
5.34653e-07 -4.33448e-07 7.82163e-06
1.77896e-07 -4.29998e-07 6.59556e-06
2.97513e-07 -3.5918e-07 8.4582e-06
5.31791e-07 -3.04665e-07 9.05061e-06
2.10573e-07 -4.42067e-07 1.17548e-05
1.01591e-07 -3.77376e-07 1.25632e-05
1.51911e-07 -4.32679e-07 1.42986e-05
1.9703e-07 -7.39241e-07 1.31599e-05
2.50312e-07 -2.70141e-07 1.35135e-05
4.0715e-07 -8.71424e-07 1.15726e-05
2.94824e-07 -3.0209e-07 1.28941e-05
1.89234e-07 -6.53952e-07 1.28677e-05
4.35521e-07 -3.47836e-07 1.40343e-05
3.99953e-07 -6.78347e-07 1.38823e-05
2.83487e-07 -5.37455e-07 1.34334e-05
1.54267e-07 -7.99233e-07 1.21596e-05
2.53151e-08 -6.90833e-07 1.05679e-05
2.70333e-07 -7.81607e-07 1.01635e-05
2.3623e-07 -5.30016e-07 9.65102e-06
1.17489e-07 -6.05093e-07 1.03788e-05
-1.43632e-07 -5.54314e-07 9.75333e-06
-8.44388e-08 -6.56243e-07 9.20353e-06
-1.43299e-07 -1.77427e-07 7.47622e-06
1.34688e-07 -7.09279e-07 7.18192e-06
-1.74019e-07 -4.90622e-07 4.79909e-06
2.72348e-07 -7.22907e-07 4.86271e-06
-1.31678e-07 -3.95809e-07 2.50268e-06
3.65153e-07 -6.427e-07 3.72503e-06
2.4484e-08 -9.78713e-08 8.75466e-07
2.70303e-07 -5.9473e-07 1.89847e-06
-6.82883e-08 -1.28652e-07 -1.76033e-06
4.10331e-08 -1.52536e-07 -2.60984e-06
5.27507e-07 -5.27111e-07 -3.82754e-07
0 0 0
0 0 0
1.30192e-08 1.54458e-07 -2.37747e-06
2.99517e-07 3.21798e-07 -5.66772e-06
-8.27446e-08 5.62906e-07 -1.11052e-05
1.52675e-07 8.47118e-07 -2.05866e-05
4.96146e-08 4.03198e-07 -3.29778e-05
6.17633e-08 6.49863e-07 -4.78827e-05
6.11926e-07 7.60541e-07 -6.24197e-05
4.19445e-07 5.2272e-07 -8.1177e-05
6.66983e-07 4.93042e-07 -9.89193e-05
7.01623e-07 3.97178e-07 -0.000123131
6.45123e-07 5.5635e-07 -0.000143046
1.09659e-06 1.68072e-07 -0.000167039
9.83618e-07 3.32503e-07 -0.000191194
1.23461e-06 -6.84512e-08 -0.000216716
1.0501e-06 -5.25154e-07 -0.000237892
1.7634e-06 -3.25776e-07 -0.00026103
1.67144e-06 -8.47503e-07 -0.000280837
1.97382e-06 -6.60196e-07 -0.000301889
1.79417e-06 -7.88091e-07 -0.000320395
2.14932e-06 -7.63009e-07 -0.000337169
2.17264e-06 -9.05218e-07 -0.000354351
2.56027e-06 -9.71195e-07 -0.000370677
2.35138e-06 -5.62096e-07 -0.00038672
1.80823e-06 2.41637e-07 -0.000391114
1.81234e-06 4.49384e-07 -0.000379937
1.77409e-06 1.24489e-06 -0.000359048
1.97201e-06 4.04981e-07 -0.000340204
1.79452e-06 8.21021e-07 -0.000314792
1.61384e-06 7.20865e-08 -0.000291389
1.75943e-06 2.99138e-07 -0.000260284
1.6489e-06 1.37436e-07 -0.000232143
1.243e-06 -7.00872e-07 -0.000197038
1.03914e-06 -9.90117e-07 -0.000161638
1.09059e-06 -1.33391e-06 -0.000125066
8.1397e-07 -1.94932e-06 -9.25663e-05
8.38033e-07 -2.26539e-06 -6.11194e-05
2.78009e-07 -1.99106e-06 -2.81942e-05
5.15185e-07 -2.84026e-06 2.67129e-06
-1.81396e-08 -2.64386e-06 3.07348e-05
3.07359e-07 -3.26728e-06 5.25853e-05
-6.35323e-08 -2.82037e-06 7.23451e-05
1.2918e-08 -3.38325e-06 8.54726e-05
-1.13939e-07 -2.82922e-06 9.47838e-05
6.11967e-07 -2.84836e-06 9.89385e-05
2.35714e-07 -2.39655e-06 0.000100325
3.92644e-07 -2.43586e-06 9.68179e-05
2.76255e-07 -2.6217e-06 9.0309e-05
6.9516e-07 -2.08042e-06 8.06466e-05
3.68049e-07 -2.79985e-06 7.36974e-05
4.14178e-07 -2.05932e-06 6.73481e-05
2.10459e-07 -2.11358e-06 6.04561e-05
4.41536e-07 -1.7586e-06 5.24918e-05
8.72183e-09 -2.05535e-06 4.35545e-05
3.41073e-07 -1.76027e-06 3.77465e-05
-6.30843e-08 -2.06811e-06 3.44414e-05
4.38614e-07 -1.67601e-06 3.00984e-05
-1.05995e-07 -1.79781e-06 2.58931e-05
6.86174e-08 -1.84999e-06 1.85058e-05
-8.49025e-08 -1.85633e-06 1.54236e-05
1.67699e-07 -1.73361e-06 1.03764e-05
2.38917e-08 -1.46054e-06 1.39979e-05
3.40663e-07 -1.51106e-06 1.01307e-05
1.70342e-07 -1.32493e-06 1.28508e-05
1.0062e-07 -1.62467e-06 1.34085e-05
4.63655e-07 -1.41194e-06 1.39691e-05
9.03052e-08 -1.48174e-06 1.03635e-05
4.24949e-07 -1.30423e-06 8.70725e-06
-6.93304e-08 -1.21028e-06 7.34811e-06
2.95889e-07 -1.03548e-06 6.50234e-06
-2.19161e-07 -8.44172e-07 7.78859e-06
1.61088e-07 -4.86986e-07 9.5035e-06
-1.43114e-07 -1.03514e-06 1.04789e-05
2.04648e-07 -7.96743e-07 9.98717e-06
-1.40753e-08 -8.05154e-07 8.01915e-06
3.03811e-07 -4.35213e-07 5.07835e-06
8.25588e-08 -4.88367e-07 2.20096e-07
-5.41374e-08 -7.66949e-07 -1.34481e-06
0 0 0
0 0 0
5.73424e-08 -2.41325e-07 1.75452e-07
7.61065e-08 -2.52296e-08 1.67176e-06
-3.053e-08 9.42777e-08 9.55079e-07
1.08919e-07 2.19566e-07 3.04592e-06
-1.00792e-07 1.25578e-07 1.61614e-06
7.62465e-08 2.59161e-08 4.22065e-06
-1.30841e-07 4.4795e-08 1.78688e-06
1.48752e-07 8.36048e-08 4.20652e-06
-3.8552e-07 9.77033e-08 2.04387e-06
4.02457e-07 1.06658e-07 4.53689e-06
-5.20143e-07 3.51463e-07 3.19274e-06
2.53398e-07 2.13321e-07 2.41544e-06
-4.34396e-07 3.159e-07 1.35457e-07
1.9002e-07 2.36735e-07 -3.2204e-06
-2.84824e-07 -2.12637e-08 -3.60014e-06
-5.73614e-08 3.4256e-08 -6.13359e-06
-2.05362e-07 -1.23456e-07 -3.12609e-06
-4.63585e-08 3.46994e-09 -4.25532e-06
-1.31634e-07 -1.40264e-07 -1.72552e-07
2.83486e-07 -5.88754e-08 -2.17647e-06
1.12041e-07 -3.0521e-07 7.77702e-07
1.50452e-07 3.27659e-08 -2.78133e-06
3.80482e-07 3.49883e-08 -1.51404e-06
-7.30977e-08 3.7718e-08 -4.39638e-06
3.47213e-07 -1.98224e-07 -3.36775e-06
1.32523e-07 -1.79449e-07 -2.85839e-06
4.17606e-07 -2.795e-07 -1.27997e-06
1.46478e-07 -8.20768e-08 9.6166e-07
4.37793e-07 -2.89138e-07 4.37831e-07
7.64429e-08 -1.48651e-07 1.19532e-06
1.49145e-07 -5.1466e-07 -1.75118e-06
2.25989e-07 -2.83521e-07 -1.66743e-06
3.53288e-07 -5.36055e-07 -2.08317e-06
2.91798e-07 -1.04605e-07 -1.16705e-06
1.71822e-07 -6.15815e-07 1.44104e-06
1.52407e-07 -1.41648e-07 1.4709e-06
2.50098e-07 -5.97657e-07 5.32448e-06
6.17125e-08 -3.57264e-07 4.72411e-06
3.54128e-07 -7.78663e-07 9.46868e-06
1.76525e-07 -2.27901e-07 7.31778e-06
3.57233e-07 -4.26213e-07 1.01237e-05
1.51352e-07 -1.20954e-07 6.13105e-06
3.68556e-07 -3.66576e-07 8.57905e-06
2.88807e-07 -2.78464e-07 6.12274e-06
4.2214e-07 -5.0098e-07 9.2223e-06
1.12398e-07 -2.56158e-07 7.43068e-06
3.96153e-07 -1.75111e-07 9.07204e-06
3.58332e-07 -1.74292e-07 8.04016e-06
4.34661e-07 -1.2126e-07 1.02356e-05
3.78823e-07 -1.53577e-07 1.11389e-05
2.78757e-07 -2.81975e-07 1.36783e-05
1.04247e-07 -5.74594e-07 1.33632e-05
2.37743e-07 -2.10806e-07 1.4043e-05
9.12094e-08 -5.18473e-07 1.20641e-05
4.01365e-08 -2.63452e-07 1.29779e-05
5.75608e-08 -6.51775e-07 1.17966e-05
2.33877e-07 -3.97718e-07 1.41707e-05
2.87629e-07 -5.40169e-07 1.39763e-05
2.07734e-07 -3.92108e-07 1.53179e-05
2.03611e-07 -4.20591e-07 1.35783e-05
-1.25281e-07 -3.94885e-07 1.24263e-05
3.00561e-07 -5.91716e-07 1.09033e-05
1.50889e-07 -4.57093e-07 1.07045e-05
-1.24831e-07 -4.7742e-07 1.1148e-05
-1.62579e-08 -4.79422e-07 1.15567e-05
1.33782e-07 -6.43506e-07 1.07103e-05
-1.93972e-07 -5.48695e-07 9.8244e-06
2.75846e-07 -4.15086e-07 7.95325e-06
-9.20737e-08 -3.04799e-07 6.55169e-06
2.51768e-07 -4.57206e-07 5.79798e-06
-2.31501e-08 5.06771e-09 3.99929e-06
1.87283e-07 -4.41879e-07 3.79106e-06
-4.96026e-08 -4.40867e-08 1.20362e-06
2.72459e-07 -3.59648e-07 2.07011e-06
1.00814e-07 8.1248e-09 -6.91868e-07
4.426e-07 -1.98023e-07 7.30443e-08
4.48296e-07 -1.6127e-07 -2.58816e-06
-2.23923e-07 -3.06433e-07 -2.93152e-06
2.26556e-07 -3.81164e-07 -3.20753e-07
0 0 0
0 0 0
1.22678e-07 2.94273e-07 -1.43931e-06
-5.24028e-08 4.36434e-07 -6.06254e-06
1.63481e-07 7.39286e-07 -1.15148e-05
1.20653e-07 4.02985e-07 -2.01782e-05
2.14718e-07 8.6178e-07 -3.23977e-05
3.52957e-07 7.93519e-07 -4.71908e-05
2.46563e-07 5.99067e-07 -6.49009e-05
3.27071e-07 5.96766e-07 -8.19644e-05
2.83074e-07 5.56868e-07 -0.000102558
3.98657e-07 3.32136e-07 -0.000122178
5.08326e-07 4.16869e-07 -0.000144134
6.24398e-07 -1.86921e-07 -0.000166489
9.10602e-07 1.8568e-07 -0.000191991
1.02831e-06 -5.09117e-07 -0.000214666
1.27238e-06 -1.18162e-07 -0.000238297
1.37382e-06 -6.56587e-07 -0.000258051
1.9237e-06 -7.8382e-07 -0.000279193
1.69946e-06 -4.5576e-07 -0.000299428
1.90933e-06 -1.17098e-06 -0.000317988
2.22711e-06 -5.61986e-07 -0.000335444
2.41233e-06 -8.34846e-07 -0.00035039
2.44157e-06 -4.99312e-07 -0.000366474
2.70324e-06 -8.35907e-07 -0.000380215
3.46287e-06 4.23439e-07 -0.000388609
2.54497e-06 1.00231e-06 -0.000380661
2.00038e-06 8.95911e-07 -0.000362485
2.16662e-06 9.84485e-07 -0.000338648
2.21095e-06 8.80334e-07 -0.000315963
2.38805e-06 3.80197e-07 -0.000286846
1.89741e-06 3.75531e-07 -0.000259306
1.90881e-06 2.74194e-07 -0.00022604
1.53962e-06 -2.50831e-07 -0.000192738
1.06681e-06 -1.1123e-06 -0.000153855
6.68977e-07 -1.78753e-06 -0.000115768
6.92093e-07 -1.66617e-06 -8.15567e-05
5.24308e-07 -2.21293e-06 -4.79788e-05
2.53088e-07 -2.2077e-06 -1.58501e-05
-2.28682e-08 -2.94767e-06 1.65942e-05
6.8302e-09 -3.01409e-06 4.38461e-05
-1.76786e-07 -3.14111e-06 6.78395e-05
-7.68096e-08 -3.17256e-06 8.57721e-05
-1.73576e-07 -3.17989e-06 9.83805e-05
2.0545e-07 -3.3005e-06 0.00010546
-8.87533e-08 -2.57662e-06 0.000108937
6.95863e-07 -2.43352e-06 0.000108099
1.12728e-07 -2.49273e-06 0.000105807
5.04287e-07 -2.42922e-06 9.71301e-05
1.73198e-07 -2.40727e-06 8.57645e-05
6.53113e-07 -2.16585e-06 7.64415e-05
4.24981e-07 -2.15184e-06 6.84523e-05
5.8029e-07 -2.32565e-06 6.15304e-05
2.88403e-07 -1.61615e-06 5.22593e-05
3.43419e-07 -2.00191e-06 4.27931e-05
-6.51129e-08 -1.77717e-06 3.70553e-05
2.82363e-07 -1.98528e-06 3.22002e-05
-1.88792e-07 -1.86275e-06 2.89052e-05
7.73226e-08 -1.8509e-06 2.31388e-05
-1.92736e-07 -1.54983e-06 1.88938e-05
2.1275e-07 -1.74994e-06 1.07891e-05
5.11073e-08 -1.57721e-06 1.23337e-05
7.89359e-08 -1.57144e-06 8.86604e-06
1.1721e-07 -1.39161e-06 1.22442e-05
2.41764e-07 -1.58989e-06 1.08402e-05
1.11575e-07 -1.46419e-06 1.41276e-05
-1.07916e-07 -1.41947e-06 1.45731e-05
2.3125e-07 -1.2745e-06 1.15028e-05
-1.37855e-07 -1.26803e-06 7.64899e-06
1.96197e-07 -1.22905e-06 6.9442e-06
-1.09426e-08 -9.6266e-07 5.81528e-06
3.18792e-07 -7.87896e-07 6.81104e-06
-4.74531e-08 -9.40568e-07 8.36788e-06
2.30203e-07 -6.22523e-07 9.50581e-06
-2.98557e-07 -6.70681e-07 8.38315e-06
6.71557e-08 -6.44182e-07 6.71383e-06
1.18984e-08 -5.55081e-07 4.42502e-06
2.56601e-07 -6.85152e-07 2.17536e-06
8.58783e-08 -2.66675e-07 -2.29526e-06
4.20471e-07 -5.78752e-07 -9.54926e-08
0 0 0
0 0 0
-5.27984e-08 3.18658e-08 4.86746e-07
1.92406e-07 1.20219e-07 -1.24932e-08
-8.34338e-08 1.90531e-08 1.69243e-06
3.73687e-07 -3.31836e-09 -3.26232e-08
-1.47048e-07 1.35548e-07 2.73829e-06
1.00867e-07 9.70534e-08 9.1832e-07
-1.44175e-07 -2.14968e-08 3.81203e-06
1.19615e-07 -1.83732e-07 1.63814e-06
2.09717e-07 -1.38025e-07 4.69167e-06
-1.82083e-07 -2.69076e-07 3.33755e-06
5.7692e-08 -1.26344e-07 4.57549e-06
-2.22107e-07 -1.91476e-07 2.69603e-06
-4.02851e-09 -2.39929e-07 4.90503e-07
-5.19855e-08 -1.12382e-07 -9.48777e-07
2.44616e-08 -3.87573e-08 -3.90011e-06
-3.94732e-08 -3.19227e-07 -2.50542e-06
-3.619e-07 -2.00684e-08 -5.30237e-06
4.7353e-08 -9.81063e-08 -1.731e-06
-4.43927e-08 1.17035e-07 -3.06288e-06
-2.58411e-07 -2.82429e-08 1.41378e-06
-1.62443e-08 8.42674e-08 -7.665e-07
-8.10242e-08 6.61651e-08 9.24486e-07
3.00355e-07 9.24971e-08 -2.52149e-06
1.55644e-08 -1.74997e-07 -2.19626e-06
3.45926e-07 -1.64235e-07 -3.22921e-06
-1.76706e-07 -2.74297e-07 -1.98116e-06
2.75418e-07 -1.45426e-07 4.90392e-07
5.80578e-09 -2.44969e-07 1.63663e-06
5.80483e-07 -2.3807e-07 3.88355e-06
-3.75339e-08 -4.65463e-07 7.99164e-07
6.61833e-07 -1.66684e-07 5.31682e-07
-2.019e-07 -5.62841e-07 -2.87693e-06
3.92056e-07 -2.6495e-07 -1.74319e-06
8.25052e-08 -3.73607e-07 -4.9597e-07
2.55647e-07 -1.50154e-07 1.3447e-06
3.52361e-07 -5.94861e-07 4.34752e-06
2.41332e-07 -8.9486e-08 3.90033e-06
4.64986e-08 -4.87372e-07 7.36738e-06
3.42607e-07 -2.16624e-07 5.4904e-06
6.50601e-08 -3.91609e-07 9.13251e-06
4.27176e-07 -3.44197e-07 5.83327e-06
4.58788e-07 -4.53167e-07 8.95047e-06
3.5132e-07 1.19391e-07 4.97063e-06
3.86104e-07 -3.33236e-07 8.60454e-06
2.85236e-07 1.24569e-07 5.90347e-06
5.44876e-07 -2.5906e-07 8.8939e-06
4.18465e-08 -2.8643e-07 6.84704e-06
4.69889e-07 -1.9116e-07 9.09962e-06
4.08091e-07 -3.73713e-07 8.88864e-06
1.31918e-07 -5.23381e-07 1.20138e-05
2.53361e-07 -3.79559e-07 1.30696e-05
2.73989e-07 -4.86444e-07 1.55017e-05
1.02829e-07 -5.46126e-07 1.46566e-05
1.31438e-07 -4.20155e-07 1.52239e-05
2.16609e-08 -5.59358e-07 1.35422e-05
2.563e-07 -5.76164e-07 1.53779e-05
-1.11381e-07 -5.70449e-07 1.56062e-05
4.54774e-07 -3.37709e-07 1.71576e-05
1.3361e-07 -4.67722e-07 1.63092e-05
1.83284e-07 -3.44961e-07 1.56061e-05
3.04336e-07 -4.38278e-07 1.3618e-05
-1.52481e-08 -5.81066e-07 1.25657e-05
1.11518e-07 -6.79411e-07 1.22248e-05
-2.29009e-07 -6.41591e-07 1.23258e-05
1.9067e-09 -6.11918e-07 1.26478e-05
-4.17342e-07 -7.47917e-07 1.22746e-05
4.10585e-07 -7.68879e-07 1.14565e-05
-1.629e-07 -7.37211e-07 9.96591e-06
3.75795e-07 -8.84732e-07 9.2627e-06
-1.17499e-07 -6.08776e-07 6.51059e-06
2.47041e-07 -7.30805e-07 6.23884e-06
-9.37638e-08 -3.36323e-07 3.32516e-06
3.4999e-07 -7.66095e-07 4.56002e-06
-1.06945e-07 -3.71723e-07 1.08113e-06
4.92772e-07 -4.52786e-07 2.4154e-06
1.68325e-07 -4.15656e-07 -1.77694e-06
6.15619e-07 -2.89216e-07 6.66126e-07
1.56684e-07 -5.33669e-08 -2.04491e-06
3.43407e-07 -4.17333e-07 -1.45564e-06
6.10705e-07 -2.59804e-07 1.94619e-06
0 0 0
0 0 0
1.16693e-07 2.82207e-07 -1.7821e-06
1.00399e-07 -2.9405e-08 -5.75682e-06
-7.09407e-08 4.17725e-07 -1.25125e-05
-8.80256e-08 7.48452e-07 -2.19254e-05
1.40974e-07 5.23787e-07 -3.52468e-05
3.96118e-07 3.31354e-07 -5.03494e-05
5.08528e-07 6.81415e-07 -6.68382e-05
6.78645e-07 3.50254e-07 -8.6425e-05
6.96343e-07 4.62419e-07 -0.000104452
1.00017e-06 2.00521e-07 -0.000126191
9.63605e-07 5.84416e-07 -0.000145346
1.06954e-06 -2.58358e-07 -0.00016887
1.16995e-06 9.40985e-09 -0.000192698
1.65148e-06 -5.71323e-07 -0.0002167
1.89993e-06 -4.64418e-07 -0.000236749
2.1763e-06 -6.82281e-07 -0.000257946
1.92586e-06 -5.89867e-07 -0.000276771
2.26505e-06 -6.18345e-07 -0.000297499
2.30133e-06 -7.43538e-07 -0.000317115
2.34639e-06 -6.0069e-07 -0.000332383
2.56319e-06 -6.91414e-07 -0.000346407
2.72624e-06 -6.08508e-07 -0.000359212
2.92479e-06 -4.65068e-07 -0.000369983
3.21715e-06 1.15762e-07 -0.000377513
3.22734e-06 7.21565e-07 -0.000379027
2.31656e-06 1.53675e-06 -0.000364357
2.36719e-06 1.44788e-06 -0.00034218
2.02193e-06 1.15793e-06 -0.000314435
1.92493e-06 6.02173e-07 -0.00028751
2.03694e-06 7.81555e-07 -0.000254104
1.89465e-06 6.57651e-07 -0.000223464
1.90688e-06 -5.21791e-08 -0.000186981
1.04178e-06 -5.90035e-07 -0.000147891
8.70077e-07 -1.50242e-06 -0.000107816
8.3777e-07 -1.79598e-06 -7.09087e-05
7.99911e-07 -2.1595e-06 -3.68055e-05
6.59584e-07 -2.34372e-06 -2.70282e-06
5.27704e-07 -2.8665e-06 2.79323e-05
6.44334e-08 -2.58024e-06 5.74789e-05
4.2802e-08 -3.43298e-06 8.11452e-05
-2.78842e-07 -2.9648e-06 0.00010081
1.27914e-07 -3.46265e-06 0.000112647
-2.58732e-07 -2.62782e-06 0.000117598
3.31751e-07 -2.99699e-06 0.000117825
2.82808e-07 -2.37567e-06 0.000117397
4.48831e-07 -2.39699e-06 0.000112442
-1.22094e-07 -2.39751e-06 0.000103941
4.78037e-07 -2.40694e-06 9.01635e-05
4.35836e-07 -2.55605e-06 7.98699e-05
5.12568e-07 -2.14262e-06 7.01207e-05
1.10716e-07 -2.42511e-06 6.10303e-05
6.15096e-07 -1.97269e-06 5.08439e-05
1.55792e-07 -2.23183e-06 4.1065e-05
3.42238e-07 -1.73019e-06 3.41492e-05
-1.38256e-07 -2.03969e-06 3.01322e-05
3.61486e-07 -1.61572e-06 2.38762e-05
-1.67376e-07 -1.64511e-06 2.17592e-05
2.66354e-07 -1.46971e-06 1.49657e-05
-7.3155e-08 -1.58729e-06 1.3073e-05
3.62173e-08 -1.39563e-06 7.24063e-06
-2.84468e-07 -1.5813e-06 1.21532e-05
-1.61154e-07 -1.55746e-06 7.19224e-06
1.61564e-07 -1.40046e-06 1.0698e-05
-4.33269e-08 -1.45478e-06 1.2473e-05
4.34835e-08 -1.47018e-06 1.50868e-05
8.11139e-08 -1.26293e-06 1.02147e-05
2.30512e-07 -1.07373e-06 7.7692e-06
-1.74096e-07 -9.17188e-07 6.84655e-06
1.28265e-08 -1.07642e-06 6.57803e-06
-1.19339e-07 -8.91084e-07 7.11508e-06
1.84299e-07 -4.64981e-07 7.72605e-06
-1.69746e-07 -7.03048e-07 9.25957e-06
3.48215e-07 -4.18633e-07 7.3206e-06
8.18891e-10 -9.27159e-07 5.70406e-06
3.10761e-07 -3.91048e-07 4.97447e-06
-6.18688e-08 -5.41407e-07 2.42623e-06
1.14146e-07 -4.71251e-07 1.9287e-07
-1.53254e-07 -2.94359e-07 -1.62453e-06
1.755e-07 -5.04996e-07 1.28002e-06
0 0 0
0 0 0
2.45541e-07 -2.92715e-07 -2.63463e-07
-2.06507e-08 9.383e-08 4.1321e-07
-1.41987e-07 6.11495e-08 -1.15419e-06
-1.19898e-07 2.91214e-07 4.88376e-07
-4.0993e-07 1.11804e-07 -8.41426e-07
3.72642e-08 3.43035e-07 2.58551e-06
-2.67628e-07 4.26474e-08 1.04039e-06
1.66932e-07 2.0898e-07 3.91222e-06
-2.72727e-07 1.77545e-07 2.07289e-06
4.89572e-07 3.65293e-07 4.56345e-06
-4.30454e-07 6.80008e-08 4.16363e-06
2.40804e-07 3.21618e-07 4.41226e-06
-2.75155e-07 9.4375e-08 3.7784e-06
2.93315e-07 2.33313e-07 1.15615e-06
-3.34419e-07 -6.09499e-08 1.1856e-06
1.20749e-07 1.91141e-08 -2.91341e-06
-3.25291e-07 -1.49477e-07 -9.79281e-07
-4.41095e-08 1.80508e-08 -4.12186e-06
-1.02033e-07 -7.19574e-08 -3.13761e-07
-6.77368e-08 -1.70932e-07 -2.56345e-06
-1.9777e-08 -1.48498e-07 1.0608e-06
5.71951e-09 -2.2259e-07 -1.82934e-06
1.97076e-07 -3.54007e-07 7.33528e-09
1.36903e-07 -1.84662e-07 -1.9481e-06
6.60163e-08 -2.79465e-07 -8.81937e-07
-1.05135e-09 -2.41249e-07 3.25148e-07
1.64057e-08 -1.56905e-07 1.26996e-06
3.10737e-07 -9.60245e-08 4.16314e-06
2.08257e-07 -3.28691e-07 2.9455e-06
1.65621e-07 -3.118e-07 4.20208e-06
1.80916e-07 -5.41109e-07 1.4836e-07
-9.33154e-08 -2.05304e-07 1.92091e-07
1.24783e-07 -3.78013e-07 -1.43127e-06
3.73157e-09 9.47714e-08 3.04025e-07
4.94474e-07 -4.84337e-07 2.62869e-06
-1.82405e-07 -1.23488e-07 3.65673e-06
7.40572e-07 -6.47303e-07 6.28713e-06
-6.55822e-08 -3.16915e-07 4.87679e-06
5.58196e-07 -4.89319e-07 7.43072e-06
2.10217e-07 -4.68384e-07 5.08309e-06
3.44146e-07 -4.65584e-07 7.86801e-06
2.57997e-07 -1.89763e-07 5.1743e-06
4.85014e-07 -1.99849e-07 8.231e-06
3.57551e-07 1.85425e-07 5.73662e-06
5.68059e-07 -3.66542e-07 8.78837e-06
2.33372e-07 -1.09972e-07 6.60752e-06
3.61979e-07 -1.00657e-07 8.64429e-06
1.07221e-07 -2.58819e-07 7.09955e-06
2.25693e-07 -1.4695e-07 9.64555e-06
2.29934e-08 -1.8027e-07 1.02981e-05
3.69257e-07 -1.43148e-07 1.35012e-05
5.64398e-08 -3.77731e-07 1.34953e-05
8.9617e-08 -2.42927e-07 1.50916e-05
6.71974e-08 -4.44222e-07 1.37638e-05
-4.54776e-08 -5.22425e-07 1.56745e-05
-1.30407e-07 -6.52499e-07 1.46538e-05
1.64635e-07 -7.08102e-07 1.66601e-05
-3.54859e-08 -5.3975e-07 1.56045e-05
1.05604e-08 -4.02254e-07 1.61282e-05
2.42934e-07 -3.54574e-07 1.43114e-05
-3.27366e-08 -2.6386e-07 1.34981e-05
2.97514e-07 -4.45978e-07 1.25208e-05
-1.74532e-07 -4.43331e-07 1.1933e-05
-9.08695e-09 -3.02634e-07 1.16935e-05
-2.08214e-07 -2.72138e-07 1.11001e-05
-6.99247e-08 -5.66649e-07 1.09055e-05
-3.99593e-07 -3.81e-07 1.06791e-05
5.37995e-09 -5.80727e-07 1.05986e-05
-4.38257e-08 -3.77599e-07 9.14006e-06
1.47933e-07 -2.74974e-07 9.16289e-06
9.59782e-08 -2.35208e-07 6.51822e-06
2.07885e-08 -1.50662e-07 6.93164e-06
-7.26284e-08 5.64812e-08 3.52689e-06
-1.31163e-08 -4.14486e-07 5.41882e-06
1.59721e-07 -7.14354e-08 1.51844e-06
1.40514e-07 -3.7089e-07 3.28128e-06
2.83482e-07 -1.75454e-07 -1.12635e-06
1.82947e-07 -2.0085e-07 2.01767e-06
2.69566e-07 -6.54668e-08 -1.47149e-06
-1.9079e-08 -1.30826e-07 -1.13704e-06
1.436e-07 -2.59989e-07 1.56505e-06
0 0 0
0 0 0
1.22951e-07 -1.23625e-08 -8.08936e-07
2.08095e-07 3.18127e-07 -6.73815e-06
-9.71277e-08 5.67e-07 -1.40825e-05
1.50677e-07 2.52458e-08 -2.46466e-05
2.78542e-07 3.47398e-07 -3.68077e-05
1.17096e-07 3.92318e-07 -5.2529e-05
2.84106e-07 3.12606e-07 -7.00892e-05
2.24369e-07 2.67457e-07 -8.905e-05
4.7533e-07 3.2257e-07 -0.000108241
4.90512e-07 2.47038e-07 -0.000127028
5.85447e-07 7.06537e-08 -0.00014816
7.81687e-07 4.97275e-09 -0.000172366
6.79907e-07 -2.50367e-07 -0.000196395
8.96668e-07 -6.08964e-07 -0.000217868
1.35267e-06 -3.72528e-07 -0.00023941
1.50037e-06 -7.43858e-07 -0.000257132
1.83397e-06 -7.46837e-07 -0.000275549
1.81413e-06 -5.66961e-07 -0.000295074
1.99853e-06 -9.31305e-07 -0.000313403
2.34372e-06 -4.12914e-07 -0.000328623
2.45779e-06 -1.02581e-06 -0.000339487
2.66892e-06 -2.08053e-08 -0.000350143
3.01759e-06 -7.227e-07 -0.000357426
3.08207e-06 -2.77817e-07 -0.000362552
3.35408e-06 -2.32738e-09 -0.000366132
3.87974e-06 1.16405e-06 -0.000361459
3.06103e-06 1.51773e-06 -0.000340594
2.61566e-06 1.37279e-06 -0.000313219
2.02624e-06 9.97566e-07 -0.000281858
2.05736e-06 8.0312e-07 -0.000250391
1.82012e-06 4.78717e-07 -0.00021624
1.53937e-06 -2.01494e-07 -0.000180435
1.31325e-06 -4.36864e-07 -0.000140549
7.55427e-07 -1.34568e-06 -9.91022e-05
7.33481e-07 -1.68052e-06 -6.19363e-05
3.26619e-07 -2.34823e-06 -2.389e-05
4.20777e-07 -2.30403e-06 8.87633e-06
-2.32826e-07 -2.62819e-06 4.11156e-05
5.7829e-09 -2.95702e-06 6.83457e-05
-3.67578e-07 -3.01878e-06 9.39237e-05
-3.03097e-07 -3.02264e-06 0.000112764
-9.59074e-08 -2.98725e-06 0.000124723
-1.90846e-08 -3.17092e-06 0.000128652
-1.6175e-07 -2.58496e-06 0.000128331
4.24841e-07 -2.57855e-06 0.000124512
-7.6443e-08 -2.29071e-06 0.000120747
3.9943e-07 -1.9832e-06 0.000110026
3.05055e-07 -2.45485e-06 9.65494e-05
5.83365e-07 -2.13012e-06 8.28909e-05
6.92693e-08 -2.15718e-06 7.1647e-05
2.22871e-07 -2.19604e-06 6.08287e-05
3.96096e-08 -2.16124e-06 4.9398e-05
2.47835e-07 -1.91978e-06 3.75981e-05
-2.16502e-07 -1.84039e-06 3.23713e-05
2.30687e-07 -1.86818e-06 2.54138e-05
-3.27254e-07 -1.77819e-06 2.24976e-05
1.29494e-07 -1.71112e-06 1.77379e-05
-2.84136e-07 -1.33483e-06 1.72929e-05
7.62985e-08 -1.61154e-06 8.28125e-06
4.2874e-08 -1.48244e-06 1.01044e-05
2.60311e-07 -1.66311e-06 4.76177e-06
-1.38549e-07 -1.31138e-06 8.95984e-06
-2.33345e-08 -1.62198e-06 5.86062e-06
1.90783e-07 -1.33264e-06 1.10991e-05
-2.75218e-08 -1.3187e-06 1.20029e-05
-8.44078e-08 -9.22773e-07 1.03858e-05
-3.31759e-07 -1.18022e-06 6.61637e-06
3.69623e-08 -1.02084e-06 7.78291e-06
-2.20015e-07 -1.06084e-06 6.68887e-06
8.82409e-09 -7.3562e-07 6.75804e-06
-4.66567e-08 -6.73174e-07 7.32683e-06
2.13257e-07 -5.8328e-07 8.79788e-06
-3.48047e-07 -7.58051e-07 7.00722e-06
1.44694e-07 -5.73203e-07 5.08979e-06
-7.91875e-08 -5.90647e-07 4.41397e-06
1.04301e-07 -5.04366e-07 4.24769e-06
-2.82627e-07 -1.52997e-07 -2.87241e-07
2.7517e-08 -4.763e-07 1.32943e-06
2.19456e-07 -1.7732e-07 -8.36606e-07
2.70974e-07 -3.7582e-07 1.26917e-06
0 0 0
0 0 0
2.24349e-08 1.92423e-09 1.41399e-07
2.47724e-07 -1.84127e-07 -9.99191e-07
-3.14552e-07 2.80474e-07 1.79496e-08
2.36329e-07 -1.27623e-07 -1.92082e-06
-2.52369e-07 2.26246e-08 8.71596e-07
-8.33021e-09 -3.76438e-07 -2.8378e-07
-2.08266e-07 -1.67886e-07 3.05132e-06
-2.05798e-07 -1.97515e-07 1.58812e-06
-7.37185e-08 -1.63647e-07 4.17887e-06
2.81474e-08 -3.28568e-07 3.22738e-06
1.76339e-07 -1.39105e-07 4.54932e-06
-9.72189e-08 -3.15409e-07 5.03932e-06
3.76183e-08 -1.08659e-07 4.28897e-06
-5.55053e-08 -3.89166e-07 4.88375e-06
8.31386e-08 5.79772e-08 1.02889e-06
-8.76094e-08 -2.85147e-07 1.94958e-06
-8.01405e-09 -6.35078e-08 -3.11251e-06
-1.79502e-07 1.53079e-07 -3.9924e-07
-1.41346e-07 1.15552e-07 -4.08818e-06
4.43757e-08 1.21424e-07 -1.546e-07
1.22608e-07 6.23523e-08 -3.35475e-06
6.66286e-08 3.32409e-08 -2.52639e-07
2.3657e-07 1.09088e-08 -2.11805e-06
-2.1882e-07 -4.37398e-08 6.23947e-07
2.39331e-07 8.33134e-08 6.21765e-07
-1.63293e-07 -1.55263e-07 1.91502e-06
3.33752e-07 -1.44389e-07 2.78228e-06
1.77119e-07 -2.92377e-07 2.51541e-06
4.29887e-07 -2.92356e-07 4.13169e-06
-1.08451e-07 -3.37237e-07 1.71812e-06
3.89069e-07 -2.47804e-07 2.79808e-06
-3.46084e-07 -5.60698e-07 -6.44523e-07
2.90492e-07 5.14004e-09 2.50851e-07
8.26019e-08 -6.89337e-07 -3.13853e-07
1.88531e-07 -2.16878e-07 1.50899e-06
9.72582e-08 -4.83655e-07 3.62716e-06
1.73877e-07 -3.67727e-07 3.96111e-06
1.35229e-07 -3.1138e-07 5.88933e-06
6.48047e-07 -3.06813e-07 3.87787e-06
2.5673e-07 -2.2706e-07 6.21532e-06
2.65875e-07 -3.00502e-07 3.86875e-06
1.28362e-07 -1.78201e-07 7.31087e-06
3.65966e-08 6.26504e-10 4.2386e-06
4.14789e-07 -2.1149e-07 7.48663e-06
5.56469e-07 2.02991e-07 4.53208e-06
4.45661e-07 -1.01582e-07 7.57689e-06
5.75802e-07 1.04032e-07 5.93841e-06
5.72495e-07 -2.48232e-07 8.96931e-06
-8.29748e-08 -4.08633e-07 8.78758e-06
4.14637e-07 -3.01948e-07 1.15736e-05
-1.4862e-07 -6.78453e-07 1.15299e-05
9.01639e-08 -3.49548e-07 1.34911e-05
-1.70315e-07 -3.79127e-07 1.25655e-05
2.73735e-08 -4.4448e-07 1.4202e-05
7.17966e-08 -3.61148e-07 1.30105e-05
6.81269e-08 -3.71136e-07 1.46624e-05
3.71887e-07 -4.18106e-07 1.29425e-05
1.09862e-07 -6.02738e-07 1.31365e-05
2.13037e-07 -1.96263e-07 1.10189e-05
1.68944e-07 -5.01586e-07 1.12337e-05
1.21122e-08 -4.55011e-07 1.01089e-05
9.16099e-08 -3.26271e-07 1.01499e-05
7.03568e-08 -5.19626e-07 8.9547e-06
-2.08198e-07 -3.90106e-07 7.82575e-06
1.71112e-07 -5.36462e-07 6.58711e-06
-1.89976e-07 -5.43389e-07 6.62156e-06
1.5417e-07 -6.00518e-07 6.95269e-06
-1.70026e-07 -8.5308e-07 7.94738e-06
1.53402e-07 -5.34791e-07 8.57739e-06
-1.70157e-07 -5.80532e-07 7.61661e-06
4.35325e-07 -3.24425e-07 7.64894e-06
-2.71725e-07 -4.07688e-07 5.59316e-06
3.16214e-07 -5.84767e-07 6.2189e-06
7.25791e-08 -2.90485e-07 3.10036e-06
3.92802e-07 -6.5745e-07 3.59529e-06
-6.25253e-08 -2.53109e-07 -1.10344e-07
3.83974e-07 -5.11533e-07 1.54803e-06
-9.55577e-08 -1.85986e-07 -1.2472e-06
7.87812e-08 -4.86274e-08 1.80937e-06
-5.3268e-08 -2.84396e-07 -1.51917e-06
2.01648e-07 -3.92632e-07 -3.50672e-06
2.97106e-07 4.82524e-08 6.03046e-07
0 0 0
0 0 0
-1.88376e-08 5.43027e-08 -1.71064e-06
-3.98668e-08 -3.65109e-08 -6.92258e-06
-4.8836e-08 2.78528e-08 -1.62097e-05
3.21555e-07 1.37912e-07 -2.57703e-05
4.41634e-07 6.98113e-07 -3.9886e-05
4.76347e-07 -8.65857e-09 -5.39285e-05
2.12083e-07 2.68425e-07 -7.09766e-05
6.65262e-07 2.85835e-08 -8.96423e-05
7.06193e-07 5.44422e-07 -0.000107706
8.1194e-07 2.28988e-07 -0.000127703
8.89841e-07 2.11922e-07 -0.000148886
1.07454e-06 -3.76308e-07 -0.000172501
1.35853e-06 -2.12709e-07 -0.0001958
1.81865e-06 -3.1128e-07 -0.000217187
1.93347e-06 -5.9702e-07 -0.000236139
2.14413e-06 -7.98999e-07 -0.000254613
2.408e-06 -4.28676e-07 -0.000271125
2.04126e-06 -3.32474e-07 -0.00028899
2.45907e-06 -7.3166e-07 -0.000307503
2.44095e-06 -5.4155e-07 -0.000320544
2.87189e-06 -2.61417e-07 -0.000330489
2.81593e-06 -4.59078e-08 -0.000337543
2.87736e-06 -1.54269e-07 -0.000343282
3.10598e-06 1.02254e-07 -0.000346602
3.19398e-06 -1.77392e-07 -0.000347921
3.73264e-06 8.276e-07 -0.000343507
3.32238e-06 1.22377e-06 -0.000330386
2.63623e-06 1.64279e-06 -0.000304578
2.36307e-06 8.24273e-07 -0.000275408
1.819e-06 8.78275e-07 -0.000240885
1.84883e-06 5.17847e-07 -0.000209352
1.57711e-06 2.25492e-07 -0.000172294
1.10369e-06 -3.1929e-07 -0.00013198
1.07897e-06 -1.12668e-06 -9.04014e-05
2.96592e-07 -1.73769e-06 -5.05653e-05
7.8884e-07 -2.04212e-06 -1.24802e-05
1.73916e-08 -2.29951e-06 2.35671e-05
2.74004e-07 -2.77038e-06 5.2824e-05
-2.83278e-07 -2.48958e-06 7.95977e-05
1.98426e-07 -3.34257e-06 0.000102707
-1.8802e-07 -2.71212e-06 0.000122272
-1.22721e-07 -3.22061e-06 0.000134437
5.52938e-08 -2.56179e-06 0.000136362
2.04925e-07 -2.86441e-06 0.000135246
2.10249e-07 -2.36697e-06 0.000131103
3.9496e-07 -2.22139e-06 0.000124354
6.79443e-08 -2.05893e-06 0.000114129
8.32808e-07 -2.29932e-06 9.97649e-05
4.46457e-07 -2.02422e-06 8.56491e-05
4.27529e-07 -2.01405e-06 7.34578e-05
3.23049e-07 -2.15692e-06 6.06593e-05
2.41653e-07 -1.80676e-06 4.83171e-05
-1.11218e-07 -2.15298e-06 3.64331e-05
1.0426e-07 -1.46065e-06 2.93312e-05
-2.08031e-07 -2.05471e-06 2.38844e-05
2.24882e-07 -1.55764e-06 1.75637e-05
-2.16504e-07 -1.58227e-06 1.76088e-05
1.62214e-07 -1.43721e-06 1.27175e-05
-2.20776e-07 -1.66064e-06 1.1181e-05
9.06251e-08 -1.2715e-06 3.43596e-06
-4.21142e-07 -1.57779e-06 7.40617e-06
-1.0574e-07 -1.30285e-06 1.65643e-06
-1.66845e-07 -1.56566e-06 5.23673e-06
-6.69413e-09 -1.18597e-06 6.42115e-06
-4.28536e-08 -1.29928e-06 1.02724e-05
-4.41513e-07 -1.42922e-06 7.28616e-06
3.27559e-08 -8.4284e-07 8.01643e-06
-2.96357e-07 -1.10151e-06 8.47867e-06
-3.36133e-08 -1.0094e-06 8.69542e-06
1.27386e-08 -1.16929e-06 8.05184e-06
-2.74417e-08 -4.74348e-07 7.85368e-06
2.23244e-07 -8.14076e-07 9.26155e-06
2.39412e-07 -4.4398e-07 7.3265e-06
-3.07283e-08 -9.28701e-07 5.39752e-06
5.31965e-07 -1.53609e-07 5.6351e-06
7.35719e-08 -3.9832e-07 3.51726e-06
-4.21687e-08 -4.8501e-07 1.79105e-06
-4.78359e-08 -1.82073e-07 -1.73497e-06
2.21882e-07 -4.64981e-07 2.1196e-07
1.40468e-08 -7.32802e-08 -4.30105e-06
-3.01093e-07 -1.26792e-07 -1.31554e-06
0 0 0
0 0 0
2.34175e-09 4.2337e-08 -4.02421e-07
-2.42319e-07 1.76144e-07 -3.31481e-08
3.22053e-08 -1.90086e-07 -1.50519e-06
-7.6306e-08 3.81403e-07 -1.29789e-07
-3.56698e-07 1.50388e-07 -1.384e-06
7.12172e-08 4.15599e-07 1.42656e-06
-4.2973e-07 2.03138e-07 3.68971e-07
1.82842e-07 3.74897e-07 2.46573e-06
-2.70436e-07 2.27436e-07 1.17512e-06
1.06271e-07 2.64105e-07 2.41228e-06
-2.13727e-07 1.49377e-07 3.55429e-06
8.94362e-08 2.93765e-07 4.33983e-06
-4.26219e-07 6.53513e-08 6.60956e-06
4.33036e-07 3.66559e-07 3.82447e-06
-3.07807e-07 1.16649e-07 4.69584e-06
2.57366e-07 8.02293e-08 -1.13479e-06
-2.7036e-08 -1.77817e-07 1.64207e-06
-1.53168e-07 4.38774e-08 -3.27717e-06
-8.11277e-08 -2.65016e-07 5.69008e-07
-3.87053e-08 -1.39681e-07 -4.48834e-06
1.99651e-08 -3.37804e-07 -8.57369e-07
-3.67819e-08 -4.12245e-07 -4.42911e-06
1.04512e-07 -1.04269e-07 1.99295e-07
2.16532e-07 -2.18411e-07 -4.52655e-07
4.98681e-08 -3.16725e-07 3.31077e-06
1.43851e-07 1.04274e-08 3.56965e-06
3.76815e-08 -2.62507e-07 3.75297e-06
1.55172e-07 1.55295e-07 3.34293e-06
2.38075e-07 -4.20215e-07 1.43165e-06
1.35879e-07 1.70724e-07 2.79136e-06
2.44565e-07 -5.53593e-07 1.07067e-06
-4.59184e-08 -9.90339e-08 2.3901e-06
9.45238e-08 -4.65569e-07 3.64355e-07
-1.37474e-07 -2.18138e-07 5.73955e-07
4.54746e-07 -2.71411e-07 6.99854e-07
-8.34889e-08 -3.39975e-07 1.12624e-06
5.51472e-07 -5.11345e-07 3.41545e-06
-1.77446e-07 -5.53158e-07 2.27587e-06
4.66284e-07 -3.73822e-07 4.59937e-06
7.44698e-08 -7.40631e-07 1.97174e-06
2.02682e-07 -2.41111e-07 4.81224e-06
2.05466e-07 -1.89075e-07 2.05102e-06
3.68008e-07 -3.1516e-07 5.96175e-06
1.79196e-07 9.96768e-08 3.24772e-06
4.29409e-07 2.38659e-09 7.24318e-06
3.39952e-07 1.39936e-07 5.31178e-06
4.32443e-07 8.7587e-08 9.23306e-06
3.37109e-07 8.07319e-08 8.45138e-06
2.20165e-07 -2.15935e-07 1.1787e-05
1.88511e-08 -4.22192e-07 1.05677e-05
4.71912e-08 -2.60775e-07 1.15017e-05
-4.83819e-08 -2.34168e-07 9.13499e-06
-4.37482e-08 -1.73422e-07 1.0316e-05
1.76308e-07 -4.22065e-07 9.72007e-06
1.07709e-07 -4.47064e-07 1.24996e-05
8.44049e-08 -6.66128e-07 1.11279e-05
4.34752e-07 -8.23506e-07 1.13559e-05
5.18869e-08 -5.75816e-07 8.94891e-06
1.56817e-07 -6.52164e-07 8.69371e-06
4.41106e-07 -1.15773e-07 7.98348e-06
6.40134e-08 -5.29017e-07 8.1161e-06
1.917e-07 -1.30512e-07 7.94802e-06
-2.88399e-08 -5.20202e-07 6.47892e-06
3.30175e-07 -3.61709e-07 5.08907e-06
-1.51853e-07 -4.42458e-07 2.90247e-06
2.39548e-07 -3.7666e-07 2.26577e-06
-2.55022e-07 -6.00326e-07 2.03591e-06
6.64603e-08 -2.6509e-07 3.31368e-06
-1.04133e-07 -5.44744e-07 3.28617e-06
-1.2264e-07 -1.51984e-07 5.26104e-06
1.41083e-07 -4.30048e-07 4.27789e-06
-3.27479e-08 -1.1769e-07 5.32667e-06
4.64207e-08 -4.33186e-07 2.17862e-06
1.89121e-07 -2.48471e-07 3.19014e-06
3.29911e-07 -4.83172e-07 -7.01029e-07
-5.51926e-08 -3.08821e-07 7.60929e-07
6.22529e-07 -3.3064e-07 -2.96779e-06
1.65395e-07 -7.77625e-08 -2.03108e-07
4.81763e-07 -2.16057e-07 -3.27239e-06
8.0339e-08 -3.15894e-07 -1.58559e-07
4.04223e-07 -2.24163e-07 -4.05821e-06
1.38924e-07 -2.24977e-07 -4.43221e-06
-6.90332e-08 -5.74305e-08 -8.62282e-07
0 0 0
0 0 0
-9.19035e-08 -3.03409e-07 -1.31411e-06
1.50215e-07 2.44277e-07 -8.75169e-06
3.85657e-08 3.09221e-08 -1.63662e-05
4.83059e-08 1.09794e-07 -2.68641e-05
2.13812e-07 2.73346e-08 -3.74779e-05
1.88639e-08 1.97368e-07 -5.31646e-05
1.78067e-07 6.14841e-07 -6.86662e-05
1.03517e-07 2.95999e-07 -8.76316e-05
2.47381e-07 2.54218e-07 -0.000105029
4.79135e-07 -1.11492e-07 -0.000124921
8.51966e-07 2.85718e-07 -0.000145712
9.13234e-07 -3.45694e-07 -0.000170103
9.35825e-07 -3.00807e-07 -0.000191391
1.3664e-06 -4.22077e-07 -0.000210782
1.55195e-06 -2.37493e-07 -0.000230652
1.84168e-06 -3.58778e-07 -0.000246709
1.79733e-06 -7.24811e-07 -0.000263186
2.13053e-06 -7.42737e-07 -0.000279948
2.14596e-06 -3.88732e-07 -0.000296818
2.49185e-06 1.7959e-08 -0.00031039
2.41705e-06 -7.29088e-07 -0.000317477
2.57447e-06 1.5349e-07 -0.000322875
2.85796e-06 -1.85258e-07 -0.00032672
3.01884e-06 1.54881e-07 -0.00032839
3.17307e-06 3.02297e-07 -0.000327373
3.03112e-06 9.67099e-07 -0.000322433
2.89385e-06 1.2723e-06 -0.000308897
2.60583e-06 1.51419e-06 -0.000290436
2.49295e-06 1.19985e-06 -0.000262002
2.23811e-06 1.30084e-06 -0.00023167
1.74744e-06 9.70623e-07 -0.00019734
1.33694e-06 2.5209e-07 -0.00016296
1.13745e-06 -2.5471e-07 -0.000121922
4.9589e-07 -1.0545e-06 -8.034e-05
3.91924e-07 -1.62536e-06 -4.0717e-05
1.86099e-07 -2.32616e-06 -4.32674e-07
3.76673e-07 -2.80508e-06 3.5338e-05
-5.45889e-07 -2.99119e-06 6.55923e-05
-1.83855e-07 -2.76424e-06 8.8885e-05
-3.1025e-07 -2.95444e-06 0.000110126
-4.35616e-08 -2.75633e-06 0.000128949
-2.12433e-07 -2.88782e-06 0.000138783
1.06096e-08 -2.75451e-06 0.000142201
-4.30168e-08 -2.12446e-06 0.000139508
2.06112e-07 -2.54403e-06 0.000134325
-5.16488e-08 -2.17933e-06 0.000126624
4.30374e-07 -1.77697e-06 0.000115982
1.30877e-09 -2.0859e-06 0.000100577
4.04138e-07 -1.82057e-06 8.68492e-05
6.50526e-08 -2.26862e-06 7.28144e-05
1.60188e-07 -1.5759e-06 6.14263e-05
2.06315e-07 -1.8495e-06 4.76112e-05
2.62607e-08 -1.87055e-06 3.60117e-05
-2.84155e-07 -1.7384e-06 2.85716e-05
-1.30129e-07 -1.72325e-06 2.07421e-05
-2.98643e-07 -1.52508e-06 1.68487e-05
-8.71254e-09 -1.82133e-06 1.31914e-05
2.74956e-08 -1.3555e-06 1.3221e-05
9.42519e-08 -1.53825e-06 4.71371e-06
-7.0351e-08 -1.09995e-06 5.57229e-06
5.54565e-08 -1.34921e-06 -9.1257e-07
-1.30744e-07 -1.23155e-06 3.91872e-06
2.17286e-07 -1.63345e-06 7.96093e-07
5.65416e-08 -1.21158e-06 5.31125e-06
-2.06823e-08 -1.44008e-06 5.88022e-06
-1.66091e-07 -1.06107e-06 7.35303e-06
-4.16594e-07 -1.18107e-06 7.41057e-06
-1.57492e-08 -9.63833e-07 1.04225e-05
-2.60031e-07 -8.17143e-07 9.45158e-06
-1.23501e-07 -8.72068e-07 9.11044e-06
-7.79032e-08 -9.01195e-07 8.77035e-06
-2.36224e-07 -6.82922e-07 9.47529e-06
-2.04179e-07 -6.52562e-07 7.81195e-06
-1.83689e-07 -5.93831e-07 5.92174e-06
-2.92013e-08 -6.01468e-07 5.01414e-06
-6.27723e-08 -2.23758e-07 4.62199e-06
-2.02026e-07 -3.72044e-07 -4.43e-07
-1.45521e-08 -4.47065e-07 -3.89679e-07
3.09494e-07 5.98481e-08 -4.28424e-06
2.4493e-07 -1.30882e-07 -2.72553e-06
3.55665e-07 -3.14544e-07 -6.76477e-06
2.85124e-07 -5.57525e-08 -1.73264e-06
0 0 0
0 0 0
-1.70625e-07 8.061e-08 1.23667e-07
1.17736e-07 7.21085e-08 -7.40854e-07
-2.30026e-07 5.04993e-08 4.64898e-07
-1.07236e-07 -1.00756e-07 -1.15461e-06
-3.02544e-07 -7.11198e-08 6.77039e-07
2.30465e-08 -8.9108e-08 -9.58925e-07
5.96402e-08 5.72463e-08 9.44312e-07
-1.78602e-08 -1.34857e-07 -2.23301e-07
1.28786e-08 3.31157e-08 1.169e-06
2.0934e-07 -5.2836e-08 9.40408e-07
-1.17805e-07 1.06147e-07 1.59827e-06
-1.75064e-07 -1.22621e-07 3.99642e-06
4.17256e-08 1.29042e-07 3.06291e-06
-4.56326e-09 -2.8148e-07 5.2024e-06
-7.5163e-08 1.63323e-08 5.80096e-07
1.30525e-07 -2.94225e-07 3.18508e-06
1.33241e-07 -9.24861e-09 -1.86397e-06
1.26659e-07 -5.8196e-08 2.64873e-06
-4.00434e-08 -6.3088e-08 -2.18955e-06
6.29418e-08 -2.36666e-07 1.98691e-06
1.34471e-07 -3.10049e-07 -3.33958e-06
6.57924e-08 -3.5253e-07 4.21988e-07
2.08948e-07 -5.47983e-08 -2.23849e-06
-5.92428e-08 -1.41368e-08 2.5584e-06
1.47216e-07 1.12285e-07 2.65685e-06
-1.91896e-07 -2.12061e-07 5.33658e-06
1.44519e-07 1.77808e-07 4.29742e-06
-2.80971e-08 -3.2184e-07 2.91876e-06
1.7887e-07 1.45303e-07 2.10166e-06
-1.00469e-07 -4.27012e-07 3.09088e-07
2.42915e-07 9.05324e-08 2.51903e-06
-1.39127e-07 -4.46462e-07 1.20795e-06
1.29842e-07 -6.78157e-08 2.53509e-06
-1.15148e-07 -4.9754e-07 6.48473e-07
2.05137e-07 -2.73171e-07 4.59229e-07
1.00795e-07 -3.99372e-07 4.79284e-07
3.39443e-07 -2.59196e-07 3.7945e-07
2.45957e-07 -9.58397e-08 2.09338e-06
3.05894e-07 -2.48083e-07 9.15696e-07
-5.55689e-08 5.97276e-08 3.34686e-06
1.66043e-07 -1.08735e-07 1.24985e-06
6.72674e-09 5.83087e-08 4.71415e-06
1.5612e-07 -1.38464e-07 2.15402e-06
3.58523e-07 -1.31039e-07 5.98586e-06
4.03598e-08 -2.22406e-07 3.64412e-06
3.70515e-07 -2.59521e-07 7.51388e-06
2.24982e-07 -4.12174e-08 6.753e-06
2.50349e-07 -5.79305e-08 1.05701e-05
3.25509e-07 -2.19394e-07 9.97795e-06
4.37507e-07 -3.47762e-07 1.05198e-05
7.67803e-08 -3.21361e-07 7.45312e-06
1.18087e-07 -5.02545e-07 6.90123e-06
5.88233e-08 -5.2678e-07 5.71412e-06
2.45886e-08 -3.68778e-07 7.8677e-06
1.11037e-07 -5.00991e-07 8.03253e-06
1.50983e-07 -3.34404e-07 9.22881e-06
7.42374e-08 -5.60398e-07 7.48135e-06
1.27482e-07 -5.03831e-07 6.80519e-06
1.75079e-07 -3.04155e-07 5.38777e-06
1.83178e-07 -6.92018e-07 5.66077e-06
4.3973e-07 -2.09185e-07 5.39619e-06
-1.01418e-07 -5.23476e-07 4.94028e-06
4.22797e-07 -1.0095e-07 3.96484e-06
-1.10966e-07 -5.71875e-07 2.15507e-06
3.78364e-07 -2.143e-07 9.64913e-07
5.36164e-09 -8.55906e-07 -2.35876e-07
8.59692e-08 -4.36683e-07 -6.5184e-07
2.75149e-08 -9.09984e-07 -8.90615e-07
1.06917e-07 -3.98117e-07 -1.87443e-07
1.13998e-07 -8.3989e-07 -4.7858e-07
1.525e-08 -6.05862e-07 1.03146e-06
-2.81238e-07 -8.23459e-07 1.36119e-07
2.13927e-07 -4.78126e-07 1.44294e-06
-2.70559e-07 -1.00111e-06 -1.09633e-06
3.81581e-07 -5.55413e-07 -2.4414e-07
-2.98381e-07 -8.421e-07 -2.68957e-06
5.20943e-07 -1.82758e-07 -9.20302e-07
-1.50873e-08 -3.86589e-07 -3.65422e-06
5.48278e-07 4.63904e-08 -2.02406e-06
3.5728e-07 -1.56867e-07 -5.43918e-06
3.96756e-07 6.27205e-08 -3.0574e-06
1.89702e-07 -3.43851e-07 -6.1758e-06
4.36592e-07 -2.69443e-07 -5.32933e-06
5.6137e-07 -2.12319e-08 -2.16626e-06
0 0 0
0 0 0
-3.19788e-09 1.67376e-07 -2.45357e-06
-1.56267e-07 1.46033e-08 -7.86519e-06
-8.48697e-08 2.00461e-07 -1.61214e-05
1.62832e-07 3.70126e-07 -2.36059e-05
5.76793e-07 6.16695e-07 -3.68477e-05
3.9276e-07 -3.03456e-08 -4.87725e-05
4.63202e-07 6.79673e-07 -6.53308e-05
4.99635e-07 1.16666e-07 -8.19762e-05
7.38541e-07 7.34864e-07 -0.000100865
7.61122e-07 9.07106e-09 -0.000120853
8.52474e-07 -2.40184e-08 -0.000141838
9.62906e-07 -3.68664e-07 -0.000162657
1.50012e-06 -3.68876e-07 -0.000182821
1.74408e-06 -1.06274e-07 -0.000201925
1.79547e-06 -3.58319e-07 -0.000218647
2.45686e-06 -5.42157e-07 -0.000236764
2.27957e-06 -2.10033e-07 -0.000252072
2.21939e-06 -2.56676e-07 -0.000268569
2.57832e-06 -3.10063e-07 -0.00028506
2.92866e-06 -6.65322e-07 -0.000297342
2.87404e-06 -2.85252e-07 -0.00030379
2.93484e-06 -1.41352e-07 -0.000306531
3.21436e-06 2.66193e-07 -0.000309463
2.94021e-06 2.98668e-07 -0.000310097
2.96061e-06 5.69392e-07 -0.000307459
2.63387e-06 8.54034e-07 -0.000300228
2.66212e-06 9.09021e-07 -0.000288203
2.4303e-06 8.47828e-07 -0.000269061
2.44075e-06 1.19755e-06 -0.000246502
1.88578e-06 7.74851e-07 -0.000214991
1.63629e-06 1.02489e-06 -0.000184979
1.46925e-06 -2.31986e-07 -0.000148653
6.09108e-07 4.12053e-09 -0.000110745
4.8968e-07 -1.23355e-06 -7.00207e-05
1.39591e-07 -1.69246e-06 -3.09271e-05
5.95171e-07 -2.20835e-06 8.13301e-06
-6.59225e-08 -2.30822e-06 4.54139e-05
6.24117e-08 -2.78606e-06 7.34199e-05
-2.65871e-07 -2.68359e-06 9.60307e-05
1.2723e-08 -3.06526e-06 0.000114938
-2.96469e-07 -2.38036e-06 0.000132577
1.88224e-07 -2.6305e-06 0.000142476
-2.06174e-07 -2.28696e-06 0.000143069
3.49141e-07 -2.59232e-06 0.000140423
-1.73272e-07 -1.90372e-06 0.000134736
2.4777e-07 -2.02862e-06 0.00012512
1.2981e-07 -2.04008e-06 0.000113609
2.26044e-07 -1.97171e-06 9.9053e-05
2.48295e-07 -1.6397e-06 8.5467e-05
-1.96007e-08 -1.90342e-06 7.33605e-05
7.35071e-08 -1.7944e-06 5.9857e-05
3.1916e-08 -1.6871e-06 4.78969e-05
-2.66218e-09 -1.69367e-06 3.60214e-05
-1.47467e-07 -1.30063e-06 2.68853e-05
-1.78908e-09 -1.89784e-06 1.99599e-05
-6.50405e-09 -1.31443e-06 1.24813e-05
-4.11623e-07 -1.44687e-06 1.232e-05
6.29875e-08 -1.38165e-06 6.96902e-06
-2.01773e-07 -1.37589e-06 7.18091e-06
-1.47631e-07 -1.32345e-06 -7.69635e-07
-3.34047e-07 -1.22799e-06 3.5288e-06
8.54145e-08 -1.18569e-06 -1.81581e-06
-8.66489e-08 -1.56654e-06 2.80681e-06
-5.3598e-08 -1.17187e-06 1.44151e-06
-1.58009e-07 -1.2167e-06 4.94755e-06
-3.95164e-07 -1.21554e-06 3.93602e-06
-1.43626e-07 -7.66238e-07 8.65741e-06
-3.59789e-07 -1.37136e-06 9.79931e-06
-9.39471e-08 -6.55203e-07 1.05661e-05
-4.56674e-08 -1.20144e-06 9.91328e-06
-1.43744e-07 -7.27306e-07 9.13945e-06
-1.65485e-07 -8.68662e-07 9.54116e-06
-2.59417e-07 -7.0511e-07 7.65569e-06
1.26412e-07 -9.29214e-07 6.01873e-06
-1.025e-08 -2.78263e-07 5.7595e-06
-5.87645e-09 -1.82706e-07 3.08571e-06
-2.60562e-07 -3.09063e-07 8.9961e-07
1.54996e-07 -4.75125e-08 -4.17943e-06
5.60655e-08 -6.4594e-07 -3.43616e-06
1.80535e-07 -5.19087e-08 -7.28096e-06
4.00142e-09 -3.48727e-07 -2.66709e-06
1.71552e-07 -4.28592e-08 -5.30339e-06
1.31095e-07 8.76911e-08 -1.23667e-06
0 0 0
0 0 0
-1.4833e-07 1.43152e-07 -1.83851e-07
9.27534e-08 1.22985e-07 4.59803e-07
-4.51925e-08 2.01824e-07 -7.86682e-07
2.06054e-07 6.16817e-08 1.98613e-07
4.06084e-08 3.8796e-07 -1.91679e-06
1.25783e-07 2.58107e-07 -5.07842e-07
-4.40307e-07 2.99958e-07 -1.89275e-06
5.82019e-07 4.14108e-07 -5.03202e-07
-2.25776e-07 5.75102e-08 -1.25662e-06
-6.48092e-08 3.92964e-07 -9.97096e-07
-2.0478e-07 3.53322e-07 2.32245e-07
-6.7229e-09 5.19983e-07 -1.46289e-07
-3.78847e-07 -2.13053e-07 2.63853e-06
2.52944e-08 2.58004e-07 2.04544e-07
-3.07923e-07 -1.72535e-07 3.17878e-06
2.50321e-07 2.39248e-07 -9.56653e-07
-8.52551e-08 3.22105e-08 3.91666e-06
2.78318e-07 1.00537e-08 -2.50031e-07
8.15923e-08 -3.0447e-07 4.68356e-06
2.88884e-07 -9.2342e-08 -4.64201e-07
6.83434e-08 -3.67035e-07 3.1638e-06
4.17355e-07 -1.352e-07 -1.71255e-06
1.64192e-07 -2.50044e-07 1.93999e-06
4.59862e-09 -1.40167e-07 -2.44887e-07
1.59842e-07 -8.39002e-09 3.72707e-06
1.7335e-07 2.89331e-08 3.30576e-06
9.07919e-08 -1.14145e-07 4.17325e-06
3.85727e-08 2.89119e-07 2.7819e-06
5.04228e-08 -2.69314e-07 8.49419e-07
9.10156e-08 1.62088e-07 1.92267e-06
3.27158e-08 -2.6864e-07 1.24679e-06
4.07395e-08 9.00866e-09 4.35839e-06
3.9104e-08 -5.4201e-07 3.27145e-06
-1.77687e-07 -2.26698e-07 4.08203e-06
4.05399e-08 -4.43638e-07 2.1158e-06
-1.17359e-07 -2.93697e-07 1.28228e-06
2.32787e-08 -3.72393e-07 1.05934e-06
1.11777e-07 -4.77428e-07 2.70726e-07
2.61163e-07 -3.28752e-07 2.17359e-06
-1.03999e-07 -2.76087e-07 1.58331e-06
2.54096e-07 -1.34312e-07 4.39252e-06
-3.54605e-08 -4.7404e-08 3.22065e-06
1.52757e-07 -7.0684e-09 6.609e-06
9.24632e-08 -1.59776e-07 4.91173e-06
2.44716e-07 -3.28155e-08 7.68546e-06
2.4799e-07 -1.65266e-07 6.14424e-06
2.95604e-07 9.13227e-08 8.26023e-06
3.07562e-07 4.34898e-08 7.51967e-06
3.62525e-07 1.07495e-08 8.46104e-06
3.38951e-07 6.71561e-08 6.33681e-06
1.52326e-07 -1.70073e-07 4.37566e-06
2.61485e-07 -1.51096e-07 1.91157e-06
-4.47222e-08 -1.34022e-07 2.03951e-06
5.93053e-08 -3.26388e-07 2.59261e-06
1.7151e-07 -1.91945e-07 4.75132e-06
1.61569e-07 -3.44644e-07 4.26779e-06
3.08558e-07 -3.61879e-07 4.16166e-06
1.47364e-07 -3.33495e-07 2.94138e-06
1.46335e-07 -3.03376e-07 2.63275e-06
2.58524e-07 -1.83892e-07 2.44663e-06
-1.88794e-08 -2.01686e-07 1.93332e-06
3.96546e-07 -1.0246e-07 1.95277e-06
4.9228e-08 -3.36019e-07 8.54334e-07
4.41128e-07 -1.44601e-07 1.03918e-06
-7.90685e-08 -4.64223e-07 -5.73886e-08
3.71046e-07 -1.18813e-07 -2.0229e-07
-1.86689e-07 -2.56279e-07 -1.53973e-06
9.27855e-08 -2.80297e-07 -1.65098e-06
-1.55298e-07 -4.62126e-07 -3.01489e-06
2.94135e-08 -2.46128e-07 -1.49643e-06
-3.21627e-07 -5.38961e-07 -2.05871e-06
-5.78519e-09 -2.01444e-07 -6.54292e-07
-1.43206e-07 -4.14515e-07 -2.6594e-06
-1.22413e-07 -3.18187e-07 -1.40303e-06
9.15269e-08 -4.49226e-07 -3.66854e-06
-2.16956e-07 -5.61704e-07 -1.68686e-06
-1.67234e-07 -4.89309e-07 -3.96754e-06
-2.26559e-07 -3.83961e-07 -2.40738e-06
7.3823e-08 -5.45826e-07 -6.01424e-06
1.25597e-07 1.09967e-08 -4.84559e-06
4.01664e-07 -5.14554e-07 -7.96438e-06
-7.78728e-08 9.31247e-08 -3.96353e-06
5.1056e-07 -4.17094e-07 -5.87145e-06
-6.16081e-08 -9.96774e-08 -5.23324e-06
3.27922e-08 -1.08051e-07 -1.11522e-06
0 0 0
0 0 0
-3.8014e-08 2.21339e-08 -2.06287e-06
-7.89108e-08 3.10446e-07 -9.06718e-06
-8.88198e-08 1.60057e-08 -1.42377e-05
7.37565e-08 1.91927e-07 -2.37291e-05
1.60905e-08 2.40078e-07 -3.30885e-05
9.61379e-08 6.49471e-07 -4.77517e-05
-1.62825e-08 4.95841e-07 -6.08501e-05
-3.11777e-08 3.76674e-07 -7.862e-05
4.46198e-07 1.59247e-07 -9.56556e-05
4.96471e-07 3.09417e-08 -0.000116056
5.77581e-07 2.36501e-07 -0.000134764
7.20071e-07 -3.37663e-07 -0.000154063
1.14438e-06 -4.94936e-09 -0.000172307
1.22098e-06 -3.16067e-07 -0.00018855
1.63925e-06 -2.24011e-07 -0.000207311
1.49175e-06 -1.01446e-07 -0.000222008
2.10523e-06 -2.4614e-07 -0.000239374
1.69958e-06 -4.62736e-07 -0.000253883
2.45017e-06 -2.76685e-07 -0.000269555
2.05398e-06 -2.23647e-07 -0.000280841
2.42841e-06 -1.80924e-07 -0.000286447
2.51243e-06 -9.30215e-08 -0.00028862
2.8142e-06 1.21954e-07 -0.000291174
2.65926e-06 9.75037e-08 -0.000290158
2.70038e-06 4.88666e-07 -0.00028706
2.40094e-06 3.32818e-07 -0.000279585
2.68725e-06 7.2109e-07 -0.000266172
2.4443e-06 4.53104e-07 -0.00024901
1.99153e-06 6.05941e-07 -0.000225381
1.7871e-06 7.60371e-07 -0.000199704
1.49219e-06 5.23393e-07 -0.000167993
1.07469e-06 2.81555e-08 -0.000135023
6.4227e-07 -4.93282e-07 -9.81456e-05
3.29853e-07 -1.14944e-06 -6.03732e-05
5.91184e-07 -1.57419e-06 -2.33417e-05
-1.60276e-07 -2.37213e-06 1.65668e-05
2.54451e-07 -2.2885e-06 5.09631e-05
-7.80741e-08 -2.79619e-06 7.98877e-05
2.24074e-07 -2.53202e-06 0.000100139
-1.94953e-07 -2.63958e-06 0.000119236
1.68427e-07 -2.61866e-06 0.000134271
-3.36804e-08 -2.55531e-06 0.000142425
3.9859e-07 -2.43243e-06 0.000142754
-2.92311e-07 -1.80692e-06 0.000139622
4.46555e-07 -2.02999e-06 0.00013169
4.27654e-08 -2.057e-06 0.000122798
1.036e-07 -1.77498e-06 0.000109394
2.0698e-07 -1.81554e-06 9.52858e-05
2.93224e-07 -1.65634e-06 8.22721e-05
1.50326e-07 -2.00251e-06 6.94061e-05
-6.59695e-08 -9.58125e-07 5.71448e-05
-1.45257e-07 -1.69673e-06 4.43624e-05
-2.3589e-07 -1.30478e-06 3.30355e-05
-5.91278e-08 -1.68962e-06 2.44397e-05
-2.04887e-07 -1.33715e-06 1.55945e-05
-1.92954e-07 -1.52039e-06 1.14504e-05
-3.35802e-07 -1.76014e-06 6.49058e-06
-1.82634e-08 -1.33724e-06 7.59409e-06
-1.81702e-08 -1.51594e-06 1.21867e-06
-1.03864e-07 -1.11999e-06 3.85384e-06
5.16556e-08 -1.31078e-06 -2.60083e-06
-1.88414e-07 -9.48727e-07 3.28711e-06
9.13054e-08 -1.26806e-06 5.87836e-08
-6.00197e-08 -1.0095e-06 2.6861e-06
-2.13388e-07 -9.42668e-07 1.96238e-06
-7.7818e-08 -9.54446e-07 4.97629e-06
-9.86095e-08 -1.13452e-06 7.0646e-06
-1.72532e-07 -1.02319e-06 1.01577e-05
-1.81252e-07 -8.51596e-07 9.52592e-06
-8.59486e-08 -7.18025e-07 9.53239e-06
1.59868e-08 -1.00401e-06 9.26052e-06
-6.43868e-08 -6.2301e-07 8.88689e-06
-2.26827e-07 -9.70304e-07 7.55649e-06
-1.62237e-07 -4.60981e-07 5.38046e-06
1.40262e-07 -7.89796e-07 4.53994e-06
-3.40425e-07 -2.12463e-07 3.97583e-06
3.85339e-08 -3.35067e-07 -6.5215e-07
3.70282e-08 -2.63086e-07 -2.11222e-06
3.98413e-07 -5.91901e-08 -6.47711e-06
1.71335e-07 -1.42616e-07 -4.29724e-06
1.69068e-07 -2.20562e-07 -6.00937e-06
4.88645e-07 -1.0017e-07 -1.07264e-06
4.72032e-07 -2.7876e-07 -4.66543e-06
6.57133e-07 -1.78807e-07 -1.38701e-06
0 0 0
0 0 0
-1.85595e-07 2.88903e-07 3.38526e-07
1.59916e-07 2.50465e-07 -3.99389e-07
-2.11903e-07 -1.58479e-07 6.75205e-07
9.31506e-08 1.09929e-07 -1.63175e-06
1.36683e-08 -1.66708e-07 -8.21244e-07
3.29878e-08 3.48727e-07 -3.03671e-06
2.09157e-07 5.68983e-08 -1.41492e-06
1.79516e-07 2.35359e-08 -2.01716e-06
6.89507e-08 1.48137e-07 -7.47697e-07
5.90137e-08 -2.08217e-07 -1.40172e-06
-1.04042e-07 4.39162e-07 -2.37019e-06
-1.24754e-07 1.75088e-08 -1.7631e-06
-1.10147e-07 4.27965e-07 -3.20487e-06
-9.74155e-08 -3.36786e-08 -1.42434e-09
-2.05756e-07 2.11595e-08 -1.55414e-06
2.34018e-07 -3.31801e-07 3.24926e-06
-1.02507e-08 9.72568e-10 1.97926e-07
2.38796e-07 -5.21794e-07 4.89887e-06
-1.46761e-07 -4.93206e-08 1.22694e-06
2.69068e-07 -6.7328e-07 6.07532e-06
7.1071e-08 -2.80309e-07 1.64841e-06
1.07939e-07 -6.43909e-07 4.96161e-06
3.06283e-07 -2.81412e-07 3.51753e-07
2.12024e-07 -2.24365e-07 2.84804e-06
1.76895e-07 -1.4939e-07 1.66276e-07
3.27972e-07 -4.11698e-08 2.00343e-06
-1.71164e-08 2.4068e-07 7.07626e-07
2.62552e-07 -1.27059e-07 1.26029e-06
-5.46878e-08 2.30734e-08 1.55306e-06
-4.6831e-09 -2.76765e-07 9.64746e-07
-1.62962e-08 -9.33599e-08 3.59093e-06
-4.02477e-08 -3.54744e-07 3.05322e-06
5.38102e-08 6.07663e-08 6.04097e-06
-2.7431e-07 -1.74186e-07 4.59317e-06
1.48644e-07 7.45991e-08 4.86847e-06
-3.31073e-07 -2.11947e-07 2.34602e-06
4.78932e-08 -2.20723e-07 1.15588e-06
6.1946e-08 -1.69142e-07 4.53988e-07
-1.86104e-08 -2.36257e-08 3.90379e-07
-1.2985e-07 6.95347e-08 2.82513e-06
6.6408e-08 2.3941e-07 3.07721e-06
-9.08997e-08 -2.73167e-07 6.34942e-06
8.77159e-08 -6.63324e-08 4.76497e-06
2.29655e-07 -8.85142e-08 7.13092e-06
8.32122e-08 -4.04032e-07 4.46811e-06
4.15097e-07 8.87352e-08 6.17728e-06
6.02934e-08 -4.02743e-07 3.99597e-06
5.85078e-07 -1.51892e-07 5.31361e-06
2.1431e-07 -2.50884e-07 3.44024e-06
5.68918e-07 -6.64576e-08 2.96905e-06
1.12078e-07 -5.12441e-07 5.69281e-07
5.52507e-07 -2.37799e-07 5.62168e-07
1.28314e-07 -6.29477e-07 1.4651e-07
3.10789e-07 -4.65822e-07 1.66433e-06
5.74768e-09 -3.30253e-07 1.61008e-06
1.20199e-07 -2.69358e-07 2.39954e-06
2.42064e-07 -7.6309e-08 1.31669e-06
1.79762e-07 -3.60119e-07 1.29166e-06
1.61896e-07 -5.591e-07 8.40293e-09
-6.42718e-10 -4.30773e-07 3.41624e-07
3.4942e-07 -4.66017e-07 -6.02296e-07
-5.009e-09 -1.26877e-07 -9.83827e-08
5.45022e-07 -6.84981e-09 -5.57792e-07
2.76189e-08 -2.74714e-07 3.7987e-07
6.19438e-07 -3.20568e-07 2.1085e-07
1.06115e-07 -6.58258e-07 1.09694e-06
3.258e-07 -2.78065e-07 6.21957e-08
2.47044e-07 -5.99611e-07 1.91377e-07
-2.84083e-07 -3.55273e-07 -1.19908e-06
-1.28559e-07 -5.93649e-07 -1.63927e-06
-3.73794e-08 -4.83281e-07 -2.31424e-06
-3.13214e-07 -7.74215e-07 -2.59761e-06
-7.89923e-08 -5.09302e-07 -2.66249e-06
-4.4637e-07 -6.09527e-07 -3.61341e-06
-2.63492e-07 -6.36883e-07 -3.56176e-06
-4.20032e-07 -3.82011e-07 -3.55618e-06
-1.83358e-07 -3.40363e-07 -2.337e-06
-4.54697e-07 -4.62304e-07 -2.67299e-06
1.39605e-07 -4.88193e-08 -2.3798e-06
-4.25161e-07 -1.6441e-07 -4.12257e-06
-4.3065e-08 3.71576e-08 -3.18622e-06
-1.79386e-07 -2.61404e-08 -4.25154e-06
1.76247e-07 2.18946e-07 -8.06511e-07
-2.15713e-07 -2.49703e-07 -2.09652e-06
3.24964e-07 -4.36545e-07 -4.30358e-06
5.96502e-07 5.73331e-08 5.08033e-07
0 0 0
0 0 0
-1.4535e-08 4.67684e-07 -3.11443e-06
-7.12353e-08 2.43126e-08 -7.65106e-06
-2.74686e-09 -3.1527e-08 -1.3927e-05
1.53258e-08 3.40023e-07 -2.11826e-05
2.38167e-07 3.4027e-07 -3.48036e-05
3.29122e-07 -8.12053e-08 -4.59266e-05
3.32909e-07 4.85265e-07 -5.95953e-05
2.40419e-07 1.15289e-07 -7.31788e-05
5.71292e-07 2.63288e-07 -9.06123e-05
5.3258e-07 1.80405e-07 -0.000110465
8.57237e-07 -1.57958e-07 -0.000127852
1.1034e-06 -6.31324e-08 -0.000143553
1.24557e-06 -1.75152e-07 -0.000158822
1.75748e-06 -1.16632e-07 -0.0001766
1.3963e-06 -3.67459e-07 -0.000191002
1.7946e-06 -2.42841e-07 -0.000209192
1.83398e-06 -2.44388e-07 -0.000222445
2.24397e-06 -1.61967e-07 -0.000238243
2.2992e-06 -2.66432e-07 -0.000250168
2.43883e-06 -2.90507e-07 -0.000261769
2.49856e-06 -9.08882e-08 -0.000266257
2.82295e-06 -7.14848e-08 -0.000270109
2.95576e-06 2.79761e-07 -0.000269771
2.68546e-06 3.02899e-07 -0.000270717
2.50642e-06 4.44231e-07 -0.000264981
2.61737e-06 4.09364e-07 -0.000258322
2.33338e-06 6.76744e-07 -0.000243513
2.26993e-06 5.40965e-07 -0.000227899
1.93571e-06 5.15157e-07 -0.000206998
1.85801e-06 -1.11449e-08 -0.000181542
1.40305e-06 4.40871e-07 -0.000152267
9.73159e-07 -3.96837e-07 -0.000119447
5.56935e-07 -3.46022e-07 -8.47082e-05
5.56219e-07 -1.31796e-06 -5.04387e-05
4.05015e-07 -1.26084e-06 -1.26619e-05
4.16742e-07 -1.90133e-06 2.34447e-05
-7.96398e-08 -2.637e-06 5.85243e-05
1.27349e-07 -2.48652e-06 8.23325e-05
1.3944e-08 -2.38674e-06 0.000104759
2.29592e-07 -2.63387e-06 0.000120626
-2.45363e-07 -2.43655e-06 0.000135304
1.31043e-07 -2.31433e-06 0.000140759
-5.35795e-08 -1.81964e-06 0.00013992
7.58993e-08 -2.20831e-06 0.00013474
1.19082e-07 -1.63545e-06 0.000128209
-8.1287e-08 -1.77603e-06 0.000115427
3.11297e-07 -1.68955e-06 0.000103452
3.99417e-08 -1.59793e-06 8.89001e-05
2.17979e-07 -1.67683e-06 7.77962e-05
1.83956e-07 -1.63383e-06 6.57245e-05
-1.18594e-07 -1.39144e-06 5.17198e-05
1.15092e-07 -1.54067e-06 3.97516e-05
-7.62787e-08 -1.36302e-06 2.82886e-05
-8.75745e-08 -1.47446e-06 1.97259e-05
-2.27549e-07 -1.42017e-06 1.33782e-05
-1.23053e-07 -1.55834e-06 7.02136e-06
-2.04181e-07 -1.30769e-06 5.87817e-06
-1.96064e-07 -1.28895e-06 2.59773e-06
-1.54599e-07 -1.05194e-06 4.78247e-06
-1.83712e-07 -1.09501e-06 -7.99245e-07
-1.31441e-07 -1.00828e-06 3.06556e-06
-1.95155e-07 -1.13756e-06 -1.10292e-06
-1.13791e-07 -1.15561e-06 2.47334e-06
-2.23605e-07 -9.59964e-07 4.14648e-07
-1.35264e-07 -9.46869e-07 2.45321e-06
-3.91847e-07 -1.12183e-06 2.8446e-06
-5.55297e-07 -8.23197e-07 6.85509e-06
-4.52242e-07 -9.78747e-07 8.27023e-06
-3.93777e-07 -5.0125e-07 7.84513e-06
1.21353e-07 -9.45367e-07 8.8959e-06
-1.89137e-07 -6.1006e-07 7.3026e-06
-3.6537e-07 -8.50969e-07 8.77732e-06
-1.34229e-07 -7.48391e-07 5.70807e-06
-3.04845e-07 -8.31562e-07 5.36655e-06
-3.34708e-07 -6.89257e-07 3.9446e-06
-1.63278e-07 -4.01241e-07 3.6271e-06
-1.03777e-07 -3.42364e-07 1.59981e-06
-1.40522e-07 4.35089e-08 -2.73291e-06
-1.18338e-07 -5.64179e-07 -4.12556e-06
6.92649e-08 -7.98832e-08 -6.66022e-06
1.48713e-07 -2.82921e-07 -1.90126e-06
-1.00574e-07 -1.83943e-07 -3.05478e-06
1.00269e-07 -4.32066e-07 -2.6344e-07
4.73398e-07 -2.12881e-07 -4.33214e-06
3.84827e-08 -1.98146e-08 -1.27324e-06
0 0 0
0 0 0
4.53343e-08 1.62533e-07 7.562e-09
2.29716e-07 2.10753e-07 9.79455e-07
2.37036e-07 -2.1086e-08 -5.9369e-07
1.5294e-07 2.57321e-08 2.53179e-07
3.23603e-09 -9.43848e-10 -2.59928e-06
3.40528e-07 4.61903e-08 -1.02408e-06
-6.17882e-08 2.30579e-07 -2.38986e-06
3.48745e-07 2.47583e-07 -3.49657e-07
-3.15218e-07 4.10592e-07 -1.39633e-06
2.75566e-07 6.04994e-07 -1.91589e-06
-3.47706e-07 3.29838e-07 -3.22044e-06
1.85232e-07 4.72914e-07 -5.40029e-06
-4.18132e-07 8.27605e-08 -4.05807e-06
7.84786e-08 2.76285e-07 -4.34678e-06
-1.91472e-07 -2.12112e-07 6.89754e-07
2.01403e-07 3.66828e-08 -1.86442e-07
5.08315e-08 -5.42206e-07 4.62564e-06
1.77347e-07 -1.22612e-08 1.23726e-06
2.27884e-07 -2.44953e-07 5.70998e-06
2.52858e-07 1.23551e-07 2.34209e-06
2.01535e-07 -4.70251e-07 6.88167e-06
1.17877e-07 -2.7451e-08 3.17703e-06
3.25501e-07 -4.19873e-07 5.80561e-06
3.75562e-07 -7.11936e-08 1.04672e-06
-7.68636e-08 -3.86333e-08 1.882e-06
3.74066e-07 4.19967e-07 -1.54553e-06
-1.01504e-07 4.57711e-08 -5.0599e-07
3.40206e-07 2.83659e-07 -6.03709e-07
-1.2733e-07 1.49235e-07 3.77549e-07
6.13558e-07 4.08945e-08 2.56873e-06
-6.03565e-08 1.02855e-07 2.202e-06
9.63571e-09 3.78837e-08 5.2175e-06
3.40489e-07 -1.90072e-07 4.09613e-06
-2.31231e-07 5.89962e-08 6.22499e-06
-8.85474e-08 -3.22617e-07 4.04009e-06
-2.09227e-07 -5.91914e-08 3.63708e-06
-6.28004e-08 -5.2029e-07 1.36747e-06
6.54545e-08 -2.27908e-07 5.55158e-07
-3.51651e-08 -1.91541e-07 9.87715e-07
-1.6596e-07 -9.36823e-08 1.70294e-06
8.37582e-08 -3.05044e-07 4.0808e-06
-1.6149e-07 -7.19087e-08 3.65257e-06
4.81828e-08 -2.63823e-07 5.7286e-06
3.86614e-07 -2.47449e-08 3.4272e-06
1.45739e-08 1.70938e-07 4.83342e-06
3.25725e-07 -2.18336e-07 2.49227e-06
3.16058e-07 -1.74793e-09 3.23564e-06
3.07588e-07 -2.65261e-07 1.05711e-06
2.70334e-08 -7.1829e-09 1.30415e-06
3.76648e-07 -3.03429e-07 6.43094e-09
1.3446e-07 2.06064e-07 1.40468e-07
4.18037e-07 -1.6581e-07 -3.32123e-07
3.2033e-07 -3.83559e-08 1.90051e-07
2.62611e-07 -2.24485e-07 7.19659e-08
4.26371e-07 -2.46443e-07 8.33465e-07
2.25793e-08 -3.70038e-08 4.78185e-07
2.11944e-07 -2.8149e-07 4.20508e-07
5.14002e-07 -6.22493e-08 7.43332e-08
1.31319e-07 -1.90819e-07 -5.2819e-07
2.59794e-07 -2.31015e-07 -5.26777e-07
6.17958e-08 -3.4936e-07 -7.76701e-07
2.96364e-07 -1.07549e-07 1.36357e-07
8.49319e-08 -2.51875e-08 2.99024e-07
4.50113e-07 -2.41356e-07 9.4508e-07
2.83861e-08 -1.3347e-07 9.90186e-07
3.93671e-07 -6.94629e-08 7.22336e-07
1.81226e-07 -2.92134e-07 9.07584e-07
1.84377e-07 -6.73412e-08 4.63807e-08
-1.28027e-08 -3.57727e-07 -4.84067e-07
9.77556e-08 -2.45324e-07 -1.74792e-06
-2.43688e-07 -2.54632e-07 -2.36302e-06
1.10671e-07 -3.72823e-07 -3.74179e-06
-2.46251e-08 -3.62877e-07 -3.68947e-06
-3.10757e-07 -2.24301e-07 -3.6102e-06
-5.45689e-07 -4.96723e-07 -2.60848e-06
-1.34731e-07 -5.21602e-07 -2.01942e-06
-5.74837e-08 -4.62322e-07 -1.19159e-06
-7.53421e-08 -3.47025e-07 -8.08489e-07
8.64673e-09 -1.8906e-07 -6.37734e-07
-3.17266e-07 -1.4922e-07 -7.14806e-07
5.82637e-08 -2.36589e-07 -1.11319e-06
-1.98838e-07 -2.05483e-07 -8.41147e-08
1.54908e-07 -2.59053e-07 -4.87516e-07
1.32824e-07 -1.67484e-07 1.17265e-06
2.7377e-07 -1.81573e-07 -2.84375e-08
-1.21032e-07 -6.82219e-08 -2.33523e-06
2.81662e-07 -5.41121e-08 1.03372e-06
0 0 0
0 0 0
-1.95238e-07 9.46063e-08 -1.80401e-06
5.22994e-08 1.03496e-07 -7.08561e-06
-1.16278e-08 1.98889e-07 -1.05015e-05
1.49144e-07 2.8917e-07 -2.05014e-05
-9.75997e-08 2.95419e-07 -3.03569e-05
2.81499e-07 4.09533e-07 -4.44607e-05
-3.72977e-08 -1.38166e-07 -5.35849e-05
2.01296e-07 3.48732e-07 -6.65798e-05
-7.79832e-09 1.43731e-07 -8.08922e-05
4.39728e-07 4.40472e-07 -9.9771e-05
3.34327e-07 -3.76819e-07 -0.000116133
7.71167e-07 8.59303e-08 -0.000129566
7.97569e-07 4.97175e-08 -0.000144327
8.86526e-07 1.78822e-07 -0.000157403
1.54361e-06 -1.42076e-07 -0.000176092
1.90766e-06 4.29317e-07 -0.000187876
1.60848e-06 -3.05134e-07 -0.000204651
2.03634e-06 -6.37227e-08 -0.000214732
1.95464e-06 -2.74819e-07 -0.000228765
2.06825e-06 -1.51759e-07 -0.000236156
2.24718e-06 -1.78127e-07 -0.000244494
2.66881e-06 3.43477e-07 -0.000245655
2.33678e-06 2.47101e-08 -0.000248835
2.43951e-06 1.54681e-07 -0.000245039
2.57244e-06 2.15445e-07 -0.000243593
2.26767e-06 6.87977e-07 -0.000234
2.11462e-06 6.29277e-07 -0.000223294
1.94373e-06 5.2871e-07 -0.000207211
1.55122e-06 2.57087e-07 -0.000190171
1.4594e-06 4.9791e-07 -0.000165769
9.60229e-07 2.49511e-07 -0.000137315
1.00694e-06 3.01566e-07 -0.000104552
7.46304e-07 -8.31072e-07 -7.40317e-05
3.37543e-07 -1.11585e-06 -3.8899e-05
1.40413e-07 -1.44714e-06 -6.0634e-06
2.36039e-07 -1.97811e-06 3.21478e-05
3.22294e-07 -2.17668e-06 6.00671e-05
1.85248e-07 -2.30519e-06 8.64652e-05
5.16355e-07 -2.61117e-06 0.000103864
1.26237e-07 -2.39486e-06 0.000122
2.36232e-07 -2.43842e-06 0.000130663
-7.78888e-08 -2.08392e-06 0.000136162
4.19975e-07 -1.87206e-06 0.000133215
1.24632e-07 -1.37373e-06 0.000130135
2.80198e-07 -1.73802e-06 0.000119358
1.66371e-07 -1.68585e-06 0.000108992
-4.26524e-08 -1.8394e-06 9.42982e-05
1.85095e-07 -1.8932e-06 8.20403e-05
-3.5844e-09 -1.2624e-06 7.02941e-05
1.3639e-07 -1.71583e-06 5.87583e-05
1.88398e-07 -1.17923e-06 4.56732e-05
-1.50449e-07 -1.74943e-06 3.30092e-05
-1.28991e-07 -9.45071e-07 2.28495e-05
-2.32815e-07 -1.65602e-06 1.59627e-05
-1.0103e-07 -1.19234e-06 9.72813e-06
-4.00294e-07 -1.42145e-06 6.73605e-06
-2.37126e-07 -1.12109e-06 2.04621e-06
-4.24048e-08 -1.23828e-06 3.85306e-06
1.05694e-07 -1.01617e-06 -4.18278e-07
1.80851e-07 -7.38279e-07 2.74782e-06
4.89618e-07 -1.18769e-06 -2.61129e-06
1.06716e-07 -1.07607e-06 2.64196e-06
-2.66488e-07 -8.53426e-07 -1.12819e-09
-7.6631e-08 -8.51793e-07 1.76006e-06
-1.71599e-07 -1.01936e-06 1.47424e-06
-1.36531e-07 -7.44794e-07 3.86119e-06
-2.00257e-07 -6.87707e-07 5.62999e-06
-2.40852e-07 -9.10388e-07 7.30869e-06
-2.02801e-07 -9.28335e-07 7.02403e-06
-1.19311e-07 -6.60622e-07 6.93237e-06
-1.80461e-07 -8.5136e-07 7.62118e-06
1.03472e-07 -5.31167e-07 7.14307e-06
-2.53027e-07 -7.61422e-07 6.3905e-06
-5.00514e-08 -8.05212e-07 3.67397e-06
-3.69577e-07 -6.37313e-07 3.39183e-06
-1.71095e-07 -3.09312e-07 3.94467e-06
7.43553e-08 -4.54656e-07 1.86238e-06
5.56171e-08 -3.92677e-07 9.46016e-08
2.13646e-07 -2.16285e-07 -4.99252e-06
2.33977e-07 -3.01993e-07 -4.52916e-06
3.69104e-07 -1.17359e-07 -5.22446e-06
3.09076e-07 -1.32889e-07 -1.8377e-08
4.04484e-07 -4.67949e-07 -2.37968e-06
5.32946e-07 9.0401e-08 -7.24147e-07
2.30929e-07 -5.34584e-07 -4.29764e-06
3.08057e-07 -1.27395e-07 -4.54015e-07
0 0 0
0 0 0
2.49493e-08 1.21211e-07 4.48412e-07
1.55308e-07 -1.28788e-07 -1.41378e-07
6.09723e-08 2.67376e-07 1.26438e-06
2.02038e-07 2.41913e-07 -5.57087e-07
5.38845e-08 2.68339e-08 4.82584e-07
-2.38632e-08 3.48751e-07 -1.50232e-06
-7.52651e-08 9.09656e-08 -4.76787e-07
-1.10253e-07 1.04832e-07 -1.45421e-06
-2.70278e-07 1.15767e-07 -1.06978e-06
-3.20479e-07 5.64361e-08 -2.4866e-06
-1.73766e-07 3.11481e-07 -4.58926e-06
-2.41071e-07 7.26838e-08 -5.21282e-06
1.23583e-07 5.12987e-07 -6.67593e-06
5.30572e-08 -6.11516e-08 -2.8641e-06
1.6258e-07 1.6475e-07 -2.3488e-06
1.87123e-07 -3.80755e-07 3.12235e-06
1.3286e-07 -3.37858e-08 9.31099e-07
2.693e-07 -5.6997e-07 4.54742e-06
3.18427e-08 -2.71419e-08 1.09427e-06
5.50786e-07 -3.16508e-07 5.69947e-06
1.79257e-07 -3.05423e-07 3.06332e-06
5.33079e-07 -4.09875e-07 7.62153e-06
1.85637e-07 -2.87403e-07 3.79306e-06
2.19769e-07 -5.56706e-07 5.07292e-06
5.41859e-08 -7.89671e-08 -4.33735e-07
3.88747e-07 -2.64432e-07 -6.09193e-07
-5.12902e-08 1.9956e-07 -3.22695e-06
2.92113e-07 -2.79307e-07 -1.11967e-06
3.10471e-07 -1.5488e-07 1.48726e-07
1.14574e-07 -3.08183e-07 1.03371e-06
2.25898e-07 -3.56497e-07 2.9233e-06
1.70498e-07 -1.60839e-07 2.05106e-06
2.65355e-07 -4.07595e-07 3.98093e-06
-8.49827e-08 5.24014e-09 2.65991e-06
3.81667e-07 -7.2875e-08 3.5006e-06
-3.30255e-07 -2.61213e-07 1.68087e-06
2.59127e-07 3.72996e-08 1.54464e-06
-2.802e-07 -4.44761e-07 8.15705e-07
-4.41421e-08 3.53006e-08 9.9947e-07
1.198e-07 -2.46774e-07 2.20899e-06
-4.11464e-08 2.826e-08 2.17105e-06
7.99032e-08 -1.86581e-07 3.77702e-06
-5.31102e-08 -6.95313e-08 1.81954e-06
5.10336e-08 -9.29356e-08 2.89413e-06
-7.2945e-08 -3.70712e-08 6.68129e-07
1.67472e-07 -3.12633e-08 2.05257e-06
-2.07762e-07 -5.18449e-07 1.99427e-07
5.68927e-07 5.08792e-10 8.73569e-07
-7.90064e-08 -5.15776e-07 -7.00046e-07
2.24593e-07 -4.35528e-07 -6.70272e-08
2.76856e-07 -3.56274e-07 -2.58335e-07
4.68811e-07 -3.99501e-07 7.03213e-07
2.28424e-07 -2.90199e-07 2.76214e-07
6.25765e-07 1.1564e-07 -3.63722e-07
2.52567e-07 -1.50432e-07 -1.30143e-06
6.57751e-07 -2.8778e-08 -1.62677e-06
4.53911e-07 -1.14823e-07 -1.5836e-06
4.53149e-07 -2.39862e-07 -2.00205e-06
4.95081e-07 -1.25813e-07 -2.43489e-06
1.89696e-07 -1.69631e-07 -2.69196e-06
2.88718e-07 -1.61363e-07 -2.19137e-06
1.79656e-07 -4.01735e-08 -1.07118e-06
3.95618e-07 -4.09929e-07 -4.13924e-07
2.62106e-07 -7.10075e-08 -4.40563e-08
2.68215e-07 -6.03854e-07 -8.31547e-07
1.21609e-07 -2.17542e-07 -6.71252e-07
1.04417e-07 -3.49305e-07 -1.54764e-06
1.03441e-07 -3.37077e-07 -8.25166e-07
1.2441e-07 -3.56406e-07 -2.32837e-06
-1.40207e-07 -2.37397e-07 -2.54899e-06
2.33294e-07 -6.01855e-07 -4.67096e-06
1.92788e-08 -4.49329e-07 -4.02515e-06
1.99128e-07 -6.18309e-07 -4.51926e-06
-5.89347e-08 -4.21276e-07 -2.4393e-06
1.99715e-07 -2.54242e-07 -2.54923e-06
-1.5221e-07 -5.02456e-07 -1.66402e-07
1.65646e-07 -2.68767e-07 -1.02881e-06
-3.80817e-08 -9.6354e-08 7.48771e-07
2.89239e-07 -1.46706e-07 -4.94177e-07
5.55835e-08 1.85417e-08 1.09572e-06
2.96383e-07 1.06091e-07 2.58597e-07
9.91353e-09 2.25455e-07 8.35312e-07
1.65868e-07 -2.59183e-08 5.11209e-07
4.95612e-08 1.17168e-07 3.82739e-07
1.56416e-07 -1.77114e-07 6.91959e-07
2.29218e-07 -2.10373e-07 6.70789e-07
3.75371e-07 -1.0717e-07 -3.23037e-07
1.91279e-07 -3.05648e-07 9.43496e-07
0 0 0
0 0 0
8.82521e-08 2.36936e-07 -1.79718e-06
-4.50118e-08 2.03335e-08 -3.3695e-06
1.71616e-07 2.75281e-08 -8.69334e-06
-4.12765e-08 4.20294e-07 -1.56552e-05
2.40792e-07 4.31763e-08 -2.86262e-05
3.31472e-08 3.39614e-07 -3.76808e-05
5.04081e-07 6.52159e-08 -4.69931e-05
3.71636e-07 3.24454e-07 -5.53866e-05
5.61575e-07 -1.97434e-07 -6.88275e-05
6.05339e-07 2.39812e-07 -8.63906e-05
7.51405e-07 -5.83469e-08 -0.000101541
1.23142e-06 1.47019e-07 -0.000114196
9.63822e-07 -2.16062e-07 -0.000124635
1.5799e-06 6.49327e-08 -0.000139628
1.24437e-06 -1.14774e-07 -0.000151776
1.97671e-06 -1.03039e-07 -0.000168841
1.6956e-06 -1.29822e-07 -0.000178452
1.8807e-06 1.43435e-07 -0.000192226
2.13834e-06 -1.57766e-07 -0.000199841
2.20583e-06 1.80339e-08 -0.000210605
2.04791e-06 2.89951e-08 -0.000215128
2.67211e-06 -3.96657e-08 -0.000220644
2.44409e-06 6.68617e-08 -0.000219912
2.46321e-06 4.39199e-07 -0.000221051
1.93856e-06 2.38288e-07 -0.00021435
2.4243e-06 5.69663e-07 -0.00020844
1.70552e-06 4.92707e-07 -0.000195572
1.73896e-06 3.58634e-07 -0.000185015
1.89586e-06 3.24375e-07 -0.000168333
1.42479e-06 3.11461e-08 -0.000146766
1.33278e-06 4.42152e-07 -0.000119476
7.75628e-07 -5.37222e-07 -8.98738e-05
4.65641e-07 -4.07499e-07 -5.9355e-05
4.1952e-07 -1.30565e-06 -2.90271e-05
4.19888e-07 -1.48288e-06 4.9424e-06
4.88872e-07 -1.66493e-06 3.53042e-05
5.18419e-07 -2.01866e-06 6.42285e-05
9.2501e-08 -2.04982e-06 8.3708e-05
5.27879e-08 -2.26149e-06 0.000103762
-4.02082e-08 -2.2851e-06 0.000115414
4.33464e-08 -2.01976e-06 0.000124935
2.98044e-07 -1.90753e-06 0.000126158
2.59984e-07 -1.62015e-06 0.00012539
7.83784e-08 -1.80351e-06 0.000119046
2.90108e-07 -1.42888e-06 0.000111681
-6.00722e-08 -1.41084e-06 9.66383e-05
4.39117e-07 -1.53457e-06 8.50861e-05
-1.47096e-07 -1.45988e-06 7.18015e-05
8.43115e-09 -1.6019e-06 6.25521e-05
1.48997e-07 -1.57461e-06 5.20987e-05
-2.26233e-07 -1.30398e-06 3.88985e-05
2.42419e-08 -1.28177e-06 2.8487e-05
-1.23016e-07 -1.46275e-06 1.85637e-05
-3.97702e-08 -1.21864e-06 1.33628e-05
-4.42457e-07 -1.11959e-06 8.19943e-06
-1.51894e-07 -1.16614e-06 4.55249e-06
-1.58059e-07 -9.03277e-07 1.94288e-06
-4.42339e-07 -1.4712e-06 -2.31404e-07
-2.8313e-07 -5.74812e-07 9.17571e-07
-5.87949e-10 -1.15311e-06 -2.90352e-06
4.99954e-08 -6.21646e-07 5.74748e-07
-4.74567e-07 -6.24273e-07 -1.83422e-06
-8.32165e-08 -9.80505e-07 1.0855e-06
-1.78497e-07 -9.41259e-07 6.85853e-07
-2.81945e-07 -5.49426e-07 2.35081e-06
-3.28767e-07 -7.8482e-07 3.35639e-06
-5.08988e-07 -5.94941e-07 5.71465e-06
-4.50337e-07 -6.18746e-07 7.30103e-06
-3.30681e-07 -6.74495e-07 6.1343e-06
-3.23749e-07 -8.37952e-07 7.53846e-06
-1.85134e-07 -5.46399e-07 5.56096e-06
-2.29998e-07 -9.82827e-07 7.38863e-06
-1.23579e-07 -7.02183e-07 4.0415e-06
-2.99902e-07 -7.09268e-07 3.80926e-06
-3.95694e-07 -4.83449e-07 1.78704e-06
-4.07458e-07 -4.29646e-07 2.79095e-06
-1.44163e-07 -4.09892e-07 2.65321e-06
-1.97405e-07 -3.09467e-07 -4.24853e-07
-8.16315e-09 -6.99292e-07 -3.12042e-06
-2.15868e-07 -2.19086e-07 -6.88555e-06
-7.12489e-08 -4.43175e-07 -3.1222e-06
1.30426e-07 -1.55654e-07 -2.3288e-06
-6.41194e-09 -1.77841e-07 1.55179e-06
-8.65104e-08 -3.97883e-07 -2.13077e-06
1.02282e-07 7.10823e-08 -4.74079e-07
-1.13845e-07 -3.09928e-07 -2.1117e-06
1.29911e-07 -5.41347e-08 9.14303e-07
0 0 0
0 0 0
8.09971e-08 5.86489e-08 -1.94575e-07
6.61137e-09 5.8679e-08 6.46016e-07
-1.83836e-08 2.00573e-07 -4.60333e-07
1.46801e-07 -9.92933e-08 1.58613e-06
-1.38339e-08 3.69377e-07 -3.21271e-07
2.32297e-07 -6.55162e-08 1.26954e-06
-1.89285e-08 5.0669e-07 -1.29313e-06
6.21325e-08 3.31752e-07 -8.0758e-07
-1.75594e-07 4.44038e-07 -2.98689e-06
-6.33074e-09 5.9199e-07 -3.27929e-06
-2.29399e-07 1.24449e-07 -4.25755e-06
1.08976e-07 3.17386e-07 -5.09178e-06
1.83886e-08 -5.43659e-08 -3.98664e-06
2.55057e-08 1.35262e-07 -3.46827e-06
4.64925e-07 -2.1541e-07 2.43341e-07
-4.38148e-08 8.86845e-08 1.4249e-07
3.03365e-07 -3.43663e-07 3.65713e-06
9.47751e-08 7.26744e-08 1.16571e-06
9.67522e-08 -6.87135e-07 3.95824e-06
9.65632e-08 -4.65446e-07 1.10877e-06
1.72715e-07 -6.13791e-07 5.09815e-06
4.50066e-07 -3.46492e-07 3.24482e-06
1.54696e-08 -4.00412e-07 6.46117e-06
3.99356e-07 2.23697e-07 2.26019e-06
-4.50368e-08 1.80127e-09 2.47175e-06
2.75824e-07 1.96796e-07 -1.77351e-06
-2.25903e-07 7.60203e-08 -7.87657e-07
7.88818e-07 2.3897e-07 -1.34139e-06
-3.44757e-07 -1.10613e-07 7.3344e-08
8.28397e-07 3.40664e-07 1.36334e-06
1.11715e-07 1.29181e-07 9.38525e-07
4.60274e-07 1.70322e-07 2.83543e-06
4.8643e-07 1.4283e-07 1.16315e-06
5.14217e-09 2.60412e-08 2.62178e-06
4.96905e-07 -2.52111e-07 8.10066e-07
-2.04865e-07 8.11334e-08 1.7415e-06
2.68149e-08 -4.02359e-07 1.22454e-06
-7.53e-08 5.46424e-08 2.17842e-06
-6.7779e-08 -3.47226e-07 2.53556e-06
4.44106e-09 2.03357e-07 2.81961e-06
2.12753e-07 -2.00752e-07 3.36599e-06
1.61919e-07 1.26804e-07 2.45614e-06
8.65409e-09 7.06995e-08 3.38156e-06
9.69436e-08 -8.04298e-08 1.82704e-06
-1.14435e-07 6.11227e-08 2.96737e-06
2.59513e-07 -1.53332e-07 2.04629e-06
5.00045e-08 1.13984e-07 2.55498e-06
2.50724e-07 -3.22612e-07 1.38027e-06
4.05118e-07 5.84121e-08 1.26038e-06
3.63054e-07 -5.9404e-09 1.43182e-06
2.77154e-07 -1.85629e-07 1.78525e-06
3.8612e-08 -5.22413e-09 1.83132e-06
4.00732e-07 -6.72826e-08 5.05839e-07
2.33694e-07 -2.52489e-07 -1.17534e-06
8.72715e-07 -4.55456e-08 -2.64054e-06
6.73575e-07 -4.03762e-07 -2.9484e-06
4.54764e-07 -2.23929e-07 -3.30292e-06
4.81612e-07 -1.89938e-07 -2.93144e-06
1.87309e-07 -3.1414e-07 -3.85244e-06
4.24537e-07 -1.39746e-07 -3.57629e-06
3.75498e-07 -1.19547e-07 -3.35597e-06
3.33631e-07 -2.94636e-07 -1.67951e-06
2.67846e-07 1.67388e-07 -6.99986e-07
2.61279e-07 -4.42193e-07 -7.4185e-07
2.02245e-07 1.71946e-07 -1.07161e-06
2.97892e-07 -5.48804e-09 -3.01983e-06
1.8831e-07 -6.82143e-08 -2.45574e-06
8.10324e-08 -2.02677e-07 -4.23486e-06
1.6386e-07 -4.52256e-08 -2.91956e-06
1.84869e-07 -3.9328e-07 -4.70229e-06
-1.95458e-07 -8.81807e-08 -2.71856e-06
1.79779e-07 -3.61878e-07 -4.65425e-06
-6.37623e-08 -2.00006e-07 -1.68754e-06
3.13096e-08 -5.66867e-07 -2.90325e-06
1.08602e-07 -4.57023e-07 8.39744e-07
1.18575e-07 -2.99801e-07 -1.07368e-06
-6.60492e-08 -4.45472e-07 1.41786e-06
2.41996e-07 -3.67762e-07 -1.53618e-06
4.45429e-07 -3.26654e-07 1.14683e-06
1.43097e-08 -8.57305e-08 -8.18253e-07
3.53319e-07 -2.7976e-07 2.25872e-06
1.72506e-07 -1.00426e-07 3.55469e-07
3.13018e-07 -3.91777e-07 1.73543e-06
2.49645e-07 -1.43635e-07 -1.51569e-08
1.66948e-07 -8.15156e-08 1.53968e-06
1.59422e-07 8.71687e-09 1.00441e-06
-8.92893e-08 7.31974e-08 2.16266e-06
2.2484e-07 -4.9209e-08 5.26255e-07
1.42869e-08 -3.0397e-08 7.88758e-07
0 0 0
0 0 0
-2.76339e-07 1.38507e-08 3.50506e-07
2.21727e-07 -4.86188e-08 -2.73257e-06
-2.70525e-07 2.26127e-07 -5.30312e-06
7.54085e-08 1.54914e-07 -1.46597e-05
1.0059e-07 1.12008e-07 -2.12288e-05
1.98929e-07 1.71984e-07 -3.15153e-05
1.72209e-07 -9.81452e-08 -3.64494e-05
1.46379e-07 3.86928e-07 -4.57699e-05
5.34754e-08 -8.51532e-08 -5.57171e-05
1.20424e-07 3.1996e-07 -7.16063e-05
2.32381e-07 -2.01808e-07 -8.60743e-05
5.954e-07 2.061e-07 -9.81239e-05
7.16377e-07 6.66069e-08 -0.000108425
8.40597e-07 1.74071e-07 -0.000117517
9.32184e-07 2.77748e-08 -0.000132333
1.12162e-06 9.35876e-08 -0.000143439
1.2448e-06 1.17012e-07 -0.000157619
1.56133e-06 1.30229e-07 -0.000165522
1.23678e-06 -2.36153e-07 -0.000175432
1.48116e-06 3.58509e-09 -0.00018104
1.74935e-06 -2.97897e-07 -0.000188291
1.91572e-06 2.5495e-07 -0.000190801
2.04945e-06 -2.65541e-07 -0.000194556
1.91415e-06 1.95227e-07 -0.000191854
1.95339e-06 6.32212e-08 -0.000188597
1.60728e-06 1.02753e-07 -0.000178052
1.83236e-06 9.1806e-08 -0.00016835
1.35709e-06 8.34645e-08 -0.000156344
1.05334e-06 6.85211e-08 -0.000143655
1.10629e-06 1.82594e-07 -0.000124107
8.38273e-07 -3.55686e-07 -0.000100511
6.41373e-07 -4.46584e-07 -7.32573e-05
3.97956e-07 -8.30373e-07 -4.71408e-05
2.86094e-07 -1.26239e-06 -1.73978e-05
-1.19894e-07 -1.38632e-06 9.5099e-06
2.69944e-07 -1.87523e-06 3.92433e-05
3.81329e-07 -2.11593e-06 6.09761e-05
4.1565e-07 -1.60269e-06 8.2528e-05
4.03958e-07 -2.03614e-06 9.65472e-05
2.79355e-07 -1.65079e-06 0.000108899
5.046e-07 -2.25787e-06 0.000112242
1.35021e-07 -1.65639e-06 0.000114716
3.84042e-07 -1.49438e-06 0.000111907
3.20859e-07 -1.2594e-06 0.000108767
2.27595e-07 -1.58224e-06 9.78058e-05
2.0887e-07 -1.30031e-06 8.69418e-05
3.16527e-07 -1.47659e-06 7.38414e-05
-4.85519e-08 -1.72418e-06 6.3579e-05
-7.73434e-08 -1.09575e-06 5.35189e-05
-7.04239e-08 -1.40843e-06 4.39268e-05
-2.30173e-07 -1.45314e-06 3.38242e-05
1.04773e-07 -1.32799e-06 2.4008e-05
-1.72839e-07 -1.02266e-06 1.75312e-05
4.70613e-08 -1.28693e-06 1.16113e-05
1.71511e-07 -8.88418e-07 7.05798e-06
-1.7228e-07 -1.02835e-06 3.42177e-06
-1.29889e-07 -6.98015e-07 -2.61745e-07
1.79969e-08 -1.28495e-06 -6.39889e-07
-3.5998e-08 -9.30399e-07 -3.90225e-06
2.83098e-07 -7.72912e-07 -2.00378e-06
1.17658e-07 -7.48935e-07 -4.92457e-06
5.81593e-08 -7.98647e-07 -6.50516e-07
1.36925e-07 -7.49759e-07 -1.28692e-06
-7.1721e-10 -4.68856e-07 4.04202e-07
-1.28954e-07 -7.12999e-07 1.62038e-06
8.53402e-08 -1.44626e-07 3.31608e-06
-8.82112e-08 -4.46423e-07 5.59371e-06
-1.44438e-08 -8.85031e-07 6.92058e-06
-1.75186e-07 -7.85241e-07 7.5747e-06
-1.8397e-07 -7.13414e-07 6.40413e-06
-3.73778e-07 -6.11472e-07 6.85399e-06
-2.16417e-07 -6.59415e-07 5.59263e-06
-3.9165e-07 -5.98628e-07 5.12352e-06
-4.28412e-07 -6.96959e-07 2.03928e-06
-3.24884e-07 -6.67123e-07 1.41304e-06
7.01691e-08 -5.84367e-07 1.52121e-06
2.52975e-07 -2.97409e-07 1.46754e-06
1.51219e-07 -5.04509e-07 6.92467e-07
1.42603e-07 -4.98418e-07 -3.60659e-06
1.69368e-07 -4.13387e-07 -4.77697e-06
3.69355e-07 -2.35437e-07 -5.52349e-06
5.53649e-07 -3.16466e-07 -3.55377e-07
3.34013e-07 -2.89334e-07 -6.33992e-08
3.67853e-07 -5.62054e-08 1.57614e-06
2.27838e-07 -4.73052e-07 -1.69441e-06
1.46127e-07 7.03531e-08 3.38911e-07
-1.46746e-07 4.70558e-08 -2.54316e-07
-5.51192e-08 -5.63549e-08 -3.69481e-08
0 0 0
0 0 0
1.01417e-07 -3.52705e-08 -5.77778e-08
2.79534e-07 1.32115e-07 -1.28674e-06
1.23978e-07 -1.02539e-07 1.34624e-07
-2.79835e-08 1.25105e-07 -6.73078e-07
4.7052e-08 1.81402e-07 1.44582e-06
3.8242e-08 3.09898e-07 -4.50921e-07
1.42821e-07 1.50434e-07 -4.73826e-07
-7.54664e-08 3.8517e-07 -3.31562e-06
-8.07975e-08 3.36462e-07 -3.46593e-06
-8.573e-08 3.98651e-07 -4.31551e-06
-1.93591e-07 2.93201e-07 -3.54364e-06
-1.36084e-07 3.22634e-07 -2.4735e-06
1.12005e-07 2.89857e-07 -2.18145e-06
-1.64547e-07 -8.74167e-08 -3.18008e-07
2.90585e-07 -1.12081e-08 -8.31822e-07
2.13021e-07 -2.25986e-07 1.91413e-06
9.69518e-08 -4.64737e-08 5.91071e-07
1.26955e-07 -5.68853e-07 3.28735e-06
2.74059e-07 -3.3399e-09 8.65498e-07
3.5398e-08 -5.09523e-07 3.49118e-06
2.21103e-07 -6.46825e-08 1.08866e-06
1.77933e-07 -3.0394e-07 4.56363e-06
-1.48152e-07 -3.15625e-07 2.01704e-06
2.2945e-07 -4.46217e-07 3.90755e-06
-9.12858e-08 -3.12872e-07 -5.43587e-08
3.73654e-07 -3.56687e-07 1.18926e-06
2.10364e-07 -1.1729e-07 -8.69791e-07
3.51699e-07 -1.1669e-07 1.30691e-06
5.4957e-07 1.80234e-07 9.87955e-07
1.99867e-07 -4.50615e-08 9.2888e-07
5.21858e-07 3.16294e-08 1.3684e-06
3.46448e-07 -2.32474e-07 3.50332e-07
4.04074e-07 -2.47001e-08 1.48028e-06
1.54979e-07 -1.95219e-07 -6.6637e-08
2.41965e-07 1.21585e-07 8.1349e-07
2.07004e-08 -1.82799e-07 -3.96067e-07
1.54564e-07 1.02333e-08 1.13234e-06
1.11644e-07 -4.00323e-07 1.4652e-06
1.50207e-07 1.2796e-07 2.7358e-06
3.52114e-07 -2.91547e-07 3.14305e-06
2.90163e-07 -5.61782e-08 2.92962e-06
2.14458e-07 -1.61868e-07 3.5601e-06
2.28435e-07 -8.55716e-08 2.56867e-06
1.04326e-07 1.25213e-08 3.43818e-06
2.04536e-07 -1.47074e-07 2.42117e-06
3.13182e-07 -1.69179e-07 3.18826e-06
1.33086e-07 -2.6447e-07 2.37101e-06
4.44748e-07 -3.12038e-07 2.39232e-06
-1.09668e-07 -4.83482e-07 1.78318e-06
4.50691e-07 -3.08481e-07 1.99666e-06
-2.28332e-09 -5.22568e-07 2.71106e-06
4.43307e-07 -3.89538e-07 2.60222e-06
8.29872e-08 -1.3311e-07 2.02447e-06
3.49121e-07 -1.368e-07 -6.46021e-07
4.22596e-07 -3.2092e-07 -2.01525e-06
6.25229e-07 -2.16323e-07 -3.91219e-06
3.15673e-07 -1.33461e-07 -3.38444e-06
6.43206e-08 -2.143e-07 -4.59996e-06
3.69979e-07 1.44746e-08 -3.8395e-06
2.29024e-07 -6.08949e-08 -4.71892e-06
6.46556e-07 -1.21784e-07 -2.80984e-06
3.51794e-07 2.05851e-07 -2.00561e-06
4.22669e-07 -3.95921e-07 3.13183e-08
2.36329e-07 -3.39275e-08 -3.11994e-07
1.07629e-07 -5.57493e-07 -9.14291e-07
1.79647e-07 -1.91062e-07 -2.33621e-06
-9.86866e-09 -4.58224e-07 -3.55667e-06
2.38342e-08 -3.04528e-07 -3.91341e-06
1.44819e-07 -5.35375e-07 -4.88575e-06
-2.66322e-07 -1.21811e-07 -4.3088e-06
-7.63515e-08 -3.80588e-07 -4.78403e-06
-2.01512e-07 -1.79245e-07 -2.66848e-06
-1.25474e-07 -2.86199e-07 -2.5154e-06
-2.16234e-07 -3.46159e-07 -1.65783e-08
-7.87606e-09 -3.6201e-07 -6.23537e-07
-4.91252e-07 -1.00082e-07 1.5442e-06
3.08559e-07 -2.40044e-07 -8.76385e-07
-7.36202e-08 -1.95168e-07 3.94682e-07
1.08518e-07 -1.2633e-07 -2.11637e-06
8.48947e-08 -4.46149e-08 4.83651e-07
1.30865e-07 1.54267e-07 -4.30884e-07
-1.08207e-07 -1.32525e-08 1.41451e-06
1.1104e-07 -1.78685e-07 7.76915e-08
1.64849e-07 -3.18082e-07 1.05546e-06
-9.2485e-08 -1.95884e-07 8.11332e-07
-1.07715e-07 -1.75575e-07 2.25794e-06
6.977e-08 -8.03471e-08 1.41987e-06
-1.02189e-07 -3.08334e-07 1.26511e-06
1.2741e-07 1.12118e-07 8.27341e-07
-2.84778e-07 -8.39716e-08 -4.48532e-07
0 0 0
0 0 0
-9.62409e-08 -3.0029e-07 -4.30349e-07
-5.35302e-09 1.94135e-07 -3.32631e-07
8.79097e-08 -8.32701e-08 -6.35647e-06
-2.65386e-07 6.86934e-08 -1.12787e-05
2.90477e-07 -7.31728e-08 -1.9652e-05
1.21153e-07 1.8135e-07 -2.33823e-05
4.85995e-07 3.78055e-07 -3.0185e-05
4.90146e-07 1.43428e-07 -3.61363e-05
4.44656e-07 3.85825e-07 -4.69494e-05
4.08722e-07 2.29164e-07 -5.94901e-05
7.07619e-07 1.0679e-07 -7.30958e-05
7.85366e-07 3.05143e-07 -8.31635e-05
9.64641e-07 9.57549e-08 -9.08366e-05
8.61658e-07 2.34734e-07 -9.93689e-05
9.22931e-07 -3.98979e-09 -0.000108549
1.07429e-06 1.29393e-07 -0.000123466
1.33673e-06 5.93609e-08 -0.000132821
1.49819e-06 2.01545e-07 -0.000144405
1.81439e-06 1.17568e-07 -0.000148612
1.70278e-06 -1.02859e-07 -0.000155929
2.06145e-06 3.59004e-07 -0.000158925
1.78643e-06 -2.53996e-07 -0.000164231
1.9183e-06 4.71872e-08 -0.000164818
1.86846e-06 -5.98969e-08 -0.000166051
1.71733e-06 4.12764e-07 -0.000158769
1.55732e-06 1.68579e-07 -0.000151842
1.40613e-06 1.461e-07 -0.000139784
1.44332e-06 1.75161e-07 -0.000131619
1.15894e-06 -7.60086e-08 -0.000118324
1.04785e-06 -1.79829e-07 -0.000102283
5.56118e-07 -1.48223e-07 -8.15944e-05
5.88772e-07 -4.84083e-07 -5.89326e-05
6.67426e-07 -4.23307e-07 -3.44849e-05
1.58046e-07 -1.09616e-06 -1.04793e-05
2.07974e-07 -1.20105e-06 1.55232e-05
4.68575e-07 -1.42771e-06 3.75486e-05
2.74956e-07 -1.51994e-06 5.97638e-05
1.71142e-07 -1.53484e-06 7.44972e-05
1.22009e-07 -1.48779e-06 8.92045e-05
3.42071e-07 -1.60775e-06 9.49567e-05
-4.04177e-08 -1.43105e-06 0.000100093
1.78232e-07 -1.52252e-06 9.95615e-05
1.47032e-07 -1.48437e-06 9.93019e-05
7.50972e-08 -1.42681e-06 9.2598e-05
3.21894e-08 -1.34306e-06 8.55605e-05
-1.62239e-07 -1.10756e-06 7.26362e-05
1.99366e-07 -1.33351e-06 6.38993e-05
-2.84328e-07 -1.18564e-06 5.33537e-05
-3.58412e-09 -1.15474e-06 4.54999e-05
-5.93911e-08 -1.36716e-06 3.65341e-05
-2.77223e-07 -9.9176e-07 2.75498e-05
-1.88231e-07 -1.00745e-06 2.13604e-05
-3.77834e-09 -1.267e-06 1.5036e-05
-8.13936e-08 -8.85181e-07 1.05836e-05
-2.32915e-07 -1.00029e-06 4.87734e-06
-4.0699e-07 -7.78997e-07 1.35651e-06
-1.4151e-07 -7.68842e-07 -1.33e-06
-4.12329e-07 -8.26822e-07 -3.26428e-06
1.65244e-07 -6.62954e-07 -2.22829e-06
-7.08276e-08 -1.19716e-06 -5.37747e-06
-1.31284e-07 -7.91469e-07 -1.90032e-06
-2.06628e-07 -5.9944e-07 -3.89769e-06
-2.93414e-07 -6.53925e-07 -1.06841e-06
-3.77985e-07 -3.82807e-07 -5.85743e-07
-4.64883e-07 -2.74195e-07 1.47546e-06
-5.48817e-07 -6.96651e-07 2.6309e-06
-2.26253e-07 -4.74672e-07 5.10925e-06
-4.20172e-07 -5.83935e-07 7.23674e-06
-2.24331e-07 -5.78012e-07 6.96307e-06
-1.68572e-07 -3.89033e-07 7.37416e-06
-4.07083e-08 -5.20623e-07 4.78859e-06
-1.05015e-08 -6.65593e-07 5.53275e-06
-2.90058e-07 -4.37366e-07 2.6621e-06
-2.6085e-07 -6.59788e-07 2.48389e-06
-2.27407e-07 -3.73896e-07 -1.06816e-07
-3.73625e-07 -5.83234e-07 -8.92362e-08
-8.01821e-08 -7.48344e-07 3.61016e-07
1.45644e-08 -4.01696e-07 -6.57301e-07
-9.29853e-08 -6.3056e-07 -1.97753e-06
-1.82406e-07 -2.40485e-07 -4.82402e-06
-8.58783e-08 -4.53644e-07 -2.87328e-06
1.90691e-07 -2.70944e-07 -1.80066e-06
-3.27669e-07 -7.48156e-08 1.93773e-06
5.69745e-08 -2.34396e-07 3.22002e-07
-3.12431e-07 1.24903e-07 1.24352e-06
-8.49696e-08 -2.6597e-07 -7.41181e-07
2.19164e-07 1.65659e-07 8.42645e-08
3.81176e-07 2.01795e-08 -3.14811e-07
1.39732e-07 2.72392e-07 -2.14976e-07
0 0 0
0 0 0
-2.54916e-07 -7.585e-09 -7.54078e-07
1.13941e-07 -1.60858e-07 -1.04127e-06
-1.23113e-07 1.95013e-07 -2.56551e-06
3.5813e-07 9.78144e-08 -7.14248e-07
2.13801e-08 1.99374e-07 -1.7129e-06
1.4691e-07 1.08166e-07 1.16149e-07
1.61253e-07 4.21845e-07 -2.34502e-06
-2.24975e-07 -2.72579e-09 -2.40703e-06
1.72035e-07 4.78332e-07 -4.50199e-06
2.86191e-08 8.66805e-08 -3.44808e-06
-6.12535e-08 3.35681e-08 -2.37865e-06
1.67446e-10 4.79587e-08 -5.30188e-07
3.42985e-07 -1.97829e-07 7.49466e-07
-1.51155e-07 -2.2362e-07 4.26508e-07
5.15186e-07 -3.35243e-07 6.23571e-07
-1.79739e-07 8.84254e-08 -8.44529e-07
5.85631e-07 -2.85044e-07 9.56893e-07
9.89481e-08 -1.52055e-07 -4.7212e-08
2.56741e-07 -5.59179e-07 2.24924e-06
2.6361e-07 -3.33874e-07 3.21216e-07
-6.0792e-08 -4.95659e-07 2.62403e-06
1.31226e-07 -9.69867e-08 7.89298e-07
-3.44298e-07 -2.65482e-07 3.20474e-06
1.4421e-07 1.13237e-07 7.08519e-07
-4.15152e-07 -3.65671e-08 2.63797e-06
4.5786e-07 2.19657e-07 7.85919e-07
2.60443e-08 6.38845e-08 3.16658e-06
7.08226e-07 -2.7086e-08 2.23463e-06
-3.22087e-07 1.18933e-07 3.19585e-06
7.86284e-07 2.2012e-07 2.0015e-06
-9.65205e-08 7.69006e-08 1.10592e-06
5.13828e-07 4.89393e-07 7.66013e-07
2.30582e-07 3.80986e-08 -4.41692e-07
1.36424e-07 3.09258e-07 -3.84234e-07
6.21988e-07 -9.7483e-08 -1.20044e-06
2.4883e-07 7.89526e-08 -1.23702e-06
4.63198e-07 -3.88342e-07 -7.94296e-07
1.6002e-07 5.51286e-08 -2.29932e-07
4.08338e-07 -2.86605e-07 1.27062e-06
2.54348e-07 -3.90234e-08 1.46268e-06
3.03567e-07 -4.8765e-08 2.92192e-06
2.10848e-07 -1.6345e-08 2.1376e-06
1.03668e-07 -4.86205e-08 3.7822e-06
2.64556e-07 -4.58941e-09 2.32354e-06
-2.53076e-08 -1.63983e-07 3.33227e-06
3.99458e-07 -3.71184e-07 2.0958e-06
-7.72193e-09 -3.5897e-07 2.49887e-06
4.56758e-08 -2.49839e-07 1.58924e-06
2.80014e-07 -1.97013e-08 1.52539e-06
1.98149e-07 -1.11898e-07 1.88739e-06
1.01653e-07 5.5338e-08 2.49039e-06
1.90355e-07 -2.45196e-07 3.02465e-06
5.96851e-07 -4.9884e-08 2.38748e-06
1.88015e-07 -2.66259e-07 7.36188e-07
3.68197e-07 -2.68784e-07 -1.31904e-06
9.13448e-08 -2.01534e-07 -3.09202e-06
3.43362e-07 5.68574e-08 -4.49184e-06
4.40482e-07 4.60465e-08 -5.00695e-06
4.07405e-07 -2.74647e-07 -5.17024e-06
2.31343e-07 -3.97784e-07 -4.6401e-06
3.52148e-07 9.7772e-09 -3.05869e-06
2.3023e-07 -5.0628e-07 -1.50122e-06
2.63186e-07 -3.66369e-08 5.58477e-07
2.8137e-07 -4.39621e-07 2.95391e-07
-7.21834e-09 -2.55438e-07 8.83554e-07
-3.13964e-08 -3.85372e-07 -1.57891e-06
2.80396e-07 -1.68031e-07 -7.94825e-07
9.51809e-09 -3.29463e-07 -3.47893e-06
-1.24233e-07 -4.93818e-08 -1.74265e-06
-2.15023e-07 -1.60407e-07 -4.06054e-06
-1.71304e-07 6.59158e-08 -1.294e-06
-4.97445e-09 5.18912e-08 -3.52027e-06
-3.14902e-07 -1.93895e-07 1.03966e-07
7.74226e-09 -2.91562e-07 -1.90478e-06
-3.97228e-08 -2.8575e-07 2.11643e-06
-3.3195e-07 -6.27882e-08 -1.12753e-06
-2.61059e-07 -1.14375e-07 9.84197e-07
-1.82364e-07 -7.0325e-08 -4.00624e-06
-3.48356e-07 -1.94432e-07 -1.57483e-06
-1.34123e-07 -3.76294e-07 -4.747e-06
-6.24392e-08 -5.22705e-08 -2.85427e-07
3.37128e-08 -1.90699e-07 -2.23077e-06
-3.22159e-07 1.67967e-08 1.31056e-06
1.3906e-07 1.75915e-07 -2.26855e-07
-4.72334e-07 9.56157e-08 3.19382e-06
-6.10162e-08 2.10198e-07 2.26264e-06
-2.8226e-07 1.13231e-07 4.28281e-06
-1.76765e-07 3.6707e-07 1.94469e-06
-5.43275e-08 2.85396e-07 2.39918e-06
-8.9238e-08 -1.12036e-07 4.35489e-07
1.41227e-07 3.55019e-07 1.63371e-07
0 0 0
0 0 0
1.26152e-07 -1.68917e-09 3.0446e-07
-1.57677e-07 4.2686e-08 -3.33678e-06
-7.40155e-08 5.91515e-09 -6.33452e-06
-6.62794e-08 3.37946e-07 -1.35689e-05
-1.04172e-07 -3.3643e-07 -1.5441e-05
2.16357e-07 4.76978e-07 -2.07119e-05
-4.29141e-08 -2.06676e-08 -2.38893e-05
-1.54824e-07 2.9508e-07 -3.2026e-05
-9.18899e-08 1.97332e-07 -3.96132e-05
-3.90859e-08 1.77037e-07 -5.0396e-05
1.42341e-07 -4.27625e-08 -6.03111e-05
4.7324e-07 2.5077e-07 -6.84481e-05
4.26939e-07 -2.20824e-07 -7.51009e-05
4.18013e-07 1.36543e-08 -7.94047e-05
5.67983e-07 2.58488e-07 -8.9268e-05
5.56289e-07 1.43307e-07 -9.79813e-05
1.05248e-06 2.66456e-08 -0.000110987
1.04049e-06 9.75215e-08 -0.000116994
9.88881e-07 -2.72356e-07 -0.000123625
1.10627e-06 2.60686e-07 -0.000125202
8.65957e-07 -1.75442e-07 -0.00013043
1.30482e-06 7.23164e-09 -0.000132891
1.33303e-06 -1.99869e-08 -0.000136847
1.27292e-06 1.87544e-07 -0.000134575
1.25768e-06 -3.32987e-07 -0.000131627
8.18325e-07 -1.20782e-07 -0.000124159
1.29615e-06 -1.53329e-07 -0.00011729
8.95321e-07 -4.51708e-08 -0.000108048
7.07115e-07 -3.3894e-07 -9.7071e-05
3.47875e-07 -2.91578e-07 -8.22685e-05
5.78569e-07 -4.12638e-07 -6.5543e-05
2.32298e-07 -6.52275e-07 -4.6792e-05
2.57158e-07 -5.69722e-07 -2.72361e-05
1.26072e-07 -8.31003e-07 -5.14398e-06
1.98824e-07 -1.00638e-06 1.44532e-05
-1.36184e-07 -1.13966e-06 3.57147e-05
4.03951e-07 -1.22549e-06 5.12145e-05
9.62262e-09 -1.22872e-06 6.66248e-05
3.10799e-07 -1.53714e-06 7.45264e-05
2.10692e-07 -1.32284e-06 8.20805e-05
2.19984e-07 -1.50574e-06 8.27148e-05
2.55215e-07 -1.00085e-06 8.53419e-05
4.11854e-07 -1.42012e-06 8.17582e-05
1.12556e-07 -8.65815e-07 7.79924e-05
3.01002e-07 -1.43186e-06 6.761e-05
7.47592e-08 -9.35189e-07 6.02358e-05
-1.75501e-07 -1.12272e-06 5.1669e-05
2.40378e-07 -9.23563e-07 4.4966e-05
-3.55085e-08 -1.0436e-06 3.62336e-05
-1.51564e-07 -8.19e-07 2.81131e-05
-1.89034e-07 -9.85615e-07 2.20694e-05
7.64138e-08 -1.01638e-06 1.68389e-05
-2.08658e-07 -8.09962e-07 1.39759e-05
-1.71509e-07 -9.05476e-07 8.17285e-06
-5.77941e-07 -6.27341e-07 4.01496e-06
-1.0987e-07 -1.04799e-06 -7.18652e-07
-1.78397e-07 -3.51842e-07 -2.25785e-06
1.45911e-07 -8.33531e-07 -2.98453e-06
2.47492e-08 -5.48615e-07 -3.53754e-06
7.3521e-08 -5.84591e-07 -2.43918e-06
-1.44967e-07 -3.95654e-07 -3.96921e-06
1.12667e-07 -5.49292e-07 -2.06948e-06
-4.60189e-08 -5.47646e-07 -1.99561e-06
-6.47799e-08 -5.69389e-07 -9.97668e-07
-3.24968e-07 -7.16253e-07 7.37716e-07
-5.00409e-08 -2.19934e-07 1.40476e-06
-6.33639e-08 -5.05432e-07 3.45856e-06
-2.3519e-07 -6.50513e-07 4.76013e-06
-1.13629e-07 -6.23905e-07 6.5064e-06
4.96661e-08 -4.62669e-07 5.10678e-06
6.27011e-08 -4.08579e-07 4.73389e-06
2.45722e-07 -2.95154e-07 3.24287e-06
-8.21813e-08 -6.46554e-07 2.9698e-06
-1.75809e-07 -3.0303e-07 1.37222e-06
-1.06823e-07 -7.9442e-07 2.54796e-07
-1.29845e-08 -6.57369e-07 -5.3763e-07
9.38856e-08 -3.03295e-07 -1.13164e-06
1.62909e-07 -2.3383e-07 -1.12547e-07
2.59108e-07 -5.64413e-07 -1.60751e-06
6.7628e-08 -2.19386e-07 -1.11632e-06
4.53543e-07 -1.98564e-07 -2.81833e-06
2.52402e-07 -3.59639e-07 -1.407e-07
4.97835e-07 -6.77479e-08 -3.36323e-07
-1.37195e-08 -1.87544e-07 1.62915e-06
4.7136e-08 -1.52231e-07 -6.04856e-07
-1.36012e-07 -1.63888e-07 3.73084e-08
2.57723e-07 4.07713e-08 -1.08685e-06
-1.51896e-07 -9.04794e-08 -8.12649e-07
-3.54134e-08 3.30739e-07 1.25667e-06
-1.7648e-07 -2.45585e-08 1.50013e-07
0 0 0
0 0 0
3.42002e-08 1.08717e-07 -3.98128e-07
-1.66642e-07 1.93018e-07 -2.04553e-06
-2.51804e-07 -9.52678e-08 -2.02436e-06
4.00225e-08 -1.45691e-07 -3.34254e-06
2.99716e-07 -9.74177e-08 -1.8027e-06
-5.31579e-08 1.9314e-07 -2.59067e-06
1.55998e-07 5.78264e-08 -1.78154e-06
9.84164e-08 5.69814e-07 -3.17239e-06
1.90987e-07 1.19733e-07 -2.84104e-06
1.18336e-09 4.2835e-07 -2.69235e-06
1.28358e-07 1.22885e-07 -1.04045e-06
4.9015e-08 1.92137e-07 1.09526e-06
-6.78087e-08 1.50022e-07 1.67914e-06
-1.09687e-08 -7.16082e-08 2.21805e-06
-7.07926e-08 2.2798e-07 -2.7936e-08
2.45444e-07 -1.31864e-07 2.28009e-07
-3.15091e-08 -1.15131e-07 -1.85221e-06
3.72796e-07 -2.53384e-07 2.07216e-07
3.62907e-07 -3.4601e-07 -1.48451e-06
-4.47664e-08 -4.80869e-07 1.34254e-06
1.62391e-07 -1.99445e-07 -8.01602e-07
-1.07721e-07 -6.60296e-07 2.35968e-06
7.97655e-08 -1.88773e-07 -3.1547e-07
6.79249e-08 -4.63818e-07 2.65326e-06
9.23986e-08 -3.53026e-07 -1.19105e-07
1.04473e-07 -2.82809e-07 3.34189e-06
1.51235e-07 -3.66832e-07 1.58356e-06
-1.13647e-08 -1.52197e-07 4.74854e-06
3.05605e-07 1.01191e-07 3.24195e-06
2.51882e-07 -2.0617e-08 3.64526e-06
6.5626e-07 3.89474e-08 1.49426e-06
1.7761e-07 -6.78544e-08 3.0899e-07
6.17642e-07 1.69482e-07 -1.2615e-06
4.28555e-08 -2.96066e-07 -1.66439e-06
4.46909e-07 1.4528e-07 -1.94063e-06
4.92539e-07 -3.02894e-07 -1.68089e-06
4.18246e-07 1.145e-07 -1.65231e-06
3.3078e-07 -1.16171e-07 -5.91039e-07
4.21522e-07 2.93418e-08 -8.87951e-08
2.1941e-07 -3.63719e-07 1.73423e-06
2.44771e-07 -5.09096e-08 1.9707e-06
8.78923e-08 -1.08281e-07 3.68961e-06
9.9167e-08 8.87698e-08 2.59815e-06
5.75093e-08 8.52251e-08 3.19034e-06
3.0201e-07 4.26884e-08 1.40987e-06
-4.03051e-08 -7.76168e-08 1.71031e-06
3.65199e-07 -9.32958e-08 8.58584e-07
-1.92937e-07 -2.7886e-07 1.26988e-06
-3.59649e-08 -2.62056e-07 5.66262e-07
2.96942e-07 -1.46518e-07 8.77567e-07
-1.79443e-07 -3.52156e-07 1.38494e-06
2.27056e-07 9.40471e-08 2.50011e-06
9.16105e-08 -4.31373e-07 2.89004e-06
2.64701e-07 -3.65863e-08 1.78817e-06
8.20885e-08 -3.3459e-07 -3.72487e-07
4.13846e-07 -1.62535e-09 -2.81411e-06
1.45443e-07 -1.6568e-07 -4.56572e-06
5.30663e-08 -9.57653e-08 -5.49554e-06
3.64978e-07 -3.33386e-07 -4.94932e-06
-1.38332e-07 1.00743e-07 -3.96935e-06
4.76398e-07 -6.05445e-08 -2.33135e-06
2.86551e-07 3.35804e-07 -9.50155e-07
3.75538e-07 -5.11064e-08 -1.39654e-07
2.32739e-07 2.49999e-07 5.73269e-07
2.26215e-07 -6.48999e-08 -9.21568e-08
2.91762e-07 1.81159e-07 2.25556e-07
2.62545e-07 -2.76871e-07 -1.24043e-06
-2.27327e-07 4.1254e-08 -2.59023e-07
2.79832e-07 -4.19277e-07 -1.78047e-06
-2.46342e-07 1.90811e-08 -3.51989e-08
1.05774e-07 -1.61568e-07 -2.07787e-06
-2.46081e-07 -3.34876e-08 3.72075e-07
2.07039e-07 -2.04118e-07 -1.68276e-06
-4.55031e-07 -2.80735e-07 1.42777e-06
1.01151e-07 -2.45983e-07 -9.53794e-07
-1.1682e-07 -1.86391e-07 2.02252e-06
-2.975e-08 -2.79361e-07 -2.13909e-06
-3.23176e-07 -1.11355e-07 -1.5183e-07
2.36961e-07 -2.04989e-07 -4.55309e-06
-4.88501e-07 3.09981e-07 -1.40018e-06
9.54456e-08 2.10421e-07 -3.46656e-06
-3.36843e-07 1.04035e-07 5.44684e-07
-1.89507e-07 3.02512e-08 -7.24406e-07
-1.62437e-07 -1.13313e-07 2.58384e-06
-2.9285e-07 -2.45411e-08 1.43702e-06
-2.71693e-07 -1.04319e-07 4.29482e-06
-3.33553e-07 -4.96432e-09 2.79913e-06
-3.51876e-07 -2.47583e-08 4.38363e-06
-2.03918e-07 -7.62669e-08 1.9193e-06
-5.70217e-08 2.56456e-07 2.36831e-06
-2.27594e-07 4.14771e-07 1.48393e-06
-1.10036e-07 -4.9742e-08 -4.46956e-07
0 0 0
0 0 0
-6.90545e-08 7.18889e-09 -1.43103e-06
-1.60721e-07 3.05583e-07 -2.75729e-06
-1.95547e-07 -4.34732e-07 -8.03777e-06
8.89613e-08 2.86339e-07 -1.06191e-05
-1.32071e-08 -2.11006e-07 -1.38986e-05
3.16468e-08 4.60318e-08 -1.4353e-05
4.39341e-07 1.05993e-07 -1.89658e-05
9.63874e-08 3.54371e-07 -2.46241e-05
2.76493e-07 1.89265e-07 -3.31415e-05
4.67373e-07 5.52121e-08 -4.04768e-05
5.00067e-07 -2.55052e-07 -4.75905e-05
4.96317e-07 4.84622e-07 -5.24114e-05
5.31819e-07 -1.99393e-07 -5.70335e-05
8.38765e-07 2.13962e-07 -6.1985e-05
4.70495e-07 1.25442e-07 -6.72251e-05
9.28572e-07 2.14669e-07 -7.70437e-05
8.16827e-07 -2.80442e-07 -8.38907e-05
1.09935e-06 8.16903e-08 -9.32095e-05
1.19231e-06 7.05884e-08 -9.45449e-05
8.45639e-07 -1.7179e-07 -9.81218e-05
1.06028e-06 4.1241e-07 -9.89602e-05
1.11783e-06 -2.44772e-08 -0.000103808
1.07049e-06 6.7971e-08 -0.000104528
1.31707e-06 3.94254e-08 -0.000105464
9.40179e-07 8.21644e-08 -0.000100399
1.37736e-06 -3.14531e-07 -9.81013e-05
8.90876e-07 -3.72061e-07 -9.12378e-05
1.27305e-06 -2.54942e-07 -8.57523e-05
7.71686e-07 -3.65979e-07 -7.41815e-05
5.98723e-07 -6.6208e-08 -6.28267e-05
5.15867e-07 -3.95299e-07 -4.97863e-05
7.33309e-07 -3.67769e-07 -3.61471e-05
1.87485e-07 -6.77707e-07 -1.95657e-05
3.34843e-07 -7.52765e-07 -3.06456e-06
1.27691e-07 -9.75974e-07 1.46118e-05
1.3018e-07 -7.40524e-07 2.89838e-05
1.53351e-07 -8.69096e-07 4.37722e-05
4.24295e-07 -8.48195e-07 5.22738e-05
1.68807e-07 -1.0584e-06 6.05669e-05
1.38115e-07 -9.56581e-07 6.31831e-05
2.07762e-08 -1.1361e-06 6.7401e-05
-1.29822e-07 -9.80949e-07 6.79069e-05
-1.95371e-07 -8.8517e-07 6.70783e-05
-3.17407e-07 -7.79953e-07 5.94221e-05
-7.44795e-08 -1.17441e-06 5.23808e-05
-3.73807e-07 -4.28947e-07 4.43314e-05
-1.59436e-07 -1.00208e-06 4.03182e-05
-6.62888e-08 -8.50808e-07 3.42906e-05
5.25848e-08 -9.06998e-07 2.81736e-05
-1.81988e-07 -8.03971e-07 2.11983e-05
5.34759e-08 -6.45254e-07 1.56224e-05
-2.59066e-07 -8.48018e-07 1.34044e-05
-4.23454e-08 -2.89708e-07 9.88278e-06
-5.4099e-08 -8.94953e-07 7.2974e-06
-4.00391e-07 -7.11234e-07 2.04974e-06
-2.85504e-07 -4.48869e-07 -4.35947e-07
-3.01728e-07 -8.76402e-07 -3.15362e-06
3.01103e-08 -5.60348e-07 -3.11624e-06
2.75425e-07 -5.04862e-07 -1.78804e-06
-1.48457e-07 -4.00548e-07 -2.82203e-06
7.55917e-08 -3.66976e-07 -1.00562e-06
-3.35653e-07 -5.9868e-07 -2.73372e-06
-1.00453e-07 -5.68977e-07 -1.82359e-06
-4.08651e-07 -4.33468e-07 -4.70861e-07
-1.31231e-07 -4.02169e-07 1.9523e-07
-3.56583e-07 -6.50873e-07 6.8167e-07
-1.77351e-07 -4.40728e-07 9.77217e-07
-3.36239e-07 -3.97098e-07 2.98662e-06
-2.18182e-07 -5.98141e-07 3.44697e-06
2.37761e-08 -1.52955e-07 4.68002e-06
9.39821e-08 -3.44161e-07 2.14662e-06
2.02567e-07 -4.74012e-07 2.63533e-06
-5.43674e-08 -4.39058e-07 7.62926e-07
7.41745e-09 -3.87285e-07 2.34933e-06
-9.4815e-08 -2.63726e-07 6.45286e-07
-2.78189e-08 -1.65264e-07 -2.93408e-07
-5.16837e-08 -3.53206e-07 -1.21848e-06
-9.57714e-08 -1.66713e-07 -1.08685e-06
-3.10202e-07 -2.82689e-07 9.01499e-08
3.10098e-08 -4.07122e-07 -2.76373e-07
-2.66432e-07 -2.40938e-07 -1.33418e-07
1.47408e-07 -3.25136e-07 -1.15922e-06
-6.6083e-08 -2.37512e-07 5.33911e-08
2.53855e-07 -2.96705e-07 -4.31466e-07
-2.51415e-07 -1.85132e-07 6.11679e-07
4.63665e-08 -3.67441e-07 -1.00438e-06
4.27844e-08 4.38139e-08 -9.63792e-07
2.69636e-07 4.79852e-08 -1.14103e-07
7.93183e-08 2.25856e-07 1.16481e-06
5.44946e-08 1.30201e-07 2.16983e-06
1.06494e-07 2.16414e-07 1.33584e-07
0 0 0
0 0 0
-1.13475e-07 1.83786e-07 -5.38499e-07
2.21549e-07 8.02089e-08 -1.09655e-06
-2.17514e-07 1.22007e-07 -2.83667e-06
-1.63809e-09 -3.66978e-09 -2.75993e-06
-2.58902e-07 1.7266e-07 -3.8376e-06
2.094e-07 6.62507e-08 -2.56355e-06
3.44008e-07 2.88271e-07 -2.58309e-06
-7.84073e-08 -2.38999e-08 -1.56532e-06
3.62736e-07 3.36411e-07 -1.76247e-06
8.23849e-08 -2.39388e-07 -1.34167e-06
4.69581e-07 -2.98146e-08 -2.84499e-07
1.81629e-07 -1.23139e-07 6.38609e-07
3.52585e-07 -2.57544e-07 2.10443e-06
5.20325e-08 -1.52684e-07 1.341e-06
4.32333e-07 -1.8899e-07 1.41398e-06
-2.08177e-07 -2.46938e-07 -1.05017e-06
4.40251e-07 -3.27397e-07 -5.74513e-07
-9.94774e-08 -2.66718e-07 -2.82147e-06
3.85738e-07 -1.1952e-07 -1.24626e-06
9.35515e-08 5.80612e-08 -2.47047e-06
3.47761e-07 -3.73146e-07 5.82674e-07
2.81146e-08 3.21822e-08 -5.79527e-08
-1.18943e-07 -1.43277e-07 2.57647e-06
1.30123e-07 2.90916e-08 6.95932e-07
-1.64005e-07 -1.11545e-07 2.72914e-06
2.07905e-07 1.33762e-07 1.08007e-06
-1.71509e-07 -5.14757e-08 3.68296e-06
2.75804e-07 2.34553e-07 2.80725e-06
-1.20153e-07 3.11111e-08 5.03993e-06
6.70951e-07 2.42082e-07 3.87769e-06
-3.71825e-08 -1.26394e-08 3.55413e-06
5.4968e-07 7.29503e-08 1.17723e-06
3.39982e-07 8.32791e-08 -5.36207e-07
2.39166e-07 1.67914e-07 -1.62385e-06
5.54743e-07 -2.73662e-07 -1.29107e-06
2.9547e-07 5.9523e-08 -1.01423e-06
5.81537e-07 -1.99568e-07 -2.67147e-07
4.93286e-07 1.28393e-07 -3.16059e-07
2.40167e-07 -1.74325e-07 6.21848e-07
3.21651e-07 -6.15454e-08 1.06596e-06
1.03239e-07 -1.94101e-07 2.82142e-06
1.01151e-07 -8.64965e-08 2.85733e-06
-3.87443e-08 -7.11971e-08 3.77704e-06
1.22079e-07 -1.47538e-09 1.90053e-06
-2.89903e-07 -1.34179e-07 1.51816e-06
1.62957e-07 8.42958e-08 2.46059e-07
-6.37281e-08 -3.71311e-07 9.14167e-07
9.66941e-08 -8.74907e-08 9.19137e-07
-9.71767e-08 -1.28928e-07 1.11678e-06
-1.30233e-07 -2.97941e-07 1.11002e-06
1.79503e-07 -1.37778e-07 1.35861e-06
1.56778e-07 -1.77865e-07 2.19874e-06
1.15368e-07 -4.08338e-08 2.74257e-06
1.9233e-08 -1.43182e-07 2.55415e-06
2.72465e-07 9.98864e-08 9.83813e-07
2.81229e-07 1.85923e-07 -4.9969e-07
3.17245e-07 1.16448e-07 -2.56354e-06
-1.00738e-08 -1.03706e-07 -2.29447e-06
1.28747e-07 8.80558e-08 -2.38406e-06
-4.15092e-08 -1.95415e-07 -7.74075e-07
2.78618e-07 6.28028e-08 -9.08505e-07
3.80314e-07 -1.87187e-07 -1.65908e-07
2.45969e-07 8.25421e-08 -9.62651e-07
3.05422e-07 -4.59366e-07 -2.24893e-07
3.63731e-07 1.7994e-08 -4.00138e-07
3.08723e-08 -3.6969e-07 -1.52757e-07
3.21097e-07 1.6279e-07 -5.60882e-07
3.2643e-08 -1.22855e-07 -8.00631e-07
-1.38979e-07 1.76938e-07 -8.70002e-08
-7.94916e-09 -1.62455e-07 1.93054e-07
-5.67243e-08 1.0354e-07 1.01899e-06
-1.18278e-07 -3.59039e-07 5.61244e-08
-1.57349e-07 -2.714e-08 6.93348e-07
6.51716e-08 -3.66031e-07 -3.2511e-07
-6.99555e-08 -3.24666e-08 1.00226e-06
-8.37857e-09 -2.0941e-07 -2.13021e-07
2.30228e-07 1.56699e-07 8.15048e-07
2.08978e-07 -4.22974e-07 -9.6632e-07
-1.63331e-07 1.02054e-07 -3.16846e-08
8.71522e-08 -2.79057e-07 -1.72865e-06
2.92171e-08 2.08349e-07 2.54632e-08
-1.92161e-07 1.61954e-07 -2.25492e-07
-1.61228e-07 2.73117e-07 1.60917e-06
-5.43361e-08 1.7992e-07 1.43133e-06
-1.29128e-07 4.06487e-07 2.00962e-06
-1.2054e-07 -7.6371e-09 1.78456e-06
5.62115e-08 2.6064e-07 2.51e-06
-4.34034e-07 -9.8712e-08 2.83165e-06
-1.30694e-07 4.0582e-07 2.96661e-06
-1.19991e-07 2.55926e-07 1.77688e-06
-1.77555e-07 6.43204e-07 1.09143e-06
3.82015e-07 1.03059e-07 1.30478e-07
1.12786e-07 2.91001e-07 -3.6458e-07
0 0 0
0 0 0
1.23237e-07 4.73999e-08 -3.6778e-07
9.05341e-08 -3.00103e-07 -4.31536e-06
2.16747e-07 8.94792e-08 -5.342e-06
-2.27486e-07 1.8439e-07 -8.6517e-06
-6.84836e-08 -2.06109e-07 -6.78077e-06
8.57884e-08 5.44178e-07 -8.36976e-06
-1.12843e-07 4.46667e-08 -1.01274e-05
5.72704e-08 5.05025e-07 -1.71925e-05
1.09026e-07 3.4421e-08 -2.27542e-05
1.92595e-07 4.72481e-07 -2.84516e-05
1.73195e-07 -3.46231e-07 -3.16736e-05
1.01771e-07 3.92339e-07 -3.52067e-05
2.117e-07 -1.24893e-07 -3.94851e-05
2.52558e-07 3.40806e-07 -4.32563e-05
-5.8278e-08 1.80911e-07 -4.90347e-05
2.70625e-07 -8.04138e-08 -5.39232e-05
5.9774e-07 1.6858e-07 -6.21415e-05
5.57572e-07 3.94462e-07 -6.53862e-05
3.64105e-07 2.70255e-07 -6.91601e-05
1.91102e-07 2.89821e-07 -6.83801e-05
1.60569e-07 -2.69923e-07 -7.19136e-05
3.3992e-07 -1.38342e-07 -7.37853e-05
4.70075e-07 -8.47469e-08 -7.59871e-05
5.77536e-07 1.65425e-07 -7.36521e-05
6.47846e-07 -6.17294e-08 -7.11663e-05
4.84366e-07 -1.34965e-07 -6.83623e-05
6.22962e-07 -4.30262e-07 -6.51342e-05
5.47416e-07 -1.87572e-07 -6.00696e-05
1.78927e-07 -2.27852e-07 -5.21722e-05
2.08278e-07 -5.83229e-07 -4.40916e-05
3.5911e-07 -4.77346e-07 -3.42682e-05
9.85099e-08 -3.37845e-07 -2.41268e-05
-1.13308e-07 -4.48303e-07 -1.16617e-05
1.53536e-07 -7.53944e-07 1.0176e-06
2.32781e-07 -6.85141e-07 1.19576e-05
6.63786e-09 -5.39121e-07 2.34451e-05
3.88526e-07 -1.04783e-06 3.17652e-05
2.71404e-07 -1.53151e-07 3.99688e-05
8.51666e-08 -9.78688e-07 4.2651e-05
1.73954e-07 -3.66611e-07 4.75715e-05
1.23429e-07 -8.43783e-07 4.825e-05
-8.38417e-08 -4.5035e-07 5.1937e-05
1.18657e-07 -8.81811e-07 4.80699e-05
-8.22579e-08 -6.01428e-07 4.3484e-05
-2.094e-07 -6.59171e-07 3.49626e-05
-2.67849e-07 -2.49144e-07 3.11062e-05
-1.86271e-07 -8.73983e-07 2.75903e-05
-2.42414e-07 -6.59232e-07 2.50422e-05
-3.44425e-07 -9.00382e-07 1.94597e-05
-4.39747e-07 -4.69099e-07 1.4211e-05
-3.30724e-07 -5.73873e-07 1.06863e-05
-1.32181e-07 -6.06682e-07 8.21498e-06
-3.06509e-07 -6.12551e-07 7.55512e-06
3.0363e-08 -8.36283e-07 4.56628e-06
-3.62159e-07 -2.30022e-07 2.75108e-06
-1.6539e-07 -7.04396e-07 -1.0635e-06
4.4855e-09 -1.11428e-07 -2.32286e-06
2.44656e-07 -6.85913e-07 -3.23699e-06
8.20393e-09 -4.60976e-07 -2.78106e-06
1.2721e-07 -3.91748e-07 -1.24344e-06
-7.60521e-08 -3.4361e-07 -2.19436e-06
-4.99462e-09 -4.73782e-07 -1.32354e-06
-2.96005e-07 -4.49344e-07 -1.61695e-06
-1.59888e-07 -8.41071e-08 -4.16511e-07
-2.46094e-08 -3.0884e-07 5.05771e-07
-1.60525e-07 -4.07802e-07 7.15332e-08
-1.11758e-07 -4.95985e-07 -3.84709e-07
-4.24245e-08 -5.19441e-07 2.20905e-07
9.65267e-08 -2.56921e-07 2.16884e-06
1.6161e-07 -2.0464e-07 2.48782e-06
8.81416e-08 -4.40569e-07 1.76461e-06
7.14551e-08 -2.17212e-08 6.25951e-07
-2.69891e-08 -5.40843e-07 7.72375e-07
-1.97697e-07 -6.74242e-08 2.07379e-06
2.61093e-08 -8.69378e-08 2.14569e-06
1.03948e-07 -1.86822e-07 1.11859e-06
2.61741e-07 -2.15187e-07 -1.34392e-06
-1.51342e-07 -2.38385e-07 -4.85218e-07
2.15191e-07 -3.71588e-07 -2.55804e-07
6.96213e-08 -1.71645e-07 1.4651e-06
3.19401e-07 -2.63416e-07 -7.96904e-07
2.89982e-09 -4.22007e-07 -7.98211e-07
2.92377e-07 -2.01233e-07 -1.88732e-06
3.57715e-09 -9.82746e-08 -1.32891e-08
-8.40485e-08 -2.79644e-07 -6.59343e-07
-3.71157e-08 -3.65002e-07 -4.58779e-07
1.46429e-07 8.19327e-08 -1.24179e-06
6.72664e-09 -2.38199e-07 -6.21423e-07
1.26225e-07 6.85885e-08 2.27328e-06
8.70934e-08 -5.78167e-08 1.54094e-06
-5.39843e-08 3.34015e-07 1.70621e-06
-1.29998e-07 -8.97606e-08 -1.4548e-06
0 0 0
0 0 0
1.17872e-07 1.675e-07 -9.3448e-08
-1.93755e-07 1.28965e-07 -8.06752e-07
-4.25409e-08 6.00023e-08 -1.10374e-06
-7.83691e-08 -1.55008e-07 -2.6053e-06
-1.02948e-07 -3.32028e-07 -2.36989e-06
1.30191e-07 -1.48952e-07 -3.16981e-06
2.8384e-07 5.16668e-09 -1.65505e-06
1.36363e-07 4.16157e-07 -1.49375e-06
3.12812e-07 7.59069e-08 -3.28718e-07
2.07019e-07 3.57514e-07 -6.62112e-07
3.4339e-07 4.51361e-09 -1.03068e-07
2.56015e-08 1.34333e-07 3.31354e-07
2.13526e-07 1.56426e-07 1.12811e-06
-6.03237e-08 9.73601e-08 1.63586e-06
1.399e-07 1.45524e-07 1.49844e-06
2.05734e-08 1.48819e-07 1.28771e-06
2.02676e-07 -1.35896e-07 -1.58146e-07
5.62809e-08 -2.09607e-09 -9.28174e-07
6.1303e-08 -7.15109e-08 -2.70962e-06
2.00322e-07 -2.7352e-07 -1.45788e-06
3.6882e-08 -1.7978e-07 -1.22626e-06
-1.30019e-07 -3.2481e-07 1.85031e-06
1.41199e-07 -1.149e-07 1.20619e-06
-1.31464e-07 -1.5848e-07 2.59922e-06
1.80329e-07 -6.71962e-08 2.07665e-07
-6.53261e-09 -2.53419e-07 1.39807e-06
2.58533e-07 -2.42785e-07 1.75157e-09
-7.68422e-08 -1.45126e-07 2.33868e-06
1.96646e-07 -2.827e-08 2.40268e-06
8.64404e-08 -1.57453e-07 3.8753e-06
4.72108e-07 1.55793e-07 2.68226e-06
6.10715e-08 -8.56954e-08 1.60235e-06
6.50532e-07 2.83545e-07 -7.77927e-07
1.43111e-07 -1.92774e-07 -1.22856e-06
3.85284e-07 1.99741e-07 -1.35533e-06
2.47545e-07 -3.48029e-07 4.15492e-09
4.63077e-07 5.36087e-08 3.24304e-07
2.17324e-07 -1.88515e-07 9.19462e-07
4.87843e-07 2.78636e-08 5.28877e-07
9.05989e-08 -4.70424e-08 1.31733e-06
2.40688e-07 4.91189e-08 1.67449e-06
1.27284e-07 -3.14663e-08 2.9019e-06
-3.09435e-08 1.38227e-07 2.07858e-06
-1.29087e-08 -6.53919e-08 1.55056e-06
-1.36069e-07 1.86526e-07 -2.38798e-07
-1.46636e-07 -5.78754e-08 -3.99017e-07
1.85399e-07 2.5054e-08 -7.14854e-08
-1.40384e-07 -2.8315e-07 1.21439e-06
-3.60394e-08 6.73191e-09 1.63777e-06
1.73366e-07 -1.68064e-07 1.62464e-06
-6.43464e-08 -2.65168e-07 1.3176e-06
4.85126e-09 -2.9818e-07 1.59917e-06
2.6084e-07 -3.92149e-07 2.18565e-06
2.05713e-07 -4.29794e-07 2.44724e-06
3.67355e-08 -2.4972e-07 1.95715e-06
1.20991e-07 -1.91254e-07 1.20732e-06
2.46649e-07 -1.32877e-07 5.11738e-07
-1.80937e-08 9.17706e-08 4.63744e-07
3.85378e-07 -5.17704e-09 1.28739e-06
-3.58133e-07 8.05768e-08 1.46436e-06
3.93949e-07 -2.00949e-07 1.45868e-06
9.90538e-08 2.14821e-07 -1.25022e-07
2.30814e-07 -1.56266e-07 -7.25553e-07
3.12058e-07 3.06985e-07 -1.25287e-06
-9.48443e-08 -2.62712e-07 -5.91797e-07
1.81675e-07 1.72457e-07 -7.95527e-07
2.57523e-09 -1.64919e-07 -1.17369e-06
-1.57554e-07 1.91124e-07 -1.43543e-06
8.24741e-08 -1.70567e-07 -1.12219e-06
-3.34299e-07 -6.32611e-09 1.22109e-07
9.71047e-08 -5.44752e-08 6.03376e-08
-3.61571e-07 -4.80732e-08 7.1712e-07
3.79334e-07 7.9417e-08 -5.50437e-07
-5.04471e-07 3.93029e-08 1.0859e-09
3.71662e-07 -1.11249e-08 -1.26201e-06
-3.64588e-08 8.65612e-08 9.52431e-08
7.12613e-08 4.74585e-08 -6.1733e-07
1.27964e-07 1.78765e-07 1.27104e-06
1.26963e-07 -7.6169e-08 3.53762e-08
-2.69417e-07 4.11524e-07 5.35729e-07
5.82071e-08 6.74429e-08 -7.52364e-07
-1.51287e-08 1.4299e-07 4.11696e-07
-1.61433e-07 1.42418e-07 6.64793e-07
3.0039e-07 -7.7619e-08 1.37539e-06
-2.0784e-07 -2.29606e-08 4.00238e-07
3.0327e-08 1.04195e-08 2.031e-07
-6.11094e-08 1.29495e-07 -4.91963e-08
1.41685e-07 2.48872e-07 8.9954e-07
-7.39691e-08 9.80953e-08 1.15783e-06
1.80694e-07 8.04824e-08 1.39593e-06
-1.10644e-07 3.8233e-08 8.80173e-07
2.2565e-07 1.0649e-07 1.0309e-06
-1.01908e-07 3.94901e-07 -5.78835e-08
-1.21376e-07 2.76671e-09 7.4611e-07
0 0 0
0 0 0
-5.21514e-08 4.65468e-08 -1.3662e-06
1.01451e-07 2.14441e-07 -2.20441e-06
-3.34994e-08 -1.46586e-07 -4.76925e-06
-5.15669e-08 3.53545e-07 -3.92576e-06
-1.24377e-08 -3.60993e-07 -3.6023e-06
-6.98294e-09 1.83615e-07 -1.82754e-06
9.09236e-09 -2.16237e-07 -5.02118e-06
2.46001e-07 2.77263e-07 -8.82664e-06
5.57082e-07 5.08425e-08 -1.45074e-05
3.90459e-07 5.50172e-07 -1.60035e-05
4.09654e-07 8.76234e-08 -1.85033e-05
1.54249e-07 3.19027e-07 -1.93002e-05
2.67607e-07 8.85259e-08 -2.33323e-05
1.78569e-07 3.34213e-07 -2.60729e-05
3.21523e-07 2.41565e-07 -3.03087e-05
-8.80228e-09 2.04699e-07 -3.45325e-05
6.1562e-07 -1.61836e-07 -3.84256e-05
3.53341e-07 2.01452e-07 -4.18658e-05
4.79025e-07 -5.99838e-09 -4.16859e-05
2.83826e-07 -2.48912e-07 -4.27154e-05
4.4003e-07 2.03841e-07 -4.48378e-05
3.83672e-07 -2.32621e-07 -4.75138e-05
6.36688e-07 -1.14139e-07 -4.77344e-05
5.70596e-07 -4.6805e-07 -4.52172e-05
4.17907e-07 -1.76679e-07 -4.2682e-05
4.81283e-07 -2.52783e-07 -4.05821e-05
4.94174e-07 -3.42747e-07 -3.97971e-05
5.88877e-07 -3.87162e-07 -3.62237e-05
4.44938e-07 -5.23655e-07 -3.28388e-05
6.40079e-07 -5.288e-07 -2.57281e-05
1.11608e-07 -7.70599e-07 -2.10955e-05
5.74129e-07 -5.74138e-07 -1.17719e-05
1.22046e-07 -5.7589e-07 -4.87592e-06
4.99151e-07 -4.86937e-07 3.73058e-06
1.72996e-07 -7.75076e-07 9.19731e-06
3.05628e-07 -6.18579e-07 1.57991e-05
1.54735e-07 -8.16744e-07 2.18802e-05
-1.47284e-07 -4.85256e-07 2.56908e-05
-2.24301e-07 -9.17583e-07 2.85915e-05
-3.14528e-07 -3.15911e-07 2.93931e-05
-4.97981e-08 -7.61045e-07 3.18921e-05
-1.0665e-07 -2.3776e-07 3.27334e-05
-4.33792e-08 -3.80052e-07 3.13878e-05
-1.12314e-07 8.34589e-08 2.58774e-05
-1.0068e-07 -5.22069e-07 2.08238e-05
-1.89606e-08 -3.61244e-07 1.76208e-05
6.8825e-08 -5.66694e-07 1.66407e-05
-1.84114e-07 -4.73565e-07 1.52028e-05
-1.78504e-07 -5.03575e-07 1.24572e-05
-2.65096e-07 -5.49294e-07 9.41806e-06
-1.31821e-08 -4.24266e-07 6.06839e-06
7.09065e-08 -3.0782e-07 5.15941e-06
1.13402e-07 -2.1133e-07 3.57129e-06
-1.87493e-07 -3.59966e-07 3.60287e-06
2.42165e-07 -3.83512e-07 1.43007e-06
-1.6538e-07 -3.62397e-07 2.75728e-07
-3.5674e-07 -5.23758e-07 -2.74371e-06
-9.24375e-08 -4.47052e-07 -3.18664e-06
-1.36212e-07 -2.01777e-07 -2.55961e-06
2.68435e-08 -2.3567e-07 -2.51879e-06
2.29935e-08 -2.60283e-07 -9.03191e-07
-1.2265e-07 -1.91423e-07 -1.8727e-06
-2.31479e-07 -2.67158e-07 -1.35578e-06
-1.41186e-07 -2.38943e-07 -1.71569e-08
-1.64741e-08 -3.41362e-07 6.48968e-07
-2.50284e-07 -3.18187e-08 8.4977e-08
-7.62919e-08 -2.1834e-07 -8.44804e-07
-1.67964e-07 -3.93963e-07 -7.08989e-07
-2.85028e-07 -3.13758e-07 5.43894e-07
1.54037e-07 -3.5341e-07 1.76875e-06
5.33768e-08 -3.57862e-07 5.01466e-07
2.19387e-07 -1.4135e-07 -2.07415e-07
2.66507e-07 -1.39773e-07 -2.89989e-07
1.52198e-07 -2.36243e-07 2.40297e-06
-2.64166e-08 -1.2872e-07 3.33744e-06
-1.04267e-08 -1.22915e-07 1.77711e-06
-4.72096e-08 -1.5602e-07 -2.29663e-09
-1.64005e-07 -2.42116e-07 -1.14952e-06
-3.38168e-07 -1.55513e-07 4.38282e-07
1.76704e-07 -2.81729e-07 1.76752e-07
-7.37146e-09 -2.10847e-07 -2.4037e-07
1.88371e-07 -5.92218e-08 -1.91769e-06
-1.22966e-07 -8.93581e-08 -1.26021e-06
1.95483e-07 -1.35737e-07 -8.94568e-07
-5.18633e-08 -2.31573e-07 5.90904e-07
1.56245e-07 -3.02512e-07 -5.2567e-07
-1.14172e-07 2.42336e-08 -9.45082e-07
-1.60508e-07 -2.01455e-07 -2.69151e-07
9.29866e-09 1.36553e-07 1.07961e-06
1.09546e-07 -1.87743e-07 2.3579e-06
-5.32681e-09 1.40171e-07 7.35077e-07
3.59106e-08 -4.49527e-08 1.61958e-07
1.37597e-08 1.92903e-07 -3.81958e-07
0 0 0
0 0 0
6.94032e-08 8.97375e-09 -1.36547e-07
5.5472e-08 2.21937e-07 -1.90053e-07
-2.14058e-07 5.43383e-08 -6.87551e-07
2.35838e-07 -1.06907e-07 -1.16615e-06
4.84374e-08 1.56317e-07 -1.79392e-06
3.36046e-07 -1.01308e-07 -1.97437e-06
-1.97286e-08 2.30273e-07 -1.23382e-06
9.66829e-08 1.5887e-08 -8.02083e-07
2.91498e-07 2.39368e-07 1.30242e-07
-5.795e-08 -8.71366e-08 -4.34895e-07
5.20565e-07 2.05113e-07 1.10822e-07
-4.41494e-08 -1.13647e-07 -6.65017e-07
3.55593e-07 2.3956e-08 6.55091e-07
6.39018e-08 -1.05109e-07 2.70817e-07
4.64154e-07 -3.59532e-08 1.97778e-06
-1.35724e-07 9.24949e-10 8.89146e-07
1.81681e-07 -1.11126e-07 1.69096e-06
1.38733e-07 -1.36912e-07 -1.02915e-06
6.55105e-08 -2.40534e-07 -7.88244e-07
-2.89254e-08 1.0868e-08 -2.29814e-06
-1.28917e-07 -1.10975e-07 4.10279e-07
-1.49986e-08 -2.12055e-08 5.63371e-07
-3.07433e-07 -2.50233e-07 2.68962e-06
1.17744e-08 -2.0625e-07 8.81665e-07
-8.89099e-08 -4.20197e-07 1.21438e-06
-7.83876e-08 -1.3011e-07 -8.79436e-07
-2.46542e-07 -8.87406e-08 1.3235e-07
2.37721e-07 1.90543e-07 -3.91576e-07
2.36263e-07 2.6846e-07 1.475e-06
3.35016e-07 1.99883e-07 1.6083e-06
1.17061e-07 7.66537e-08 1.91994e-06
3.97709e-07 2.24873e-07 8.34365e-07
1.04228e-07 -2.12712e-07 -5.64834e-07
6.07192e-08 1.19804e-07 -1.04402e-06
2.84361e-07 -1.59411e-07 -9.70209e-07
-1.01005e-07 3.02515e-08 2.67225e-07
1.90053e-07 1.10542e-07 6.66533e-07
1.68235e-07 2.41133e-07 1.1277e-06
2.57757e-07 -6.21218e-08 4.31503e-07
2.26145e-07 2.34031e-08 7.15706e-07
1.75399e-07 -1.62498e-07 8.17258e-07
1.01295e-07 -1.11155e-07 1.42784e-06
-5.86576e-08 -1.35501e-07 1.29846e-06
-9.4754e-09 2.22094e-07 4.78567e-07
1.0915e-08 2.56394e-08 -4.48828e-07
1.17991e-08 1.14621e-07 -5.96979e-07
-1.04245e-07 -4.08629e-08 2.05376e-07
-2.7195e-08 -2.45344e-07 1.73214e-06
-9.6338e-08 -2.07443e-07 2.49011e-06
-1.25565e-07 -1.21254e-07 2.92109e-06
1.35032e-07 -1.45043e-07 2.1977e-06
8.33573e-09 -4.21404e-08 2.3071e-06
3.14802e-07 -2.99465e-07 2.09652e-06
-1.53064e-07 9.26304e-08 2.97322e-06
3.28528e-07 1.72343e-07 2.56717e-06
2.82419e-07 -7.91738e-08 3.32045e-06
7.93862e-08 1.64459e-07 2.21613e-06
6.73672e-08 -4.68072e-09 3.48481e-06
6.17393e-08 2.12865e-08 2.69484e-06
1.28115e-07 -1.91028e-07 4.0521e-06
1.52974e-07 6.97503e-08 2.03237e-06
-1.56169e-08 -2.5699e-07 2.11784e-06
2.44098e-07 1.17306e-07 -4.57696e-07
-4.02733e-08 7.77696e-08 6.78695e-07
2.99247e-07 3.15653e-07 -4.77651e-07
1.18224e-07 -6.35367e-08 7.18338e-07
7.48506e-08 2.04629e-07 -1.26569e-06
6.36774e-08 1.73691e-08 -7.83531e-07
-2.70994e-08 1.32357e-07 -1.4878e-06
4.90787e-08 -4.93555e-08 1.33734e-07
-2.30643e-07 3.70429e-08 -1.25207e-07
-3.20004e-08 -1.97315e-07 1.95756e-07
8.39661e-10 -4.16263e-07 -9.64051e-07
1.5529e-07 -9.32091e-08 -1.35839e-06
6.76888e-08 -2.28932e-07 -2.0943e-06
-3.29207e-08 3.92387e-08 -1.79262e-06
5.62402e-08 -8.89258e-08 -1.1704e-06
-8.58066e-08 -2.73998e-08 -2.09901e-07
-1.63652e-08 -6.79409e-08 -8.83601e-09
1.8515e-07 -7.6398e-08 -6.61992e-07
4.7301e-08 1.32151e-08 -1.14539e-06
-1.29744e-08 1.23887e-07 -6.4725e-07
-2.06952e-08 1.59511e-07 4.07782e-08
1.04248e-07 3.45612e-07 7.46292e-07
-2.10522e-07 -1.41744e-07 -2.18187e-07
2.5909e-08 9.5459e-08 -6.00116e-07
1.91409e-07 -2.42455e-07 -1.37451e-06
-9.00048e-08 -6.08698e-08 -4.55392e-07
1.48386e-07 1.99201e-07 -2.39807e-07
1.61638e-07 1.91862e-07 5.07466e-07
1.94045e-07 3.27473e-07 8.70808e-07
4.02633e-07 1.51391e-07 1.45035e-06
3.10943e-07 2.14791e-07 1.86722e-06
1.76855e-07 1.82807e-07 1.08495e-06
4.18651e-07 -3.01961e-08 1.63706e-06
0 0 0
0 0 0
1.24448e-07 1.17811e-07 -2.06945e-08
-9.22095e-08 -4.8232e-09 -2.11066e-06
2.16189e-07 2.30327e-07 -1.68424e-06
-1.27761e-07 1.21441e-07 -2.27102e-06
-1.42309e-07 -1.07471e-07 4.60691e-07
-1.87225e-07 1.02735e-07 4.2267e-07
-1.13336e-07 -3.36788e-08 -1.30836e-07
2.10754e-07 2.96559e-07 -3.9837e-06
4.56551e-08 2.79555e-08 -5.54258e-06
1.19341e-07 2.90664e-07 -6.66481e-06
9.95359e-08 -3.44212e-08 -6.25101e-06
-5.73637e-08 5.37286e-07 -7.65499e-06
-1.96414e-07 8.96157e-08 -9.12556e-06
-3.59214e-09 1.57736e-07 -1.12515e-05
-1.66475e-07 4.30853e-07 -1.32551e-05
-1.1675e-07 -2.79804e-07 -1.58311e-05
-2.16572e-07 5.28914e-08 -1.83844e-05
1.69825e-08 1.35817e-07 -1.80601e-05
-6.09436e-08 4.62623e-08 -1.81914e-05
9.41911e-08 1.68991e-07 -1.81085e-05
-4.14622e-07 -3.61589e-08 -2.10061e-05
-2.17465e-08 -6.42452e-08 -2.30843e-05
-3.19469e-07 -4.68953e-07 -2.25861e-05
6.41023e-08 -2.23613e-07 -2.06165e-05
1.99376e-07 -3.34768e-07 -1.81526e-05
-1.12242e-07 -3.02585e-07 -1.87043e-05
-1.44981e-07 -3.04138e-07 -1.76611e-05
9.33384e-08 -4.26542e-07 -1.7386e-05
1.4222e-07 -2.44507e-07 -1.38225e-05
-3.03322e-08 -6.26324e-07 -1.2052e-05
-5.21629e-08 -5.75498e-08 -7.11033e-06
-1.68323e-08 -4.70668e-07 -3.92176e-06
-5.2964e-09 -2.95667e-07 1.39138e-06
-1.16586e-07 -5.43567e-07 3.5594e-06
1.23636e-07 -6.19486e-07 6.39262e-06
-1.06263e-07 -2.28296e-07 8.77603e-06
4.29387e-07 -4.37936e-07 1.20278e-05
2.82062e-07 1.05063e-07 1.41485e-05
2.11098e-07 -4.47662e-07 1.42169e-05
2.5813e-07 -5.11003e-08 1.52409e-05
2.00482e-07 -9.33635e-07 1.49589e-05
4.03717e-08 -2.1319e-07 1.66336e-05
-1.28319e-07 -4.4034e-07 1.43343e-05
-1.64487e-07 -5.13571e-07 1.18354e-05
-2.81218e-07 -1.31398e-07 8.63092e-06
-2.00816e-07 -1.26965e-07 7.56498e-06
-1.27133e-07 -2.01583e-07 7.27229e-06
-3.1518e-07 -2.98832e-07 7.36216e-06
-1.33975e-07 -4.15503e-07 6.15504e-06
-9.52435e-08 -1.78469e-07 4.50686e-06
-4.57787e-07 -2.8373e-07 3.19635e-06
1.938e-08 -1.93881e-07 1.75353e-06
-9.47099e-08 -3.60222e-07 1.92651e-06
1.40668e-08 -2.07165e-07 1.3214e-06
-1.73737e-07 -1.22059e-07 1.6948e-06
-5.24123e-08 -1.37778e-07 -2.94206e-07
-1.93897e-07 -1.94368e-07 -1.27543e-06
1.12864e-07 -3.3379e-07 -2.57551e-06
3.14707e-07 -3.00977e-07 -2.46608e-06
-6.41456e-09 -1.7083e-07 -1.38064e-06
3.68113e-07 -1.99135e-08 -1.51198e-06
2.54986e-08 -7.03127e-08 -8.09629e-07
-2.86452e-08 -2.80203e-07 -9.34051e-07
7.32694e-08 8.6325e-08 -1.39989e-08
1.82008e-09 -1.40886e-07 7.28967e-07
2.07336e-07 -4.73726e-08 4.76304e-07
8.67133e-08 -4.75084e-07 -5.9065e-07
-7.94922e-08 -3.46875e-07 -8.34113e-07
4.63742e-08 -1.83429e-07 1.72535e-07
-4.37355e-08 -4.65561e-07 7.21482e-07
2.04716e-07 -2.96868e-07 2.62604e-08
4.54411e-09 -1.20595e-07 -9.81555e-07
-1.03125e-07 -2.15582e-07 -4.74015e-07
-6.87625e-08 -9.75232e-08 1.55258e-06
-3.13144e-08 -2.92971e-08 2.78897e-06
-5.20639e-09 -1.91278e-07 2.08077e-06
-3.41964e-08 -2.45942e-07 2.92074e-08
-2.23025e-07 -1.71352e-07 -3.84854e-07
1.31764e-07 -1.42105e-07 -2.2097e-07
-1.45e-07 -6.38435e-08 3.86781e-07
1.04642e-07 -9.36989e-08 -8.56805e-07
-1.80001e-07 -1.20889e-07 -1.33728e-06
1.99261e-08 2.07783e-08 -1.23333e-06
6.48706e-08 -6.24682e-08 2.49348e-08
1.95512e-09 -6.27952e-09 4.05327e-07
1.56025e-08 -3.32255e-07 5.30553e-09
6.44876e-08 7.6003e-08 -5.12028e-07
-7.61144e-08 -5.82945e-08 -7.57708e-07
-9.32349e-09 -1.00626e-09 1.10183e-06
1.31973e-07 5.74832e-08 8.49988e-07
-8.47849e-09 3.55803e-07 1.47132e-06
-5.85655e-08 3.90478e-08 -5.15767e-07
6.25193e-08 8.15216e-08 2.13628e-07
1.57615e-07 1.39514e-07 4.41225e-07
0 0 0
0 0 0
-8.9329e-08 6.116e-08 -5.81718e-08
3.66299e-08 1.57386e-07 -2.46952e-08
1.52787e-07 -7.45731e-08 1.00298e-08
-1.89211e-08 -3.50798e-08 -3.77652e-07
1.33595e-07 -8.23133e-08 -3.47998e-07
-1.81293e-08 -5.21726e-08 -7.30168e-07
-1.5475e-08 -2.59647e-08 -2.89169e-07
1.03065e-07 4.38638e-08 -2.45644e-07
7.63653e-08 1.37791e-07 2.10177e-07
1.06496e-07 1.09394e-07 -3.01143e-08
2.64225e-07 1.12976e-07 -4.58543e-09
-1.10189e-07 2.14866e-07 -1.8766e-07
3.44449e-07 -3.1367e-08 2.69665e-08
-4.52498e-08 1.39762e-07 1.98191e-07
1.08069e-07 -3.3865e-08 5.9981e-07
5.94016e-08 1.75291e-07 7.80643e-07
4.60792e-08 3.67522e-08 5.8696e-07
-1.71687e-07 5.39803e-08 9.62062e-08
-1.40729e-07 1.15396e-07 -6.41655e-07
-2.75237e-09 3.55652e-08 -5.41546e-07
-1.31974e-07 -4.71444e-08 -3.32315e-07
3.80113e-08 1.5656e-08 6.94585e-07
7.96123e-08 1.71179e-08 6.79883e-07
-5.95738e-08 -1.57664e-07 8.78747e-07
8.44878e-08 1.37597e-07 -5.28754e-08
-6.07611e-08 -6.83853e-08 -2.43866e-08
1.17105e-07 -2.24925e-08 -5.5798e-07
1.08049e-07 -1.42377e-07 -3.93264e-08
1.01073e-07 -2.1782e-07 1.36181e-07
1.14079e-07 5.39091e-08 5.71688e-07
3.72005e-07 1.56176e-08 6.23267e-07
9.55186e-08 -5.28481e-08 2.94329e-07
1.52694e-07 9.11066e-08 -1.01009e-07
4.9918e-08 -4.93153e-08 -4.48433e-07
1.89401e-07 -2.98122e-08 -1.41e-07
-7.00119e-08 -2.4244e-09 5.7265e-08
1.13413e-07 -3.21887e-08 5.81944e-07
5.93738e-09 -9.62018e-08 3.05942e-07
-6.48543e-10 1.36265e-09 3.73679e-07
1.23894e-07 1.02305e-08 -8.31949e-08
1.61421e-07 1.65406e-07 2.47626e-07
1.11222e-07 -3.66717e-08 1.61146e-07
-8.44778e-08 1.82282e-07 3.09004e-07
7.578e-08 -1.51183e-08 -1.77869e-07
-1.16963e-07 2.66498e-08 -2.69889e-07
-4.37048e-08 3.19881e-08 -5.22596e-07
8.47359e-08 7.14197e-08 2.41291e-07
-3.71543e-08 2.44345e-08 7.21764e-07
5.34017e-08 8.29335e-09 1.55464e-06
-7.88646e-08 -1.51685e-09 1.42685e-06
-7.02011e-08 -1.94328e-07 1.47162e-06
-8.11868e-08 -1.44004e-07 1.05529e-06
2.65326e-07 -2.42198e-07 1.2795e-06
3.34129e-08 -3.22211e-07 1.35435e-06
2.70189e-07 -5.24681e-08 1.60186e-06
2.13726e-07 -7.80431e-09 1.64852e-06
1.33198e-07 6.55946e-10 1.65112e-06
1.32229e-08 2.46227e-07 1.61592e-06
1.43708e-07 -5.94533e-08 1.78726e-06
-2.89434e-07 1.20469e-07 1.62545e-06
1.85838e-07 7.79617e-08 1.48443e-06
-1.10551e-07 -4.95374e-08 7.08355e-07
1.85582e-07 5.67451e-08 4.16793e-07
5.1298e-09 -4.18623e-08 1.60114e-07
1.48999e-07 -1.19028e-07 3.88682e-07
-5.75528e-08 4.09877e-08 2.24499e-07
1.24771e-07 -3.45163e-07 -1.51785e-07
-1.94541e-07 7.99906e-08 -4.82848e-07
-1.60027e-08 -3.07021e-07 -6.18356e-07
-2.02133e-07 1.54788e-07 -1.5179e-07
1.80471e-08 -2.15434e-07 -3.04047e-07
-3.0182e-07 1.65378e-07 -1.29552e-07
1.89407e-07 -7.22662e-08 -1.01991e-06
-2.86212e-07 -8.82638e-08 -1.03104e-06
6.92799e-08 1.77496e-07 -1.90001e-06
7.27929e-09 3.06474e-08 -1.30456e-06
-1.46216e-07 7.07804e-08 -1.49259e-06
-7.56103e-08 1.68146e-07 -3.83306e-07
-3.26601e-08 6.29608e-08 -8.39627e-07
1.95501e-09 -1.25004e-07 -5.54834e-07
1.45772e-07 1.31462e-07 -1.22843e-06
3.58899e-08 -7.07812e-08 -5.87308e-07
1.32806e-07 6.22415e-08 -4.1733e-07
-1.61147e-07 -1.2066e-07 1.49553e-07
-4.06521e-08 5.90141e-08 -4.31279e-07
-1.84128e-07 -2.53228e-07 -5.87973e-07
-4.36104e-09 -4.02033e-08 -1.05366e-06
3.77121e-08 -1.1094e-08 -5.7256e-07
4.81086e-08 -1.22747e-07 -4.46805e-07
9.92027e-08 8.61067e-08 1.4742e-07
1.24643e-07 1.0446e-07 3.97879e-07
1.14799e-07 -2.88838e-07 1.02324e-06
2.04185e-07 8.54233e-08 9.75925e-07
7.27051e-08 1.20573e-09 1.11885e-06
1.6216e-07 7.63948e-08 9.87964e-07
3.74052e-07 2.89923e-09 5.51641e-07
0 0 0
0 0 0
3.14737e-08 2.05978e-08 -4.3291e-07
6.63967e-08 -2.33346e-07 -2.5804e-07
3.03326e-07 1.30957e-07 -8.13909e-07
-1.72349e-08 1.00049e-07 -2.11734e-07
-6.93733e-08 -8.91851e-08 3.00058e-07
-7.16395e-08 1.95369e-07 1.05045e-06
-7.68954e-08 -2.68007e-07 2.02588e-07
8.41341e-08 9.62999e-08 -4.60097e-07
6.73347e-08 2.42945e-09 -1.45604e-06
-2.60526e-07 2.20111e-07 -8.29017e-07
-7.57094e-08 2.19844e-07 -1.141e-06
4.43236e-08 6.65233e-08 -1.06286e-06
-6.18668e-08 2.79444e-07 -1.90686e-06
7.18153e-08 -1.43783e-07 -2.22042e-06
1.6664e-07 -1.23772e-07 -3.05332e-06
6.1674e-08 1.7171e-07 -3.84154e-06
-1.04432e-07 1.25705e-07 -4.21388e-06
-5.54884e-08 1.64732e-07 -4.47104e-06
-4.05592e-08 1.10016e-08 -3.30038e-06
2.44094e-08 -2.28252e-07 -3.91278e-06
2.82376e-07 -2.47789e-07 -5.05956e-06
1.32786e-07 -3.03062e-07 -5.94806e-06
7.2713e-08 3.2118e-09 -6.15604e-06
-2.11163e-07 -2.69509e-07 -4.54465e-06
1.11317e-07 1.07757e-08 -4.89459e-06
-2.8642e-08 -1.53396e-07 -3.93519e-06
1.76493e-07 3.84864e-08 -5.04189e-06
7.16888e-08 -1.82084e-07 -3.49534e-06
3.05885e-07 7.22137e-08 -3.89759e-06
2.4758e-07 3.99495e-08 -1.64221e-06
1.06494e-07 1.10467e-07 -1.8535e-06
5.0754e-08 -9.00517e-08 9.81748e-07
1.33089e-07 -2.37361e-07 7.95342e-07
3.29842e-07 -8.73773e-08 2.49406e-06
6.68035e-08 -1.52694e-07 1.64975e-06
1.81308e-07 -2.35613e-07 3.17988e-06
-1.49022e-07 -3.45827e-07 3.57234e-06
-2.47236e-08 -4.12923e-08 4.41854e-06
-2.43972e-07 -3.33792e-07 4.40425e-06
-1.35824e-07 9.9485e-08 3.94015e-06
-1.87091e-07 -2.01487e-07 4.51875e-06
-1.84232e-07 -1.97506e-07 4.12424e-06
1.29085e-08 -3.17755e-07 4.03701e-06
1.34923e-07 -1.11178e-07 2.88923e-06
1.18396e-07 -1.77486e-07 2.10049e-06
6.84703e-08 -1.5718e-07 1.84481e-06
2.95223e-07 -8.50027e-08 1.95752e-06
-2.7014e-08 -1.74882e-07 2.06029e-06
8.74185e-08 -1.22478e-07 1.73999e-06
1.42813e-07 -2.25722e-07 1.57796e-06
4.88078e-08 -2.11223e-07 6.70111e-07
5.19141e-08 -2.83246e-08 6.53929e-07
1.74153e-07 -1.97271e-07 2.05768e-07
-8.74346e-08 -2.1179e-08 6.19735e-07
-3.23614e-08 -8.29705e-08 2.15805e-07
-1.04515e-07 -1.93618e-07 3.81325e-07
-1.63691e-07 -2.06294e-07 -8.35892e-07
-1.72013e-09 -5.58857e-08 -8.54972e-07
-1.04369e-07 -1.05286e-07 -9.47679e-07
-6.72968e-08 -1.16313e-07 -8.68156e-07
1.03922e-08 -1.47972e-07 -3.62771e-07
-6.54859e-08 2.34758e-07 -4.66037e-07
-1.86201e-07 -1.60504e-07 -5.02045e-07
-6.63207e-08 1.10018e-07 8.97973e-08
-1.31184e-07 -5.97914e-08 2.42368e-07
-3.94833e-08 -1.37388e-07 1.70047e-07
-2.5162e-07 -7.11464e-09 -2.25906e-07
-5.74242e-08 -2.82566e-07 -3.03966e-07
-1.23416e-08 -1.28603e-07 -1.03207e-07
-8.01329e-08 -2.58225e-07 3.3297e-07
2.34267e-07 -3.28717e-07 -5.15529e-08
2.21073e-07 -2.61374e-08 -3.87203e-07
1.03035e-07 -1.58166e-07 -3.43478e-07
3.34374e-08 -1.27916e-07 7.04452e-07
4.97179e-08 -6.01615e-08 1.34126e-06
6.12403e-08 -2.78871e-07 8.46231e-07
-1.21104e-07 6.91703e-08 2.98734e-07
-7.37077e-08 -2.47197e-08 -3.37859e-07
-2.51627e-07 3.33508e-08 2.02945e-07
4.15455e-09 6.69064e-08 -2.67312e-07
6.2612e-08 1.02184e-08 -2.26838e-07
2.75838e-08 9.25562e-08 -7.43074e-07
3.51938e-08 -9.34679e-08 -2.44299e-07
2.01093e-07 -1.14793e-08 -2.91659e-07
-2.25844e-08 9.23578e-08 4.29347e-07
8.33661e-08 -9.74288e-08 -1.23112e-07
-1.45033e-07 -2.75944e-08 -2.31986e-07
-3.8286e-08 -2.50568e-07 -3.80721e-07
4.77771e-08 3.09413e-08 1.32695e-07
-1.07813e-07 1.11319e-08 5.08409e-07
3.52085e-08 2.19289e-07 2.93864e-07
-7.8079e-09 9.26214e-08 1.2322e-07
-3.91527e-08 2.5607e-07 -9.34587e-08
-6.53565e-08 -9.48391e-09 1.8677e-07
9.36466e-08 -5.28871e-08 2.82351e-07
0 0 0
0 0 0
0 0 0
0 0 0
0 0 0
0 0 0
0 0 0
0 0 0
0 0 0
0 0 0
0 0 0
0 0 0
0 0 0
0 0 0
0 0 0
0 0 0
0 0 0
0 0 0
0 0 0
0 0 0
0 0 0
0 0 0
0 0 0
0 0 0
0 0 0
0 0 0
0 0 0
0 0 0
0 0 0
0 0 0
0 0 0
0 0 0
0 0 0
0 0 0
0 0 0
0 0 0
0 0 0
0 0 0
0 0 0
0 0 0
0 0 0
0 0 0
0 0 0
0 0 0
0 0 0
0 0 0
0 0 0
0 0 0
0 0 0
0 0 0
0 0 0
0 0 0
0 0 0
0 0 0
0 0 0
0 0 0
0 0 0
0 0 0
0 0 0
0 0 0
0 0 0
0 0 0
0 0 0
0 0 0
0 0 0
0 0 0
0 0 0
0 0 0
0 0 0
0 0 0
0 0 0
0 0 0
0 0 0
0 0 0
0 0 0
0 0 0
0 0 0
0 0 0
0 0 0
0 0 0
0 0 0
0 0 0
0 0 0
0 0 0
0 0 0
0 0 0
0 0 0
0 0 0
0 0 0
0 0 0
0 0 0
0 0 0
0 0 0
0 0 0
0 0 0
0 0 0
0 0 0
6.0827e-08 7.17003e-08 2.14688e-07
0 0 0
0 0 0
0 0 0
0 0 0
0 0 0
0 0 0
0 0 0
0 0 0
0 0 0
0 0 0
0 0 0
0 0 0
0 0 0
0 0 0
0 0 0
0 0 0
0 0 0
0 0 0
0 0 0
0 0 0
0 0 0
0 0 0
0 0 0
0 0 0
0 0 0
0 0 0
0 0 0
0 0 0
0 0 0
0 0 0
0 0 0
0 0 0
0 0 0
0 0 0
0 0 0
0 0 0
0 0 0
0 0 0
0 0 0
0 0 0
0 0 0
0 0 0
0 0 0
0 0 0
0 0 0
0 0 0
0 0 0
0 0 0
0 0 0
0 0 0
0 0 0
0 0 0
0 0 0
0 0 0
0 0 0
0 0 0
0 0 0
0 0 0
0 0 0
0 0 0
0 0 0
0 0 0
0 0 0
0 0 0
0 0 0
0 0 0
0 0 0
0 0 0
0 0 0
0 0 0
0 0 0
0 0 0
0 0 0
0 0 0
0 0 0
0 0 0
0 0 0
0 0 0
0 0 0
0 0 0
0 0 0
0 0 0
0 0 0
0 0 0
0 0 0
0 0 0
0 0 0
0 0 0
0 0 0
0 0 0
0 0 0
0 0 0
0 0 0
0 0 0
0 0 0
0 0 0
0 0 0
0 0 0
0 0 0
0 0 0
0 0 0
0 0 0
0 0 0
0 0 0
0 0 0
0 0 0
0 0 0
0 0 0
0 0 0
0 0 0
0 0 0
0 0 0
0 0 0
0 0 0
0 0 0
0 0 0
0 0 0
0 0 0
0 0 0
0 0 0
0 0 0
0 0 0
0 0 0
0 0 0
0 0 0
0 0 0
0 0 0
0 0 0
0 0 0
0 0 0
0 0 0
0 0 0
0 0 0
0 0 0
0 0 0
0 0 0
0 0 0
0 0 0
0 0 0
0 0 0
0 0 0
0 0 0
0 0 0
0 0 0
0 0 0
0 0 0
0 0 0
0 0 0
0 0 0
0 0 0
0 0 0
0 0 0
0 0 0
0 0 0
0 0 0
0 0 0
0 0 0
0 0 0
0 0 0
0 0 0
0 0 0
0 0 0
0 0 0
0 0 0
0 0 0
0 0 0
0 0 0
0 0 0
0 0 0
0 0 0
0 0 0
0 0 0
0 0 0
0 0 0
0 0 0
0 0 0
0 0 0
0 0 0
0 0 0
0 0 0
0 0 0
0 0 0
0 0 0
0 0 0
0 0 0
0 0 0
0 0 0
0 0 0
0 0 0
0 0 0
0 0 0
0 0 0
0 0 0
0 0 0
0 0 0
0 0 0
0 0 0
0 0 0
0 0 0
0 0 0
0 0 0
0 0 0
0 0 0
0 0 0
0 0 0
0 0 0
0 0 0
0 0 0
0 0 0
0 0 0
0 0 0
0 0 0
0 0 0
0 0 0
0 0 0
0 0 0
0 0 0
0 0 0
0 0 0
0 0 0
0 0 0
0 0 0
0 0 0
0 0 0
0 0 0
0 0 0
0 0 0
0 0 0
0 0 0
0 0 0
0 0 0
0 0 0
0 0 0
0 0 0
0 0 0
0 0 0
0 0 0
0 0 0
0 0 0
0 0 0
0 0 0
0 0 0
0 0 0
0 0 0
0 0 0
0 0 0
0 0 0
0 0 0
0 0 0
0 0 0
0 0 0
0 0 0
0 0 0
0 0 0
0 0 0
0 0 0
0 0 0
0 0 0
0 0 0
0 0 0
0 0 0
0 0 0
0 0 0
0 0 0
0 0 0
0 0 0
0 0 0
0 0 0
0 0 0
0 0 0
0 0 0
0 0 0
0 0 0
0 0 0
0 0 0
0 0 0
0 0 0
0 0 0
0 0 0
0 0 0
0 0 0
0 0 0
0 0 0
0 0 0
0 0 0
0 0 0
0 0 0
0 0 0
0 0 0
0 0 0
0 0 0
0 0 0
0 0 0
0 0 0
0 0 0
0 0 0
0 0 0
0 0 0
0 0 0
0 0 0
0 0 0
0 0 0
0 0 0
0 0 0
0 0 0
0 0 0
0 0 0
0 0 0
0 0 0
0 0 0
0 0 0
0 0 0
0 0 0
0 0 0
0 0 0
0 0 0
0 0 0
0 0 0
0 0 0
0 0 0
0 0 0
0 0 0
0 0 0
0 0 0
0 0 0
0 0 0
0 0 0
0 0 0
0 0 0
0 0 0
0 0 0
0 0 0
0 0 0
0 0 0
0 0 0
0 0 0
0 0 0
0 0 0
0 0 0
0 0 0
0 0 0
0 0 0
0 0 0
0 0 0
0 0 0
0 0 0
0 0 0
0 0 0
0 0 0
0 0 0
0 0 0
0 0 0
0 0 0
0 0 0
0 0 0
0 0 0
0 0 0
0 0 0
0 0 0
0 0 0
0 0 0
0 0 0
0 0 0
0 0 0
0 0 0
0 0 0
0 0 0
0 0 0
0 0 0
0 0 0
0 0 0
0 0 0
0 0 0
0 0 0
0 0 0
0 0 0
0 0 0
0 0 0
0 0 0
0 0 0
0 0 0
0 0 0
0 0 0
0 0 0
0 0 0
0 0 0
0 0 0
0 0 0
0 0 0
0 0 0
0 0 0
0 0 0
0 0 0
0 0 0
0 0 0
0 0 0
0 0 0
0 0 0
0 0 0
0 0 0
0 0 0
0 0 0
0 0 0
0 0 0
0 0 0
0 0 0
0 0 0
0 0 0
0 0 0
0 0 0
0 0 0
0 0 0
0 0 0
0 0 0
0 0 0
0 0 0
0 0 0
0 0 0
0 0 0
0 0 0
0 0 0
0 0 0
0 0 0
0 0 0
0 0 0
0 0 0
0 0 0
0 0 0
0 0 0
0 0 0
0 0 0
0 0 0
0 0 0
0 0 0
0 0 0
0 0 0
0 0 0
0 0 0
0 0 0
0 0 0
0 0 0
0 0 0
0 0 0
0 0 0
0 0 0
0 0 0
0 0 0
0 0 0
0 0 0
0 0 0
0 0 0
0 0 0
0 0 0
0 0 0
0 0 0
0 0 0
0 0 0
0 0 0
0 0 0
0 0 0
0 0 0
0 0 0
0 0 0
0 0 0
0 0 0
0 0 0
0 0 0
0 0 0
0 0 0
0 0 0
0 0 0
0 0 0
0 0 0
0 0 0
0 0 0
0 0 0
0 0 0
0 0 0
0 0 0
0 0 0
0 0 0
0 0 0
0 0 0
0 0 0
0 0 0
0 0 0
0 0 0
0 0 0
0 0 0
0 0 0
0 0 0
0 0 0
0 0 0
0 0 0
0 0 0
0 0 0
0 0 0
0 0 0
0 0 0
0 0 0
0.0255053 -0.0184923 -0.000450024
0.0255053 -0.0184923 -0.000450024
0.0255053 -0.0184923 -0.000450024
0.0255053 -0.0184923 -0.000450024
0.0255053 -0.0184923 -0.000450024
0.0255053 -0.0184923 -0.000450024
0.0255053 -0.0184923 -0.000450024
0.0255053 -0.0184923 -0.000450024
0.0255053 -0.0184923 -0.000450024
0.0255053 -0.0184923 -0.000450024
0.0255053 -0.0184923 -0.000450024
0.0255053 -0.0184923 -0.000450024
0.0255053 -0.0184923 -0.000450024
0.0255053 -0.0184923 -0.000450024
0.0255053 -0.0184923 -0.000450024
0.0255053 -0.0184923 -0.000450024
0.0255053 -0.0184923 -0.000450024
0.0255053 -0.0184923 -0.000450024
0.0255053 -0.0184923 -0.000450024
0.0255053 -0.0184923 -0.000450024
0.0255053 -0.0184923 -0.000450024
0.0255053 -0.0184923 -0.000450024
0.0255053 -0.0184923 -0.000450024
0.0255053 -0.0184923 -0.000450024
0.0255053 -0.0184923 -0.000450024
0.0255053 -0.0184923 -0.000450024
0.0255053 -0.0184923 -0.000450024
0.0255053 -0.0184923 -0.000450024
0.0255053 -0.0184923 -0.000450024
0.0255053 -0.0184923 -0.000450024
0.0255053 -0.0184923 -0.000450024
0.0255053 -0.0184923 -0.000450024
0.0255053 -0.0184923 -0.000450024
0.0255053 -0.0184923 -0.000450024
0.0255053 -0.0184923 -0.000450024
0.0255053 -0.0184923 -0.000450024
0.0255053 -0.0184923 -0.000450024

VECTORS Acceleration float
0 0 0
0 0 0
0 0 0
0 0 0
0 0 0
0 0 0
0 0 0
0 0 0
0 0 0
0 0 0
60977.2 -5.6913e+06 -1.28833e+06
-1.82284e+06 8.7435e+06 987263
0 0 0
0 0 0
4.08477e+06 -729461 -1.09637e+06
0 0 0
0 0 0
-1.9251e+06 -1.649e+07 2.06798e+06
8.8152e+06 1.62089e+07 -5.3471e+06
1.07274e+07 -1.05367e+07 21212.8
0 0 0
0 0 0
-851839 -22465.7 -1.65322e+06
-1.22067e+07 1.42274e+06 -1.75966e+06
0 0 0
0 0 0
-4.39271e+06 6.33935e+06 1.6555e+06
7.4345e+06 6.74342e+06 -9.65448e+06
-1.51237e+07 -6.82653e+06 4.24967e+06
-1.02241e+07 3.76527e+06 -4.57401e+06
0 0 0
0 0 0
7.92495e+06 5.50478e+06 -484446
9.85498e+06 -5.93681e+06 -1.69408e+06
9.57304e+06 1.72484e+06 5.22068e+06
0 0 0
0 0 0
-4.33602e+06 -2.65135e+06 2.68271e+06
4.89599e+06 -4.84768e+06 717590
-4.82101e+06 -916420 3.9264e+06
1.23625e+07 -3.36142e+06 -1.91099e+06
9.98066e+06 4.91954e+06 5.52574e+06
0 0 0
0 0 0
-9.54451e+06 2.42462e+06 42306.8
-8.47667e+06 -6.5436e+06 -4.41982e+06
-1.57592e+07 1.89701e+06 6.17562e+06
-1.11304e+07 -6.28616e+06 -9.31981e+06
0 0 0
0 0 0
-5.5079e+06 2.58238e+06 1.6688e+06
7.06652e+06 -1.76177e+06 -9.11128e+06
-6.12585e+06 3.4747e+06 -3.05368e+06
7.2917e+06 -3.04641e+06 3.03395e+06
-1.40623e+07 7.04102e+06 5.9324e+06
-1.0246e+07 2.34388e+06 -5.69875e+06
0 0 0
0 0 0
3.52454e+06 -3.43065e+06 252490
5.75935e+06 4.55685e+06 -5.26262e+06
1.30625e+07 1.36872e+06 972264
2.1838e+07 6.35963e+06 -1.15393e+07
1.73771e+07 -2.803e+06 -675673
0 0 0
0 0 0
-5.75064e+06 4.01154e+06 1.47551e+06
1.33557e+07 4.66158e+06 -53579.8
-5.65596e+06 -3.60641e+06 2.94657e+06
4.33138e+06 -7.26368e+06 4.98484e+06
599962 -7.88644e+06 5.73537e+06
9.67588e+06 4.6492e+06 -7.24781e+06
7.34701e+06 -9.26376e+06 -2.16931e+06
0 0 0
0 0 0
-3.20506e+06 -2.15001e+06 1.08691e+06
-3.11348e+06 2.84553e+06 1.03412e+06
-8.92422e+06 -5.28819e+06 8.21667e+06
-1.41718e+07 7.40225e+06 -1.78466e+06
-1.55286e+07 -8.73018e+06 8.86505e+06
-1.79863e+07 -661170 4.50564e+06
0 0 0
0 0 0
-8.87183e+06 715910 887510
1.1173e+07 5.29192e+06 -1.24164e+07
-1.01711e+07 2.82766e+06 -6.8729e+06
2.66818e+06 9.40389e+06 2.66918e+06
-1.10877e+06 6.93923e+06 -8.38377e+06
1.16556e+07 3.9265e+06 -9.27532e+06
-2.22961e+07 929384 1.20589e+07
-2.3594e+07 919178 6.0998e+06
0 0 0
0 0 0
-2.64139e+06 -5.97353e+06 3.3218e+06
-2.18402e+06 8.02088e+06 -3.41753e+06
2.15257e+06 -1.19065e+07 4.29478e+06
8.44651e+06 6.18272e+06 -9.14931e+06
1.10881e+07 -4.67994e+06 1.07128e+06
2.28377e+07 2.01802e+06 -6.13478e+06
2.17775e+07 5.67706e+06 -2.81115e+06
0 0 0
0 0 0
3.96575e+06 5.57656e+06 2.97339e+06
1.45907e+07 3.03174e+06 1.76261e+06
-1.55033e+07 -4.98453e+06 1.16634e+06
2.13464e+06 -3.58631e+06 7.57831e+06
-1.14041e+07 -9.85184e+06 585878
1.17383e+07 -4.05913e+06 -4.37651e+06
-1.66508e+07 3.35491e+06 7.08533e+06
2.57781e+07 -3.0735e+06 -9.78254e+06
1.6752e+07 2.26811e+06 -6.5341e+06
0 0 0
0 0 0
-4.83868e+06 -3.58534e+06 -43994.2
-446157 1.88916e+07 260104
-4.89334e+06 -6.53177e+06 2.86137e+06
-5.2804e+06 7.54702e+06 -2.28382e+06
-1.17158e+07 -3.18234e+06 4.78809e+06
-1.36031e+07 609533 6.41008e+06
-2.26993e+07 517734 1.06579e+07
-2.26535e+07 -1.93497e+06 8.55278e+06
0 0 0
0 0 0
-1.49219e+06 -5.47853e+06 3.90571e+06
7.91783e+06 -1.06178e+06 -7.41393e+06
-1.29293e+07 2.00604e+06 -6.461e+06
1.27501e+07 3.58682e+06 1.18807e+07
-8.28347e+06 5.30862e+06 -7.65859e+06
1.73467e+07 1.07307e+06 -2.84393e+06
-1.88253e+07 -1.58146e+06 5.82141e+06
1.4646e+07 -5.6077e+06 -4.72247e+06
-1.73712e+07 857059 1.04678e+07
-1.11599e+07 3.68426e+06 9.90287e+06
0 0 0
0 0 0
2.09077e+06 -3.9727e+06 1.46046e+06
3.92891e+06 1.10749e+07 -2.34953e+06
-2.88817e+06 -1.13129e+07 -2.05148e+06
-2.00138e+06 3.50878e+06 -9.15616e+06
817664 -2.67783e+06 -4.77746e+06
4.11672e+06 -871985 -1.00605e+07
1.52032e+07 674567 -9.80423e+06
7.9232e+06 -497270 -1.89159e+07
1.42998e+07 5.05186e+06 -9.95556e+06
0 0 0
0 0 0
-1.08938e+06 164131 4.9094e+06
1.13202e+07 -4.94225e+06 2.49854e+06
-1.0766e+07 3.96672e+06 -5.07774e+06
1.47102e+07 4.47264e+06 7.94746e+06
-1.65743e+07 4.07472e+06 -6.22376e+06
1.71791e+07 2.4765e+06 -3.68439e+06
-1.73179e+07 1.11952e+07 -1.06218e+06
6.81157e+06 7.98514e+06 -8.52286e+06
-1.05519e+07 -1.47782e+06 4.48566e+06
-969835 2.04301e+06 -1.54907e+07
4.64931e+06 -1.22609e+06 -8.06527e+06
0 0 0
0 0 0
1.46587e+06 426496 630072
170196 1.74491e+06 1.23262e+06
4.425e+06 -4.22842e+06 1.29015e+06
1.28537e+07 1.77615e+06 -335111
1.51833e+07 2.79672e+06 5.24756e+06
4.857e+06 -2.18597e+06 4.4736e+06
3.75326e+06 -80432.6 1.15805e+07
1.12958e+06 331728 4.98502e+06
4.00654e+06 -821347 1.56958e+07
-3.63892e+06 -7.69504e+06 1.53877e+06
0 0 0
0 0 0
286586 2.25513e+06 7.95705e+06
7.2741e+06 -292515 -5.69145e+06
-6.81798e+06 3.66971e+06 -8.03522e+06
9.44472e+06 1.10734e+06 1.47979e+07
-1.72657e+07 -6.7778e+06 -6.06338e+06
2.14902e+07 -1.17269e+07 4.76696e+06
-1.25729e+07 -1.5953e+07 8.00412e+06
8.0736e+06 -1.3261e+07 4.15852e+06
-6.92726e+06 -6.16438e+06 1.26201e+07
1.42993e+07 187079 -4.75807e+06
-1.73121e+06 4.13679e+06 6.39594e+06
-3.59142e+06 -4.05667e+06 1.11023e+06
0 0 0
0 0 0
-485200 4.42618e+06 2.36389e+06
-8.63725e+06 -5.49834e+06 3.14425e+06
-8.01886e+06 5.56744e+06 -2.63121e+06
-1.67404e+07 2.2522e+06 3.28003e+06
-1.58955e+07 -2.25568e+06 -3.53413e+06
-1.35311e+07 -612087 3.47786e+06
-8.64376e+06 3.70294e+06 -7.52248e+06
-9.9254e+06 -173118 -2.51182e+06
-8.4673e+06 3.23139e+06 -3.19766e+06
3.08689e+06 -5.75746e+06 -1.89384e+06
-4.99834e+06 3.79249e+06 -5.43972e+06
0 0 0
0 0 0
5.37932e+06 1.85444e+06 6.54797e+06
2.51819e+06 -3.55073e+06 4.67495e+06
-8.99777e+06 -6.37554e+06 -8.46123e+06
1.5713e+07 -2.66173e+06 8.47032e+06
-1.85112e+07 -812329 -1.05951e+07
1.59602e+07 3.6905e+06 -371073
-1.02822e+07 1.20375e+07 -4.61441e+06
5.66502e+06 1.6888e+07 -4.96637e+06
-1.25883e+07 1.23741e+07 -595235
8.28488e+06 -349060 -3.55519e+06
-9.26981e+06 376531 3.48575e+06
-1.32818e+06 2.35659e+06 4.15803e+06
1.12308e+07 7.78459e+06 -2.33276e+06
0 0 0
0 0 0
4.95398e+06 4.66082e+06 -600117
5.25659e+06 -2.10914e+06 3.59557e+06
1.46745e+07 183761 -4.63618e+06
1.06883e+07 -1.07095e+06 7.07845e+06
1.60929e+07 -8.7493e+06 -426534
1.14371e+07 1.84647e+06 1.30987e+07
1.73595e+07 -3.77055e+06 5.42991e+06
6.85928e+06 -1.51662e+06 1.35034e+07
6.57151e+06 6.88303e+06 1.07805e+07
1.80902e+06 -8.20824e+06 1.12597e+07
-2.47511e+06 -2.15525e+06 3.81484e+06
-1.46418e+06 6.70091e+06 9.70132e+06
0 0 0
0 0 0
394363 -319285 6.05328e+06
2.02494e+06 7.45376e+06 -2.89618e+06
-1.14143e+07 8.07907e+06 -1.07219e+07
9.66855e+06 6.20797e+06 1.42561e+07
-1.0623e+07 -2.21407e+06 -1.23431e+07
1.45387e+07 -3.01381e+06 2.66979e+06
-1.07053e+07 -8.80423e+06 1.19881e+06
9.65178e+06 -1.67664e+07 2.69826e+06
-8.52789e+06 -3.45077e+06 2.4476e+06
8.31709e+06 3.33139e+06 -7.4819e+06
-1.38896e+07 -4.45259e+06 834701
9.65997e+06 -1.03773e+07 4.25119e+06
-8.76458e+06 36798.8 -1.20909e+06
-1.59319e+07 -1.01559e+07 8.89545e+06
0 0 0
0 0 0
2.50382e+06 -716024 50394.5
634077 -2.60142e+06 -1.15624e+06
-8.16521e+06 2.60418e+06 -8.54851e+06
-1.37815e+07 1.2974e+06 -2.54477e+06
-1.18486e+07 -7.47993e+06 -7.47873e+06
-1.56991e+07 7.14405e+06 -3.89565e+06
-1.38317e+07 -3.01723e+06 -1.01309e+07
-1.04715e+07 -890920 -1.45781e+07
-3.40915e+06 1.02904e+07 -6.5844e+06
8.98398e+06 -1.05016e+07 -1.53702e+07
1.24878e+07 2.75495e+06 -5.05138e+06
1.03562e+07 -2.1647e+06 -1.14287e+07
3.39404e+06 -3.99689e+06 -3.14087e+06
0 0 0
0 0 0
9.96784e+06 1.37204e+06 4.67269e+06
-1.9169e+06 -6.24672e+06 7.76096e+06
-2.6989e+06 -1.75846e+07 -2.84369e+06
-2.11904e+06 -5.8271e+06 1.25257e+07
-5.94211e+06 1.65085e+06 -6.16975e+06
7.96113e+06 6.85249e+06 3.2085e+06
-1.2973e+07 9.97073e+06 -931468
4.50261e+06 1.03135e+07 -4.7531e+06
-3.4331e+06 3.63056e+06 -1.67795e+06
1.56247e+07 -489364 -5.83507e+06
-1.46551e+07 4.43981e+06 1.06799e+07
2.12197e+07 7.08669e+06 -5.6721e+06
-2.38377e+07 1.41399e+07 520276
9.9105e+06 -7.33343e+06 -1.17604e+07
1.61704e+07 1.56868e+07 -1.19672e+07
0 0 0
0 0 0
6.75227e+06 2.35365e+06 -1.08122e+06
5.60198e+06 -2.46964e+06 1.50197e+06
4.36523e+06 451898 -5.55444e+06
7.94643e+06 3.99009e+06 1.17205e+06
4.69181e+06 -2.96769e+06 -1.86514e+06
1.92266e+07 7.14783e+06 873995
1.11689e+07 -5.65717e+06 3.06804e+06
5.70525e+06 -1.69438e+06 -1.42451e+06
-4.86704e+06 1.10971e+07 1.01733e+07
-7.42037e+06 -7.98335e+06 -664886
-1.4689e+07 4.11529e+06 9.34272e+06
-8.5823e+06 2.90186e+06 -2.94277e+06
2.17476e+06 4.81665e+06 8.28558e+06
6.62346e+06 -9.93375e+06 999230
0 0 0
0 0 0
1.28483e+07 2.0964e+06 1.70291e+06
-1.3662e+07 1.25036e+07 -5.01675e+06
251107 1.03273e+07 -8.39253e+06
-522379 9.7808e+06 1.2289e+07
2.04395e+06 -2.62542e+06 -8.39234e+06
5.62915e+06 -6.2921e+06 1.25418e+06
-1.15316e+06 -1.23561e+07 3.03569e+06
2.65709e+06 -7.41674e+06 764798
-1.09485e+07 3.62199e+06 2.82506e+06
1.12857e+07 -290201 -9.53114e+06
-2.09239e+07 -8.02141e+06 8.13862e+06
2.26233e+07 -8.72045e+06 4.12646e+06
-2.63366e+07 -1.13841e+07 1.39427e+07
2.03809e+07 -1.49539e+07 -1.41236e+07
-3.96806e+06 1.51025e+07 1.3839e+07
-9.23619e+06 -1.77903e+07 9.25469e+06
0 0 0
0 0 0
-1.12759e+07 -2.84228e+06 2.21081e+06
-1.38991e+07 1.64504e+06 6.91367e+06
-5.1053e+06 -2.77721e+06 97354.7
517273 488197 8.56284e+06
-3.73147e+06 -1.35287e+06 1.35892e+06
-8.80272e+06 9.89458e+06 6.02084e+06
-7.08897e+06 -956313 -1.50325e+06
4.2446e+06 -6.5151e+06 -3.65559e+06
8.44062e+06 9.50113e+06 593768
1.06271e+07 -6.54816e+06 -3.32215e+06
2.02267e+07 3.61084e+06 4.02988e+06
1.15194e+07 -4.24708e+06 -1.86025e+06
-379717 6.19474e+06 9.00994e+06
-6.24446e+06 -1.69155e+07 -581812
-208230 1.70942e+07 4.74535e+06
0 0 0
0 0 0
1.1783e+07 -1.33853e+06 531050
-1.02215e+07 -4.6176e+06 3.31155e+06
8.64924e+06 -5.80599e+06 -4.01303e+06
-4.38486e+06 -6.04785e+06 8.18979e+06
5.74322e+06 725790 -2.32668e+06
-8.3457e+06 4.68255e+06 262654
6.55251e+06 483052 855433
4.23685e+06 4.96458e+06 -7.41634e+06
-6.7492e+06 -2.77782e+06 2.60934e+06
8.50689e+06 434767 -1.01764e+07
-1.94965e+07 5.0838e+06 1.47193e+07
2.82161e+07 8.3408e+06 -1.05559e+07
-2.46473e+07 1.06771e+07 2.98073e+06
1.79852e+07 1.12957e+07 -2.13049e+07
-1.16692e+07 1.28741e+07 1.53182e+07
7.3991e+06 -1.2943e+07 -378282
1.34878e+07 1.05358e+07 -1.31655e+06
0 0 0
0 0 0
9.31858e+06 599760 -1.19034e+06
1.57484e+07 1.15024e+06 4.45357e+06
9.99401e+06 -1.31623e+06 -6.20653e+06
-1.16846e+06 5.16415e+06 3.40365e+06
4.11967e+06 -3.71303e+06 -6.26469e+06
8.9425e+06 -1.12682e+06 3.61709e+06
7.55521e+06 4.91249e+06 -3.60938e+06
5.41589e+06 -7.28483e+06 -616992
-9.41029e+06 7.97e+06 -4.01589e+06
-8.96985e+06 -1.5122e+06 -1.66162e+06
-1.68964e+07 5.35513e+06 -6.73582e+06
-9.62737e+06 -3.89242e+06 -8.12511e+06
-1.01163e+07 5.84495e+06 -8.24141e+06
-3.1788e+06 -1.82482e+07 -7.64412e+06
-6.61744e+06 1.66831e+07 -3.53115e+06
-9.65488e+06 -1.05915e+07 -133734
0 0 0
0 0 0
4.42545e+06 -7.57483e+06 -107402
-9.805e+06 -1.32929e+07 -6.35174e+06
5.75265e+06 -4.4854e+06 -1.07524e+07
-1.17501e+07 1.90034e+06 1.11329e+07
1.15145e+07 1.44574e+06 -3.69605e+06
-7.92474e+06 -674197 -727292
1.38167e+07 -2.38581e+06 1.69954e+06
-9.53115e+06 134962 1.47507e+06
-6.58839e+06 -5.38542e+06 5.03304e+06
1.20237e+07 -1.45482e+06 -1.10661e+07
-1.48426e+07 2.71443e+06 6.32311e+06
2.26702e+07 -2.27116e+06 -236978
-2.55811e+07 -7.99304e+06 1.17443e+07
2.08835e+07 -4.82613e+06 -1.82286e+07
-9.4485e+06 -2.11004e+06 8.1827e+06
9.84835e+06 -1.27319e+07 -2.10871e+06
-1.44877e+07 1.21537e+07 435374
-8.40204e+06 -1.44252e+07 2.34573e+06
0 0 0
0 0 0
-5.58136e+06 4.447e+06 618040
-8.41088e+06 -4.15947e+06 880353
-2.68463e+06 -3.08118e+06 -1.45949e+06
-1.52578e+06 -2.13464e+06 -478888
-2.43836e+06 212706 1.45938e+06
-9.10448e+06 -5.92817e+06 1.47171e+06
-1.18348e+07 2.88476e+06 4.32367e+06
-2.03276e+06 -9.07798e+06 -3.96193e+06
-1.67124e+06 2.90844e+06 7.39056e+06
420324 -6.0703e+06 28136.2
-5.28389e+06 -2.52344e+06 1.30019e+07
4.34515e+06 -344439 261338
1.31797e+06 8.53552e+06 1.68413e+07
7.23953e+06 -1.45392e+07 -5.49047e+06
1.06807e+07 1.18245e+07 6.9637e+06
1.37433e+07 -5.98237e+06 -8.65017e+06
1.27976e+07 1.05906e+07 641545
0 0 0
0 0 0
-1.03983e+06 1.2921e+07 1.1271e+06
-5.92873e+06 1.00998e+07 2.54115e+06
8.04664e+06 8.00106e+06 -7.42539e+06
-6.66633e+06 -489572 7.86335e+06
9.26129e+06 -1.08899e+07 2.03192e+06
-1.25807e+07 -6.93597e+06 -487597
1.73518e+07 -762090 -3.65636e+06
-8.76092e+06 7.78272e+06 -7.10402e+06
426817 3.40683e+06 745161
8.02189e+06 2.03748e+06 -6.86535e+06
-5.66229e+06 -1.57608e+06 1.02682e+07
1.40601e+07 -1.4147e+06 -6.76878e+06
-1.93327e+07 3.0212e+06 1.82796e+06
9.72967e+06 -3.3395e+06 -1.76565e+07
-8.35318e+06 4.05274e+06 1.32432e+07
1.49264e+07 1.46892e+07 2.06786e+06
-8.3414e+06 2.04167e+07 -3.0379e+06
1.54131e+07 -1.62955e+07 -8.76379e+06
4.54508e+06 2.11672e+07 -336846
0 0 0
0 0 0
3.29139e+06 5.36572e+06 -554732
8.23687e+06 -7.41343e+06 1.99187e+06
5.38249e+06 2.79683e+06 -2.9419e+06
5.42254e+06 838219 -506886
3.95424e+06 -2.41949e+06 -1.81208e+06
4.68086e+06 2.0488e+06 -540150
1.61454e+06 3.00828e+06 2.38397e+06
1.04454e+07 6.56317e+06 -2.60787e+06
8.79412e+06 -2.33673e+06 3.35079e+06
2.69647e+06 4.00346e+06 831249
9.80612e+06 2.09614e+06 2.5744e+06
6.3379e+06 -1.86869e+06 -6.48108e+06
-1.30099e+06 2.40724e+06 2.30716e+06
-8.13553e+06 -4.22224e+06 -8.31557e+06
-2.89002e+06 7.41456e+06 8.25776e+06
-1.18303e+07 -2.86653e+06 -63929.9
-1.36958e+07 6.60441e+06 1.10846e+07
-9.01238e+06 -8.38443e+06 2.97827e+06
0 0 0
0 0 0
274037 -1.00138e+06 2.66043e+06
-4.97543e+06 -758827 -4.66391e+06
2.23627e+06 -1.62155e+06 -1.23812e+07
-1.00228e+07 5.99281e+06 1.01881e+07
1.27526e+07 1.2511e+07 3.5592e+06
-1.12628e+07 1.42407e+07 -1.15676e+06
2.21516e+07 1.16614e+07 1.24963e+06
-2.52533e+07 -4.78331e+06 799652
8.42237e+06 -6.03036e+06 6.66159e+06
5.606e+06 8.2751e+06 -7.36499e+06
-9.57438e+06 -3.75509e+06 4.46447e+06
1.5021e+07 -4.20322e+06 3.7576e+06
-1.38517e+07 416986 1.13709e+07
1.0826e+07 753422 -1.39056e+07
-7.70884e+06 -4.33265e+06 7.26406e+06
1.0703e+07 -1.61497e+07 1.00542e+06
-1.05829e+07 -2.54621e+07 1.63904e+06
1.54541e+07 -2.90285e+07 -8.34629e+06
-9.15556e+06 1.45771e+07 5.14459e+06
-1.42766e+07 -1.08542e+07 1.971e+06
0 0 0
0 0 0
1.07227e+06 7.56348e+06 -137891
-1.32221e+07 -8.73248e+06 4.41591e+06
-8.92192e+06 6.69361e+06 593635
-5.61768e+06 7.5552e+06 4.43783e+06
-2.91554e+06 -3.62776e+06 632534
-775471 1.57287e+06 4.87176e+06
396595 -9.18936e+06 808006
-1.42296e+07 7.37101e+06 -1.67845e+06
-1.11805e+07 -1.37385e+07 -1.47308e+06
-6.6983e+06 1.1057e+07 -946500
-5.56601e+06 -3.1073e+06 -663854
-7.13017e+06 -1.27082e+06 -1.91888e+06
4.42254e+06 -1.1495e+06 5.58043e+06
1.10238e+07 -1.45765e+06 -5.94675e+06
1.64454e+07 3.33159e+06 3.40294e+06
1.7311e+07 -5.66894e+06 -4.38412e+06
2.00823e+07 965280 -1.45655e+06
1.80851e+07 1.62287e+06 -4.25186e+06
9.64248e+06 5.63407e+06 -5.38307e+06
0 0 0
0 0 0
9.52021e+06 1.42721e+07 3.69619e+06
-1.08379e+07 5.28047e+06 6.28244e+06
4.973e+06 -2.92432e+06 -1.14451e+07
-1.03126e+07 -6.31233e+06 6.69672e+06
1.01409e+07 -1.39844e+07 5.18411e+06
-1.50789e+07 -1.19414e+07 254745
2.47482e+07 -2.19789e+06 -5.33646e+06
-2.66603e+07 -526873 -6.07133e+06
1.2135e+07 -2.67971e+06 -422437
2.4402e+06 -6.8972e+06 -1.45771e+06
-6.11132e+06 3.44728e+06 8.27692e+06
1.73607e+07 1.15852e+07 2.29366e+06
-2.39952e+07 3.75452e+06 3.73613e+06
1.00817e+07 5.00224e+06 -1.03961e+07
-7.28923e+06 9.1148e+06 1.39767e+07
1.70804e+07 1.88822e+07 1.07198e+07
-1.96758e+07 2.45675e+07 1.71713e+06
1.31724e+07 2.20038e+07 6.67485e+06
-1.17384e+07 1.75748e+07 8.99099e+06
7.80556e+06 -2.88172e+06 -5.40774e+06
1.39742e+07 7.56398e+06 -2.25228e+06
0 0 0
0 0 0
-581629 -2.60319e+06 1.28395e+06
-176094 -1.1968e+07 2.037e+06
4.52228e+06 7.80234e+06 -193443
3.49807e+06 -1.16897e+06 209875
780568 3.78797e+06 -840985
1.61194e+06 2.98087e+06 -352515
9.74215e+06 -5.05143e+06 171764
8.17656e+06 -207104 -4.59659e+06
1.61047e+07 -4.38851e+06 -2.18667e+06
1.26538e+07 9.90866e+06 -980154
5.83565e+06 -7.26822e+06 -3.39126e+06
-1.11688e+07 -5.55683e+06 -5.60841e+06
-1.33546e+07 1.3297e+06 -1.88934e+06
-2.0039e+07 1.67902e+06 -8.89432e+06
-2.83318e+07 1.60316e+06 4.71146e+06
-1.97788e+07 1.67367e+06 -4.66983e+06
-2.20379e+07 2.63724e+06 4.39559e+06
-2.1019e+07 -4.1422e+06 -2.91724e+06
-1.94807e+07 369956 -1.75997e+06
-1.4892e+07 -2.09123e+06 -1.9769e+06
0 0 0
0 0 0
1.19889e+07 -4.41598e+06 5.11379e+06
-2.22538e+07 -1.10327e+07 -1.70143e+06
1.63743e+07 -8.10436e+06 -1.79288e+07
-1.52487e+07 9.81054e+06 7.01242e+06
1.15134e+07 9.69987e+06 3.13252e+06
-3.65917e+06 1.61457e+07 -4.18174e+06
1.76956e+07 7.05474e+06 1.45356e+06
-1.59168e+07 693829 3.07331e+06
5.76072e+06 1.19225e+07 4.79669e+06
-811343 4.45423e+06 -5.82161e+06
-3.74314e+06 -3.42179e+06 -2.3901e+06
1.69662e+07 -7.86971e+06 4.35612e+06
-2.35775e+07 -3.11001e+06 372651
1.72146e+07 -4.69167e+06 -1.63042e+07
-9.88437e+06 -9.20374e+06 -4.96678e+06
1.01136e+07 -1.62401e+07 -2.15227e+06
-1.75101e+07 -1.93718e+07 -7.47024e+06
2.51606e+07 -1.88767e+07 -9.35842e+06
-2.04431e+07 -1.22893e+07 -4.28858e+06
1.22146e+07 -6.37139e+06 -6.54311e+06
-1.27278e+07 221265 2.16992e+06
-5.71863e+06 138106 -4.46593e+06
0 0 0
0 0 0
4.08996e+06 6.06212e+06 -1.3233e+06
8.62038e+06 -3.83029e+06 -1.08968e+06
6.50329e+06 1.00187e+07 -4.10198e+06
-418959 -1.22276e+06 -1.12522e+06
-3.49405e+06 4.97342e+06 -2.93584e+06
-3.59883e+06 -6.79973e+06 3.00999e+06
-6.01884e+06 -825963 -2.21306e+06
-3.47106e+06 -928814 -762902
-2.57149e+06 2.61563e+06 235921
-9.5774e+06 40387.2 5.69189e+06
1.99213e+06 -594382 2.65255e+06
1.41846e+07 -7.68734e+06 7.12674e+06
2.05821e+07 4.68835e+06 9.29323e+06
2.1436e+07 4.13254e+06 1.97856e+06
1.66173e+07 -809467 5.52462e+06
1.26047e+07 -1.52697e+06 -1.10721e+06
1.09284e+07 3.35684e+06 54523.7
1.14593e+07 -2.18772e+06 2.12447e+06
1.47957e+07 3.56816e+06 447901
7.93489e+06 -640005 6.24899e+06
-1.93333e+06 -689488 1.49748e+06
0 0 0
0 0 0
8.19595e+06 8.95866e+06 8.02901e+06
-1.98869e+07 1.21149e+07 1.03468e+07
2.45691e+07 -849996 -1.20543e+07
-1.30806e+07 -57662.6 7.19225e+06
1.3702e+07 -3.58091e+06 7.66994e+06
-1.12076e+07 -5.04585e+06 -2.02697e+06
8.95291e+06 -1.72495e+06 -2.48109e+06
-1.0831e+07 -1.72951e+06 -3.85209e+06
-5.82086e+06 -1.09222e+07 -2.88886e+06
5.77792e+06 -5.78257e+06 -62540.6
-6.49669e+06 5.96496e+06 2.93776e+06
1.73054e+07 806873 4.22351e+06
-2.27747e+07 4.34646e+06 -5.31074e+06
1.41582e+07 1.42706e+06 -9.34856e+06
-7.99295e+06 7.13812e+06 5.17921e+06
8.79515e+06 9.68724e+06 1.1808e+07
-1.32637e+07 9.70311e+06 -4.53675e+06
1.74473e+07 7.64912e+06 1.19816e+07
-1.98968e+07 9.44798e+06 3.61984e+06
1.50467e+07 1.8669e+06 1.16041e+06
-1.4024e+07 -4.63514e+06 -504440
-2.06168e+06 3.03152e+06 6.69066e+06
828268 -4.19839e+06 3.60012e+06
0 0 0
0 0 0
-2.50187e+06 -95827.1 -580296
-1.17792e+07 -3.42753e+06 -1.32452e+06
-4.17222e+06 2.99163e+06 -5.59607e+06
-8.3028e+06 -1.17824e+07 -211515
2.11624e+06 4.10773e+06 -6.60929e+06
-5.37383e+06 -9.96668e+06 -1.51399e+06
-7.01785e+06 6.37619e+06 -9.20218e+06
1.41955e+06 -1.79404e+06 -6.48629e+06
-5.04386e+06 3.82426e+06 -9.23255e+06
-292026 -5.0956e+06 -1.69892e+06
-6.85037e+06 885010 -1.24745e+07
-1.37077e+07 803939 -7.99487e+06
-1.26512e+07 -2.77393e+06 -1.10148e+07
-1.60656e+07 3.65305e+06 -1.06956e+07
-9.80721e+06 -3.47177e+06 -1.06754e+06
-6.53821e+06 941559 -6.42568e+06
-4.84502e+06 -2.62006e+06 1.35215e+06
-8.17104e+06 3.4585e+06 -3.91348e+06
-5.25266e+06 -6.87474e+06 -1.38882e+06
-1.20024e+06 -5.77446e+06 -1.54993e+06
4.68847e+06 2.35528e+06 373316
1.47547e+07 -428379 -3.41343e+06
0 0 0
0 0 0
8.46828e+06 -1.19288e+07 6.38819e+06
-1.14221e+07 -1.19276e+07 308101
8.51373e+06 -4.08483e+06 -1.76331e+07
-2.26321e+07 -3.77685e+06 7.46869e+06
1.73815e+07 -5.07988e+06 3.93877e+06
-3.01293e+06 1.94032e+06 -7.44278e+06
4.47261e+06 -6.2473e+06 5.47072e+06
-1.2711e+06 -3.00754e+06 4.08478e+06
-5.54049e+06 1.28376e+07 7.64825e+06
6.82812e+06 1.12454e+07 -2.67793e+06
-5.17636e+06 -1.65963e+06 -993498
1.25372e+07 -8.26247e+06 7.45071e+06
-1.85349e+07 -3.42063e+06 -1.02528e+06
2.69319e+07 89249.3 -9.47356e+06
-1.44805e+07 -4.4136e+06 -4.94696e+06
6.96004e+06 -9.56335e+06 1.86542e+06
-1.25767e+07 -1.18466e+07 -6.76327e+06
1.2762e+07 -1.06702e+07 -3.62702e+06
-1.06619e+07 -6.18816e+06 -6.36064e+06
1.56219e+07 -3.55456e+06 -5.23784e+06
-1.17216e+07 2.20221e+06 -5.85972e+06
3.57242e+06 5.24418e+06 4.53849e+06
1.23097e+07 -1.07186e+06 -3.64048e+06
4.30426e+06 564528 -5.08169e+06
0 0 0
0 0 0
2.73042e+06 2.05826e+06 460721
3.39488e+06 -7.09798e+06 1.73524e+06
9.6066e+06 5.28564e+06 2.40006e+06
1.06427e+07 -3.05384e+06 7.19804e+06
1.14064e+07 1.41731e+06 6.33982e+06
1.14129e+07 -8.6241e+06 1.11144e+07
8.44859e+06 1.26375e+07 8.09007e+06
1.33941e+07 -5.16257e+06 8.38466e+06
7.21108e+06 2.89382e+06 9.57157e+06
1.5955e+06 5.88834e+06 1.02631e+07
1.25943e+06 -919217 6.18888e+06
5.02211e+06 1.19358e+07 9.07038e+06
6.22532e+06 -9.54747e+06 1.03669e+07
1.08318e+07 1.02015e+07 4.07266e+06
1.27516e+07 -1.65951e+07 1.05293e+07
1.20927e+07 1.26537e+07 213185
9.87047e+06 -6.58436e+06 7.15106e+06
1.08824e+07 8.23493e+06 314117
5.19995e+06 -3.35267e+06 6.94722e+06
3.52584e+06 -2.75836e+06 258113
-57632.4 2.75947e+06 356631
-1.90992e+06 1.19507e+07 -2.42869e+06
-8.74245e+06 -1.22127e+07 524373
0 0 0
0 0 0
5.86157e+06 1.27583e+07 5.72427e+06
-309240 1.11265e+07 9.97351e+06
1.43288e+07 -321963 -1.31827e+07
-1.80543e+07 2.88139e+06 4.89215e+06
1.99455e+07 2.05829e+06 5.50733e+06
-2.17158e+06 -968002 -6.08929e+06
-4.76493e+06 370841 -2.47917e+06
-317564 148216 -9.30109e+06
-2.61935e+06 -8.84026e+06 -3.46927e+06
2.55577e+06 -7.61215e+06 -1.29579e+06
-7.78177e+06 -2.91882e+06 5.94012e+06
6.07336e+06 -2.33123e+06 5.10548e+06
-2.15908e+07 1.42597e+06 1.48061e+06
3.23487e+07 40313.7 -4.35895e+06
-2.32774e+07 5.05024e+06 1.0798e+07
1.32157e+07 8.55431e+06 1.28454e+07
-6.38536e+06 1.05167e+07 1.60602e+06
1.3192e+07 6.95765e+06 1.28911e+07
-1.7573e+07 9.2772e+06 5.74197e+06
1.54842e+07 2.36586e+06 -446767
-1.24871e+07 3.66766e+06 749440
7.53696e+06 3.4298e+06 -1.74054e+06
3.77208e+06 -1.53425e+06 17717.7
-6.84946e+06 1.45507e+07 -3.83638e+06
-1.18356e+06 1.1902e+06 -556165
0 0 0
0 0 0
432346 4.47979e+06 844452
-5.67507e+06 -2.41901e+06 405381
-5.61274e+06 3.6264e+06 -2.24521e+06
-1.49701e+07 3.54675e+06 3.49447e+06
-1.5926e+07 3.66806e+06 -1.63521e+06
-5.71918e+06 -3.4805e+06 2.0992e+06
-1.48766e+07 2.9189e+06 -3.23015e+06
-9.06835e+06 -6.05041e+06 -1.86989e+06
1.84941e+06 -513859 -4.85121e+06
4.26941e+06 -2805 1.01074e+06
8.51064e+06 -9.21062e+06 -8.25858e+06
1.08417e+06 1.08149e+07 -1.79377e+06
-2.9309e+06 -1.62698e+07 -6.83867e+06
-1.29951e+07 1.82454e+07 -2.81683e+06
-1.01323e+07 -1.43451e+07 3.2095e+06
-8.47881e+06 1.16375e+07 -2.51535e+06
-1.34534e+07 -9.1339e+06 2.6666e+06
-1.38515e+07 -1.15788e+06 -3.53977e+06
-7.7599e+06 -3.96269e+06 2.12064e+06
6.49248e+06 1.12978e+07 1.90877e+06
5.8407e+06 -1.71162e+07 3.6891e+06
-321163 2.38977e+07 5.21012e+06
8.45071e+06 -2.77846e+07 4.19324e+06
6.69695e+06 2.5945e+07 8.4016e+06
0 0 0
0 0 0
6.0726e+06 -1.10504e+07 3.96688e+06
280365 -4.01703e+06 1.8895e+06
-1.50613e+06 -8.70304e+06 -1.4897e+07
-1.63719e+07 439444 9.20832e+06
1.70817e+07 5.41998e+06 2.29014e+06
-1.78139e+06 4.52876e+06 -7.83874e+06
-3.41877e+06 -548828 6.10539e+06
-7.23138e+06 3.51521e+06 252807
-951743 8.63884e+06 6.50119e+06
8.0232e+06 5.67976e+06 -5.95511e+06
-1.2779e+07 -722400 -832466
1.26647e+07 804754 1.88328e+06
-1.32941e+07 5.0565e+06 461200
2.44341e+07 -2.08639e+06 -1.08173e+07
-2.50729e+07 -7.77866e+06 -3.31262e+06
1.39658e+07 -1.21896e+07 -2.04112e+06
-1.53775e+07 -1.56348e+07 -2.95464e+06
2.07414e+07 -1.26594e+07 -4.37023e+06
-2.14568e+07 -375740 -955010
1.92053e+07 477125 -1.33896e+06
-1.10471e+07 -7.7288e+06 793854
-3.0968e+06 -9.22084e+06 6.00314e+06
5.78766e+06 -1.69313e+07 2.11299e+06
2.26722e+06 -2.84569e+06 -1.33366e+06
1.86109e+06 -1.69812e+07 7.86212e+06
4.71474e+06 9.00278e+06 9.29129e+06
0 0 0
0 0 0
44678.4 4.47449e+06 -2.70202e+06
8.3094e+06 2.0459e+06 -949168
8.17302e+06 1.95099e+06 -5.68773e+06
1.03148e+07 638428 1.8232e+06
1.42165e+07 4.25635e+06 -4.7335e+06
8.85169e+06 -2.22257e+06 3.3399e+06
8.21929e+06 5.09713e+06 -3.48339e+06
1.14879e+06 -1.82705e+06 2.9668e+06
-7.70576e+06 2.60111e+06 -698974
-1.51147e+07 1.49974e+06 5.81647e+06
-1.25103e+07 -3.00255e+06 -4.23914e+06
-1.3211e+07 2.91597e+06 4.71824e+06
-2.11232e+06 -1.22826e+07 -1.90323e+06
41202.3 1.1637e+07 2.1756e+06
2.04661e+06 -5.26966e+06 -1.8608e+06
5.57995e+06 1.21366e+07 -5.41972e+06
1.75214e+06 -6.82681e+06 -6.29844e+06
3.98913e+06 8.12955e+06 -7.09426e+06
-3.46742e+06 -7.28747e+06 -1.38914e+06
-1.14938e+07 1.66858e+07 -2.4439e+06
-1.58443e+07 -2.02495e+07 -6.2617e+06
-1.14105e+07 2.61404e+07 -16266.8
-1.85753e+07 -2.70824e+07 -877943
-2.17232e+07 2.77378e+07 2.13425e+06
-1.49507e+07 -2.00649e+07 -1.36694e+06
0 0 0
0 0 0
1.14512e+07 2.1207e+07 2.8041e+06
-3.09592e+06 5.59278e+06 6.75888e+06
2.39746e+06 1.87275e+06 -1.07775e+07
-6.49406e+06 -33486 3.84793e+06
1.36633e+07 -9.99046e+06 4.72844e+06
-1.08813e+07 -1.32744e+07 -5.50847e+06
1.58749e+07 -9.89751e+06 3.06371e+06
-7.50268e+06 -4.03623e+06 -1.00765e+07
1.74904e+06 -8.62687e+06 370035
9.38064e+06 -5.20845e+06 -3.71379e+06
-1.70503e+07 -1.22971e+06 1.24165e+07
1.46531e+07 -1.11197e+06 -172549
-2.48905e+07 -2.13885e+06 4.87746e+06
2.73986e+07 2.64954e+06 -1.0878e+07
-2.14919e+07 1.27668e+07 9.63021e+06
2.05393e+07 1.63743e+07 -650892
-1.99559e+07 1.10392e+07 -1.97062e+06
2.81911e+07 1.04721e+07 1.22214e+06
-2.48396e+07 1.04253e+07 2.47394e+06
1.49948e+07 -84012.3 -7.14488e+06
-8.42327e+06 -704902 -2.12172e+06
-906592 8.60885e+06 -8.07602e+06
1.6294e+06 1.23806e+07 -3.27323e+06
-5.0455e+06 7.75716e+06 -5.6187e+06
5.29149e+06 -5.57832e+06 -389155
-1.54607e+07 1.18643e+07 86365.2
-1.49499e+07 -3.36873e+06 -6.81594e+06
0 0 0
0 0 0
-4.26324e+06 2.059e+06 885868
-4.41058e+06 -8.70123e+06 385046
-1.66656e+07 -523433 -2.1936e+06
-1.94616e+07 -3.20497e+06 2.8169e+06
-1.75546e+07 2.06928e+06 -859366
-1.60205e+07 -1.38056e+06 -2.01053e+06
-1.24513e+07 4.72328e+06 -4.30503e+06
1.64983e+06 3.1623e+06 -2.69418e+06
1.33952e+07 -143901 -2.55794e+06
1.1802e+07 -678222 4.66023e+06
1.65354e+07 742274 -4.85814e+06
1.28787e+07 -5.951e+06 1.9541e+06
6.91068e+06 4.86646e+06 -7.49982e+06
4.49711e+06 -4.9943e+06 1.03133e+06
-3.4503e+06 -4.07512e+06 1.7829e+06
-5.9921e+06 4.15704e+06 3.25481e+06
932713 -7.47565e+06 4.00912e+06
4.99866e+06 7.29581e+06 883036
1.00116e+07 -9.15954e+06 3.08438e+06
1.36694e+07 5.81263e+06 2.09535e+06
1.57468e+07 -7.31906e+06 -3.09354e+06
1.2614e+07 1.41912e+07 -1.02355e+06
2.80636e+07 -2.2552e+07 -9.44663e+06
2.58649e+07 1.80074e+07 -2.94938e+06
2.80438e+07 -1.64895e+07 -9.14529e+06
1.85926e+07 5.63634e+06 -3.00187e+06
0 0 0
0 0 0
-1.12852e+06 -1.31443e+07 462630
-969835 -1.60799e+07 -1.38915e+06
2.27181e+06 2.7795e+06 -1.05232e+07
-1.68416e+07 6.6513e+06 8.59199e+06
9.64045e+06 1.19374e+07 -2.12113e+06
-7.05835e+06 1.38684e+07 -9.00899e+06
1.18168e+07 9.31123e+06 9.43114e+06
-1.61617e+07 9.4515e+06 -1.08679e+06
-4.76658e+06 5.42771e+06 1.02344e+07
1.62031e+07 4.85889e+06 -8.77081e+06
-2.54861e+07 9.54382e+06 7.76275e+06
3.1599e+07 4.18385e+06 -631514
-2.73031e+07 5.0202e+06 7.25293e+06
2.55516e+07 -1.03387e+06 -1.04576e+07
-1.96806e+07 -2.61132e+06 3.63542e+06
1.71808e+07 -1.05802e+07 -5.66793e+06
-1.84087e+07 -1.02034e+07 -351103
2.81159e+07 -1.32015e+07 -7.04082e+06
-2.49435e+07 -6.87465e+06 -525607
8.38719e+06 5.6455e+06 -2.21571e+06
-4.84125e+06 -3.35881e+06 500001
7.01436e+06 -3.54059e+06 8.64216e+06
2.68756e+06 -9.88806e+06 1.98911e+06
-7.86791e+06 1.50333e+06 1.20882e+06
7.20819e+06 2.96956e+06 3.93877e+06
-1.15692e+07 -5.10625e+06 2.69079e+06
2.14213e+07 3.94527e+06 -1.2541e+07
2.12528e+07 -8.62925e+06 -1.39628e+06
0 0 0
0 0 0
7.5469e+06 6.08512e+06 -1.88696e+06
1.46059e+07 -4.1326e+06 -70557.3
1.99614e+07 8.26172e+06 -4.77857e+06
1.6688e+07 -1.10786e+07 695219
1.78475e+07 1.14991e+07 -1.3622e+06
2.21986e+07 -4.32372e+06 -254128
1.28896e+07 -3.86243e+06 -98728.3
-5.04964e+06 2.5153e+06 1.26234e+06
-8.50682e+06 -5.3829e+06 2.45997e+06
-7.44581e+06 1.85803e+06 5.12202e+06
-1.15731e+07 4.15357e+06 -1.46085e+06
-6.92908e+06 -7.56188e+06 3.68831e+06
-1.34565e+06 4.07726e+06 -3.08505e+06
350347 -8.57582e+06 -285275
6.18081e+06 9.53018e+06 -4.93012e+06
1.10755e+07 653027 -5.29751e+06
8.4525e+06 -9.5116e+06 -3.6913e+06
-6.42011e+06 7.97032e+06 -3.97751e+06
-4.73355e+06 -1.77811e+06 4.06503e+06
-1.25939e+07 -3.5277e+06 305527
-3.86841e+06 -4.09675e+06 -2.27119e+06
-2.25891e+07 6.94857e+06 3.19463e+06
-1.90074e+07 -9.23576e+06 3.01885e+06
-2.12866e+07 1.17087e+07 5.95808e+06
-1.86106e+07 -9.75926e+06 4.0104e+06
-2.81284e+07 8.38197e+06 4.98979e+06
-1.75601e+07 2.18536e+06 -479901
0 0 0
0 0 0
3.98944e+06 1.78381e+07 -254004
4.18349e+06 1.50345e+07 5.17996e+06
3.17232e+06 2.29346e+06 -3.85271e+06
-5.06285e+06 -6.63072e+06 6.46749e+06
1.51662e+07 -5.17691e+06 2.85895e+06
-6.92522e+06 -1.2714e+07 -536706
6.23894e+06 -1.03294e+07 6.25109e+06
-2.71753e+06 -1.10728e+07 -9.1919e+06
-1.26395e+07 -4.14788e+06 -1.95691e+06
2.50204e+07 -7.23161e+06 -9.00437e+06
-2.8163e+07 -4.46861e+06 1.24745e+07
2.62934e+07 -4.47414e+06 -4.34039e+06
-3.02087e+07 -8.8525e+06 5.61561e+06
2.15829e+07 -6.04537e+06 -9.79511e+06
-2.1722e+07 -1.26082e+06 1.49974e+07
2.0114e+07 8.58108e+06 2.03821e+06
-1.82897e+07 1.0383e+07 5.62788e+06
1.71033e+07 4.77622e+06 7.3142e+06
-2.03946e+07 -3.24041e+06 1.05712e+07
9.43306e+06 -944123 -3.10954e+06
-5.30411e+06 -3.075e+06 3.00308e+06
-321166 -5.02994e+06 -2.0478e+06
-12417 -3.21912e+06 2.32251e+06
-3.01025e+06 -101525 -1.2307e+06
9.16706e+06 1.37732e+06 512683
-1.79918e+07 3.84357e+06 -2.14912e+06
2.3468e+07 8.91556e+06 -4.57399e+06
-2.08875e+07 -566186 6.5829e+06
-1.29717e+07 1.08941e+07 1.43924e+06
0 0 0
0 0 0
-9.10193e+06 8.09075e+06 1.58079e+06
-1.87159e+07 -6.68087e+06 579032
-1.54014e+07 1.03056e+07 -329444
-1.08909e+07 -1.07981e+07 2.46837e+06
-1.16051e+07 9.29978e+06 5.99169e+06
-1.72393e+07 -9.66163e+06 -2.17905e+06
2.75356e+06 8.69216e+06 4.1296e+06
9.46419e+06 -5.70976e+06 -3.79768e+06
1.52247e+06 5.48286e+06 1.06201e+06
1.05629e+07 -596378 415057
4.50806e+06 9.39217e+06 1.85284e+06
616373 -7.23758e+06 3.32386e+06
-2.71077e+06 6.25737e+06 3.02897e+06
-2.45678e+06 -9.06904e+06 4.15342e+06
-9.14562e+06 7.76867e+06 8.93085e+06
-1.16828e+07 1.04176e+06 4.85584e+06
-5.00925e+06 -5.96522e+06 1.02728e+07
6.17061e+06 1.03037e+07 -1.74833e+06
5.05598e+06 -4.55702e+06 7.92225e+06
3.40231e+06 2.33907e+06 -2.6479e+06
9.57519e+06 1.42755e+06 4.60932e+06
1.1662e+07 1.20255e+06 -1.00931e+06
1.59272e+07 -17294.2 4.00386e+06
1.83745e+07 3.06489e+06 2.61076e+06
1.85366e+07 -1.18915e+07 6.91345e+06
1.94703e+07 7.72665e+06 4.50951e+06
2.53072e+07 1.55904e+06 2.69019e+06
2.15568e+07 1.01115e+06 3.24726e+06
0 0 0
0 0 0
4.44888e+06 -5.85698e+06 -2.63726e+06
-6.39206e+06 -6.96573e+06 -5.66201e+06
-5.46876e+06 -9.01152e+06 -8.7585e+06
-3.09339e+06 -894332 6.16826e+06
2.18472e+06 3.17983e+06 -1.10163e+07
4.81946e+06 6.1453e+06 -7.79023e+06
-2.59036e+06 1.22088e+07 2.89222e+06
4.13859e+06 3.22876e+06 -1.13157e+06
-2.40004e+07 3.85702e+06 1.17533e+06
2.34532e+07 2.83311e+06 -1.05963e+07
-1.97061e+07 1.7473e+06 283120
2.85045e+07 5.57402e+06 -2.09994e+06
-2.80567e+07 5.22366e+06 107819
2.93154e+07 8.78788e+06 -8.19202e+06
-1.98026e+07 8.34518e+06 -446593
1.43788e+07 -4.50816e+06 -3.56161e+06
-1.79392e+07 -9.6258e+06 -5.20239e+06
1.76416e+07 -5.68553e+06 -7.01859e+06
-1.14392e+07 2.62973e+06 -6.85252e+06
1.12478e+07 1.07022e+07 -6.66806e+06
-4.03396e+06 7.98619e+06 -4.8615e+06
1.57191e+06 6.17456e+06 7.42756e+06
1.66666e+06 9.6139e+06 1.65313e+06
1.84112e+06 1.03767e+07 1.30895e+06
3.13705e+06 2.37561e+06 3.44611e+06
-1.89221e+07 -7.82253e+06 1.61735e+06
2.61234e+07 -1.10765e+07 5.7253e+06
-1.98576e+07 -1.12674e+07 1.63689e+06
1.84889e+07 6.64784e+06 4.83575e+06
1.00237e+07 -1.26326e+07 6.35504e+06
0 0 0
0 0 0
4.52495e+06 1.59565e+06 -1.79006e+06
1.63592e+07 -2.21686e+06 1.62023e+06
1.65004e+07 1.09855e+06 -3.11674e+06
2.93136e+06 -3.21057e+06 2.57206e+06
5.35431e+06 7.22921e+06 2.03358e+06
4.67387e+06 -1.0846e+07 502188
-6.43874e+06 1.12259e+07 2.00427e+06
-6.68368e+06 -9.57378e+06 1.49132e+06
-7.14408e+06 6.46467e+06 -1.42821e+06
-327460 -4.07333e+06 2.77087e+06
-2.95496e+06 5.31289e+06 -3.36686e+06
-4.91057e+06 -1.17516e+07 4.51643e+06
4.24011e+06 1.28658e+07 -303288
-23467 -1.11055e+07 4.28346e+06
-2.65658e+06 7.12579e+06 -2.97638e+06
2.15528e+06 8.05828e+06 -2.66461e+06
-3.38276e+06 -9.69841e+06 -744409
-4.81962e+06 1.58515e+07 -5.11977e+06
-6.01566e+06 -1.81395e+07 6.59551e+06
-1.19982e+06 9.05006e+06 -6.74712e+06
-6.45332e+06 -6.08241e+06 -1.40676e+06
-7.29728e+06 -2.60687e+06 -7.00059e+06
-1.3563e+07 4.84797e+06 650823
-1.19504e+07 3.37364e+06 -6.8527e+06
-1.46977e+07 -1.62036e+07 -1.32165e+06
-1.53913e+07 5.95568e+06 -7.24924e+06
-1.94437e+07 -788644 -4.82716e+06
-1.61053e+07 -2.7714e+06 -2.82975e+06
-1.62124e+07 4.65581e+06 -274505
0 0 0
0 0 0
8.63784e+06 6.26171e+06 1.04485e+06
-1.07475e+07 4.9891e+06 6.06761e+06
1.38984e+06 -912902 2.41745e+06
4.13859e+06 4.47628e+06 1.34081e+07
-6.96608e+06 3.84194e+06 3.13896e+06
1.31609e+07 -5.23515e+06 1.18521e+07
-9.78723e+06 -3.31447e+06 5.14148e+06
1.28496e+07 -1.13179e+06 4.05573e+06
-2.87371e+07 478417 -5.31749e+06
2.48114e+07 1.4216e+06 2.68647e+06
-1.82442e+07 2.58209e+06 7.89907e+06
2.24933e+07 3.37333e+06 7.02045e+06
-3.14886e+07 -3.4383e+06 -3.50206e+06
2.62877e+07 -1.11003e+07 -180570
-2.64052e+07 -1.10046e+07 3.90874e+06
1.6387e+07 1.46532e+06 9.38093e+06
-1.06782e+07 7.56491e+06 -5.09937e+06
1.26033e+07 2.94428e+06 1.46316e+07
-9.50186e+06 -1.92337e+06 3.13591e+06
615880 -1.25621e+07 352956
-6.98193e+06 -1.60522e+07 -4.1409e+06
9.74868e+06 -1.58278e+07 218443
-8.35537e+06 -1.86492e+07 -4.10808e+06
1.7505e+06 -1.24033e+07 278246
188234 -8.14778e+06 -6.25546e+06
-1.4505e+07 3.39072e+06 -2.87363e+06
1.65036e+07 4.54405e+06 -6.40363e+06
-1.32794e+07 7.14654e+06 -2.34867e+06
1.27019e+07 1.09291e+07 -1.23517e+06
-4.57275e+06 -4.32411e+06 -1.77136e+06
255308 9.26622e+06 230551
0 0 0
0 0 0
-4.13352e+06 4.86457e+06 615199
-4.91503e+06 7.9353e+06 -77341.8
-580678 -5.27848e+06 -827476
3.21012e+06 -1.11761e+06 1.27962e+06
-59001.6 -679186 2.68973e+06
-1.89399e+06 -6.44874e+06 -7.32793e+06
-1.38725e+06 4.97246e+06 -1.32777e+06
2.03429e+06 -7.14653e+06 -6.99778e+06
2.47027e+06 400470 -6.47079e+06
676601 875177 -3.24809e+06
162747 2.43982e+06 -4.39498e+06
2.14462e+06 -5.36829e+06 -1.539e+06
-1.04295e+06 5.92344e+06 -4.67868e+06
3.9673e+06 -1.58057e+07 -3.46945e+06
7.68962e+06 6.92373e+06 -3.03058e+06
275681 5.85711e+06 -1.86309e+06
4.19889e+06 -1.52918e+07 1.65312e+06
641950 1.69397e+07 -5.54906e+06
2.22999e+06 -1.69111e+07 3.61686e+06
4.00293e+06 1.59841e+07 -7.58834e+06
1.07535e+07 -8.99485e+06 3.31879e+06
7.56296e+06 569475 -5.8332e+06
-540932 -1.09154e+06 1.41666e+06
1.21972e+06 9.88536e+06 -3.50577e+06
4.24508e+06 -1.03493e+07 2.61699e+06
9.29648e+06 8.14863e+06 -180950
8.55594e+06 -4.12145e+06 1.25595e+06
5.26858e+06 584721 -534029
2.62812e+06 -2.55218e+06 3.03412e+06
184213 262608 4.54357e+06
0 0 0
0 0 0
5.66558e+06 -5.79969e+06 -1.85663e+06
-8.55932e+06 -6.89062e+06 -8.77122e+06
-1.0483e+06 -207236 -7.10281e+06
5.36449e+06 -1.00906e+06 5.1228e+06
-1.34939e+07 -4.05128e+06 -1.31934e+07
1.98782e+07 2.71438e+06 -5.51429e+06
-2.25282e+07 -3.23531e+06 -2.16311e+06
1.91179e+07 -8.06541e+06 3.16046e+06
-2.43584e+07 -3.14719e+06 527058
2.25806e+07 926358 -4.12248e+06
-1.60464e+07 -3.03052e+06 -175120
1.59161e+07 -2.74031e+06 6.32434e+06
-2.29968e+07 2.05985e+06 -322925
1.94767e+07 5.62909e+06 1.46219e+06
-1.13929e+07 5.95927e+06 -1.75019e+06
2.31252e+07 5.72162e+06 6.79631e+06
-1.22939e+07 2.20633e+06 -6.07186e+06
1.11277e+07 3.42048e+06 3.35718e+06
-1.32854e+07 1.39487e+07 -4.45548e+06
1.13512e+07 1.81495e+07 983640
-1.08115e+07 1.49538e+07 -3.0163e+06
8.2033e+06 1.42021e+07 1.04393e+07
-1.75257e+06 1.01153e+07 -792593
3.93255e+06 1.55245e+07 4.41718e+06
2.53771e+06 1.07642e+07 -2.11051e+06
-1.2681e+07 -254212 3.09879e+06
1.53372e+07 -6.3693e+06 2.18582e+06
-1.43766e+07 -9.51613e+06 958927
7.00944e+06 -4.06959e+06 -1.49181e+06
-7.79337e+06 -4.15696e+06 872207
2.32912e+06 8.11786e+06 279241
7.33191e+06 -6.95382e+06 -2.58509e+06
0 0 0
0 0 0
1.97937e+06 -3.33088e+06 -697029
1.46555e+06 3.15072e+06 147635
-6.94534e+06 -8.31194e+06 -3.67175e+06
-1.52489e+07 1.66384e+06 354078
-1.43465e+06 -554064 266157
2.09465e+06 543252 -1.44444e+06
7.68836e+06 9.8103e+06 4.19928e+06
5.45015e+06 -1.05683e+07 6.09475e+06
1.51427e+06 7.14134e+06 2.63703e+06
-4.62326e+06 -1.47889e+06 7.72048e+06
-6.75395e+06 -3.05978e+06 -158854
-1.10608e+07 5.34384e+06 4.07038e+06
-1.12078e+07 4.14818e+06 -1.68478e+06
-1.09271e+06 -2.60095e+06 3.66866e+06
1.97142e+06 5.03897e+06 -6.44464e+06
-2.96592e+06 -4.58517e+06 -327275
2.72619e+06 1.29413e+06 -1.30172e+06
5.21575e+06 8.24273e+06 2.3664e+06
-3.70432e+06 -1.00933e+07 1.00619e+07
-1.0505e+07 6.20843e+06 407029
-1.08156e+07 -4.50566e+06 5.68918e+06
-3.66748e+06 2.15786e+06 2.92916e+06
7.79585e+06 -6.08828e+06 7.13633e+06
8.17696e+06 1.2482e+07 3.92404e+06
4.28064e+06 -1.80688e+07 3.4813e+06
3.15263e+06 1.58534e+07 2.81553e+06
-4.10994e+06 -1.03224e+07 -4.04296e+06
-6.72649e+06 3.30619e+06 -535602
4.62785e+06 -3.48685e+06 -6.26253e+06
-4.38738e+06 -596253 -3.87277e+06
-4.19381e+06 4.07174e+06 -7.40552e+06
0 0 0
0 0 0
4.64055e+06 3.07006e+06 638711
4.86461e+06 4.20567e+06 1.73101e+06
-5.4178e+06 3.82762e+06 641563
9.21228e+06 806782 5.68049e+06
-1.18911e+07 1.26762e+06 -11186.6
2.24119e+07 3.00087e+06 4.91381e+06
-2.21125e+07 3.68596e+06 -1.13983e+06
2.17973e+07 1.00326e+07 -3.99662e+06
-2.22855e+07 6.84547e+06 -6.63825e+06
1.43715e+07 415475 -5.99324e+06
-7.29687e+06 -1.39123e+06 4.84077e+06
1.79439e+07 -1.65856e+06 -2.19796e+06
-1.97843e+07 994084 -3.65977e+06
1.19515e+07 -1.92542e+06 -8.89512e+06
-1.17073e+07 -1.93788e+06 -1.35238e+06
1.25585e+07 -4.53936e+06 -592762
-1.48777e+07 -9.99566e+06 -9.38226e+06
1.37363e+07 -4.75508e+06 6.77922e+06
-1.27455e+07 -7.10123e+06 5.82794e+06
8.24983e+06 -1.68691e+07 -4.82418e+06
-1.12603e+07 -1.50026e+07 -1.8667e+06
7.04278e+06 272042 -6.42685e+06
-1.05594e+06 -8.63639e+06 -4.26986e+06
-2.84163e+06 -8.74504e+06 -556986
1.22065e+06 -1.2667e+07 -4.81907e+06
-1.24084e+07 -5.28662e+06 1.75998e+06
1.35184e+07 2.38049e+06 -3.45355e+06
-2.75803e+06 -3681.97 4.97171e+06
1.39714e+07 1.22784e+07 1.79529e+06
-1.13338e+07 2.67448e+06 1.06986e+07
1.11983e+07 1.85127e+06 3.06161e+06
-1.57758e+07 -2.64898e+06 284694
-1.51728e+07 3.12118e+06 7.73187e+06
0 0 0
0 0 0
-6.57688e+06 -6.07116e+06 1.08796e+06
-8.15793e+06 7.82923e+06 -1.52152e+06
-2.87574e+06 -7.88319e+06 -2.76369e+06
3.54597e+06 1.07198e+07 -621792
3.5091e+06 -2.03457e+06 586314
-1.74605e+06 -2.17657e+06 -6.41643e+06
-8.42763e+06 5.30746e+06 1.02608e+06
-7.95088e+06 -1.42512e+07 -1.9211e+06
2.84288e+06 8.5045e+06 -3.95061e+06
5.67525e+06 175097 -364641
1.60932e+07 -2.99149e+06 14276.4
1.82775e+07 7.35197e+06 658412
1.74526e+07 2.61765e+06 33534.4
1.37218e+07 1.67143e+06 1.53892e+06
2.21575e+06 2.21607e+06 50851.8
8.00397e+06 -1.41126e+07 4.21717e+06
-3.81255e+06 7.96809e+06 1.40737e+06
1.40942e+06 -5.89666e+06 -1.44755e+06
2.53753e+06 2.18213e+06 -3.26194e+06
8.62677e+06 -727085 -1.1784e+07
9.60608e+06 -1.46438e+06 -6.15323e+06
2.13689e+06 3.80117e+06 -1.22609e+07
-5.25598e+06 -7.27095e+06 -9.61881e+06
-1.56227e+07 1.23777e+07 -8.98846e+06
-1.02719e+07 -1.64342e+07 -6.62386e+06
134554 1.44323e+07 -2.51581e+06
-1.09004e+06 -1.12803e+07 -3.23517e+06
3.79642e+06 2.5471e+06 -1.59263e+06
360446 -6.63202e+06 93142.2
-3.31487e+06 1.61246e+06 1.54638e+06
8.36637e+06 1.00305e+06 -5.36577e+06
1.21159e+07 -2.63662e+06 -6.55954e+06
0 0 0
0 0 0
-4.56752e+06 -1.02217e+06 -861856
5.12988e+06 -2.31969e+06 -9.3512e+06
-9.47211e+06 1.58884e+06 -3.8841e+06
2.63337e+06 -3.50314e+06 5.01135e+06
-1.20555e+07 -8.91782e+06 -5.94387e+06
6.76613e+06 -8.34528e+06 -662123
-1.76319e+07 -1.05166e+07 2.44004e+06
3.04018e+07 -3.16508e+06 4.42226e+06
-2.58024e+07 116034 7.21395e+06
1.51908e+07 3.31952e+06 -4.97194e+06
-1.11243e+07 -248208 360760
1.35241e+07 -6.86788e+06 -76727.7
-1.17774e+07 -2.22061e+06 5.11876e+06
1.44747e+07 1.64916e+06 -2.13317e+06
-1.0559e+07 5.73088e+06 -527177
1.03962e+07 1.11337e+06 1.58836e+06
-4.23381e+06 4.53006e+06 -5.62539e+06
1.39651e+07 1.96295e+06 -2.87638e+06
-1.90055e+07 5.39057e+06 -105805
7.58998e+06 1.36314e+07 -3.01318e+06
-4.28186e+06 6.12298e+06 2.70349e+06
6.74609e+06 6.30518e+06 4.61157e+06
-478041 1.49631e+06 -194492
2.17637e+06 1.0796e+07 1.59321e+06
-3.5751e+06 9.32452e+06 -2.7986e+06
-3.42167e+06 7.29434e+06 3.41976e+06
9.16173e+06 3.75802e+06 -2.86419e+06
-1.01069e+07 -2.06777e+06 -2.2082e+06
1.10209e+07 1.57078e+06 -5.6644e+06
-1.48048e+07 -2.81918e+06 -2.92093e+06
1.71745e+07 4.30824e+06 -1.0128e+07
-2.15936e+07 -1.91684e+06 -3.37689e+06
2.10481e+07 5.59779e+06 3.07115e+06
2.59071e+07 -9.50256e+06 -9.26033e+06
0 0 0
0 0 0
7.89507e+06 -8.34037e+06 -1.80582e+06
7.73933e+06 7.89646e+06 -3.14485e+06
6.54132e+06 -7.89271e+06 -3.5571e+06
4.52827e+06 1.08555e+07 -1.02739e+06
-1.00616e+07 -8.98668e+06 1.44286e+06
2.04986e+06 7.63957e+06 -3.1663e+06
5.62484e+06 -3.29993e+06 5.88104e+06
9.2312e+06 317401 2.24584e+06
4.49905e+06 -260925 -978076
-3.94585e+06 5.68461e+06 21443.8
-4.04253e+06 -1.13947e+07 -2.30858e+06
-1.05863e+07 3.58043e+06 -2.76934e+06
-1.41533e+07 -5.06804e+06 -1.40245e+06
-1.43793e+07 -2.96196e+06 2.59849e+06
-2.56888e+07 -1.57882e+06 -8.05991e+06
-1.22301e+07 -9.12625e+06 -1.15638e+06
-6.45518e+06 8.85152e+06 -5.57643e+06
-2.04477e+06 -4.7348e+06 4.47362e+06
-226876 645472 6.81428e+06
-1.98338e+06 1.93056e+06 2.03627e+06
-1.30715e+07 -8.29575e+06 6.17645e+06
-4.59399e+06 1.07976e+07 5.40806e+06
3.69582e+06 -9.66626e+06 7.97976e+06
8.08935e+06 7.60556e+06 8.15387e+06
9.95326e+06 -1.26464e+07 7.2946e+06
1.2161e+07 9.03802e+06 8.92809e+06
-2.39466e+06 -1.29096e+07 1.65704e+06
5.04656e+06 1.04017e+07 6.13407e+06
5.60445e+06 -1.17195e+07 4.92821e+06
-3.09269e+06 8.60338e+06 4.68068e+06
-2.56528e+06 -2.55509e+06 -1.34338e+06
-9.28586e+06 -4.30196e+06 1.03974e+06
-2.03044e+07 1.52965e+06 6.45452e+06
0 0 0
0 0 0
-4.08748e+06 5.22458e+06 2.17507e+06
9.00032e+06 728987 2.88675e+06
-3.26499e+06 -569451 3.24115e+06
2.69649e+06 3.83817e+06 4.23947e+06
-1.32214e+07 3.87546e+06 2.10676e+06
1.65689e+07 4.52321e+06 4.54772e+06
-1.52709e+07 1.27478e+07 -3.23633e+06
2.01422e+07 5.97426e+06 -6.3396e+06
-2.98175e+07 -924510 -6.3462e+06
1.72676e+07 1.07412e+06 -5.13022e+06
-1.31554e+07 -2.63751e+06 4.16968e+06
1.70761e+07 3.15137e+06 -661520
-9.47503e+06 2.37654e+06 3.99686e+06
1.24413e+07 -4.88389e+06 380516
-5.12513e+06 1.58893e+06 5.95227e+06
3.3839e+06 168273 7.57247e+06
-7.22631e+06 -4.8524e+06 -2.91641e+06
9.48402e+06 -6.45941e+06 1.28213e+07
-1.3479e+07 -8.30429e+06 1.31961e+07
2.11673e+07 -8.73963e+06 331412
-1.43149e+07 -3.60989e+06 5.59506e+06
5.27224e+06 -6.33252e+06 -4.86529e+06
-7.22962e+06 -1.32757e+06 -2.59147e+06
5.40079e+06 -3.08807e+06 866.121
-1.47377e+06 -1.06414e+07 -1.10626e+06
-6.53254e+06 -4.03999e+06 5.53303e+06
9.98042e+06 -4.42729e+06 -4.81808e+06
-1.30731e+07 -5.04937e+06 1.64082e+06
2.01538e+07 2.53702e+06 2.8583e+06
-2.31519e+07 711647 5.67376e+06
2.04541e+07 -225986 2.99982e+06
-2.25919e+07 1.96809e+06 4.15791e+06
2.70064e+07 3.05666e+06 7.07803e+06
-3.00978e+07 -755288 -6.78171e+06
-3.0045e+07 5.16015e+06 314859
0 0 0
0 0 0
-1.09259e+07 -1.1712e+07 519376
-8.59157e+06 1.26e+07 -226771
-7.69105e+06 -1.18448e+07 3.151e+06
-739347 1.21313e+07 6.07149e+06
5.95691e+06 -1.01142e+07 6.47308e+06
4.66966e+06 1.47755e+07 -1.44642e+06
617032 -1.30647e+07 3.76776e+06
-1.01278e+07 1.39107e+07 -258137
-8.59631e+06 -1.44956e+07 -4.79447e+06
-7.85915e+06 2.18696e+07 158160
-5.80878e+06 -1.6991e+07 1.76465e+06
-234419 9.9082e+06 2.97865e+06
-355368 -2.00987e+06 1.45493e+06
8.26295e+06 4.33558e+06 5.55342e+06
1.28449e+07 -5.18442e+06 -672631
1.06439e+07 6.65892e+06 8.06106e+06
8.4633e+06 -1.25569e+06 -2.67236e+06
-3.47291e+06 -1.21368e+06 5.81734e+06
-16407.6 -1.12222e+06 -3.06468e+06
-171470 5.48338e+06 1.19223e+06
6.15863e+06 -9.75448e+06 1.13442e+06
4.37537e+06 1.51395e+07 2.58677e+06
-379582 -1.40804e+07 -3.17758e+06
-8.97774e+06 1.16862e+07 3.23672e+06
-1.81475e+07 -6.79572e+06 -4.33429e+06
-1.80688e+07 1.19516e+07 6.54405e+06
-1.33854e+07 -1.62043e+07 -3.95776e+06
-1.99393e+06 2.25045e+07 3.53415e+06
-9.28649e+06 -2.01957e+07 -1.10971e+06
-2.56212e+06 1.60238e+07 6.47011e+06
-1.17786e+06 -8.96948e+06 -7.13392e+06
3.21756e+06 6.77568e+06 -1.84035e+06
1.98219e+07 -1.01251e+07 597701
2.87459e+07 1.23296e+07 -2.77531e+06
0 0 0
0 0 0
-1.03402e+07 -4.07044e+06 -543718
8.30008e+06 -5.13965e+06 -1.03835e+07
-5.40576e+06 -2.4753e+06 -3.2316e+06
3.1576e+06 -1.37457e+07 1.54142e+06
-7.48687e+06 -4.29062e+06 -5.87282e+06
1.69521e+07 -8.22268e+06 -561724
-1.38357e+07 -1.61311e+07 672880
2.77241e+07 -1.14965e+07 3.39371e+06
-2.41905e+07 2.41045e+06 6.5569e+06
1.95939e+07 4.72607e+06 -3.52415e+06
-2.12891e+07 375626 -3.34929e+06
2.55856e+07 5.78722e+06 -4.34146e+06
-2.66317e+07 8.3742e+06 -68116
1.56375e+07 3.62011e+06 -5.32783e+06
-5.37567e+06 1.6185e+06 -7.87342e+06
-3.94068e+06 -3.64451e+06 -1.99262e+06
2.00066e+06 802476 -1.35813e+07
2.86857e+06 2.99862e+06 -7.34513e+06
-1.0601e+07 8.0276e+06 -8.50728e+06
1.94514e+07 1.13391e+07 -5.91592e+06
-1.51877e+07 4.6132e+06 623255
8.46682e+06 1.62327e+06 2.18911e+06
-2.85906e+06 3.6345e+06 -2.97093e+06
5.77918e+06 9.06494e+06 50161.5
-2.05751e+06 6.46487e+06 -1.46211e+06
-7.23571e+06 1.023e+06 8.86874e+06
6.03399e+06 -3.95102e+06 -480085
-9.54296e+06 -3.01453e+06 -1.97326e+06
1.33578e+07 -998412 3.45236e+06
-1.83372e+07 -2.0891e+06 -692483
1.71781e+07 -413749 773130
-2.07549e+07 -3.54436e+06 -2.04681e+06
3.17645e+07 -5.37933e+06 1.10316e+06
-3.58109e+07 2.56646e+06 -6.90134e+06
2.99533e+07 -1.04804e+07 4.71691e+06
2.27478e+07 5.24038e+06 6.06551e+06
0 0 0
0 0 0
4.95417e+06 -1.29662e+07 -2.89482e+06
5.47333e+06 1.08567e+07 -4.06658e+06
7.18676e+06 -9.59745e+06 -6.81307e+06
6.74578e+06 1.43423e+07 -1.18003e+06
-3.82274e+06 -1.4107e+07 -5.96778e+06
-9.84735e+06 1.03467e+07 -4.87501e+06
-1.10169e+07 -2.65201e+07 -2.32781e+06
-1.50709e+06 2.57768e+07 -471828
429439 -2.97719e+07 -4.3914e+06
4.42388e+06 2.36142e+07 715002
5.56092e+06 -1.96753e+07 720228
3.87429e+06 6.80235e+06 -1.47875e+06
3.2433e+06 -2.29554e+06 3.22499e+06
-4.46235e+06 3.55944e+06 6.86548e+06
-4.66891e+06 -8.45215e+06 -1.84037e+06
-4.8155e+06 8.37473e+06 594095
-7.873e+06 -1.37713e+07 -4.23575e+06
-3.88399e+06 4.19711e+06 3.40663e+06
1.47969e+06 -4.93325e+06 4.4593e+06
6.7001e+06 2.82854e+06 -1.69592e+06
5.64672e+06 -5.4507e+06 3.10468e+06
283361 1.56665e+07 -2.02237e+06
1.12622e+07 -1.39464e+07 2.19003e+06
1.1595e+07 1.15808e+07 -2.57683e+06
1.48222e+07 -7.43949e+06 -2.87124e+06
2.20626e+07 1.2789e+07 -4.10767e+06
1.69572e+07 -1.74486e+07 -9.21794e+06
1.22316e+07 2.32438e+07 -5.48745e+06
1.01664e+07 -2.51553e+07 2.3391e+06
9.04116e+06 2.04382e+07 1.30324e+06
-3.15078e+06 -2.41515e+07 2.87824e+06
-7.65926e+06 1.18699e+07 2.75347e+06
-1.57113e+07 -1.50074e+07 1.04712e+07
-2.72193e+07 1.96147e+07 -4.08278e+06
-2.88656e+07 -1.49087e+07 967582
0 0 0
0 0 0
-8.08989e+06 4.35285e+06 4.09911e+06
1.39017e+07 5.7183e+06 6.44722e+06
-1.18975e+07 1.48321e+07 7.95206e+06
892856 9.80039e+06 4.40403e+06
558365 1.30549e+07 5.88392e+06
8.5336e+06 1.40057e+07 7.16762e+06
-1.18064e+07 1.70967e+07 930510
1.84244e+07 7.74127e+06 -2.63183e+06
-2.92278e+07 -3.32586e+06 -1.48367e+06
2.31738e+07 -7.0127e+06 1.63352e+06
-2.67141e+07 -4.25642e+06 8.74078e+06
2.6762e+07 -5.54038e+06 3.75478e+06
-2.17272e+07 -1.02893e+07 6.81323e+06
2.04605e+07 -7.64973e+06 4.84369e+06
-1.53679e+07 -1.03566e+07 6.96969e+06
842563 -166660 1.13711e+07
2.18692e+06 6.00384e+06 -3.82458e+06
-354452 2.75612e+06 1.4168e+07
-8.49616e+06 -8.0919e+06 7.47678e+06
9.28174e+06 -1.78773e+07 1.69287e+06
-1.66349e+07 -1.04792e+07 898339
8.13165e+06 -7.77903e+06 -3.75513e+06
-1.54978e+06 -8.62024e+06 -7.09771e+06
7.21642e+06 -1.32365e+07 -2.41483e+06
1.76442e+06 -1.01982e+07 -6.08605e+06
-330029 4.09764e+06 5.24583e+06
-5.83484e+06 6.64978e+06 -1.17851e+07
2.06182e+06 8.31234e+06 -6.21126e+06
8.05838e+06 7.68233e+06 -3.70376e+06
-1.26264e+07 4.42457e+06 -2.64965e+06
1.82527e+07 4.70781e+06 -2.07346e+06
-1.89851e+07 1.13682e+07 -338912
2.32205e+07 8.4652e+06 2.10226e+06
-2.65588e+07 -3.58267e+06 -1.3944e+06
1.88668e+07 -1.211e+06 1.08853e+06
-1.50862e+07 6.67638e+06 -9.57062e+06
-1.84873e+07 -6.23867e+06 -2.15445e+06
0 0 0
0 0 0
2.87914e+06 -9.82651e+06 2.1714e+06
-2.48528e+06 1.38771e+07 1.99421e+06
-3.45641e+06 -1.34038e+07 3.53035e+06
-609012 1.36666e+07 8.04633e+06
-5.10896e+06 -1.80112e+07 1.8211e+06
6.94443e+06 1.90118e+07 2.65567e+06
1.47097e+07 -2.06346e+07 1.8051e+06
7.40019e+06 3.77927e+07 6.22618e+06
-1.65998e+06 -3.63747e+07 -3.83704e+06
-1.54793e+06 3.45775e+07 1.33421e+06
808960 -1.50788e+07 -1.88206e+06
-788998 -1.45688e+06 -2.83265e+06
-1.61445e+06 2.48568e+06 -3.99021e+06
-631606 351227 -996921
676655 -6.48783e+06 -1.44585e+06
334876 1.70118e+07 606498
5.65332e+06 -1.02764e+07 -1.80772e+06
6.96178e+06 9.63081e+06 -3.10415e+06
-2.60589e+06 1.45184e+06 -4.70461e+06
-8.86146e+06 1.1694e+06 -9.27647e+06
-8.59678e+06 -4.17998e+06 1.02007e+06
-1.19683e+07 9.03769e+06 -9.95133e+06
-1.73556e+07 -1.20223e+07 -3.19768e+06
-2.50402e+07 1.20258e+07 -8.95324e+06
-1.92545e+07 -7.97108e+06 -4.08696e+06
-2.89589e+07 8.65531e+06 -554695
-1.5175e+07 -1.46999e+07 1.37982e+06
-1.58939e+07 2.39113e+07 -1.35184e+06
-6.55662e+06 -1.62682e+07 3.82947e+06
-3.83034e+06 2.41045e+07 -157815
5.11298e+06 -2.22995e+07 -1.90106e+06
1.68195e+07 1.31461e+07 -6.58014e+06
2.24142e+07 -2.17016e+07 4.35e+06
2.59303e+07 2.63275e+07 -1.18128e+06
2.88947e+07 -1.76473e+07 9.97374e+06
2.47978e+07 1.72969e+07 1.08878e+07
0 0 0
0 0 0
-8.15411e+06 -8.18642e+06 -1.131e+06
7.2014e+06 -1.49834e+07 -1.08e+07
-6.74096e+06 -1.53352e+07 -2.83999e+06
4.01995e+06 -1.56243e+07 -4.95489e+06
5.40446e+06 -1.27626e+07 -6.96193e+06
-1.96527e+06 -1.89993e+07 -4.04797e+06
-3.36006e+06 -1.49793e+07 314389
1.10424e+07 -1.15885e+07 306760
-2.28553e+07 4.49879e+06 5.73244e+06
3.14284e+07 1.22703e+07 -4.19222e+06
-2.97136e+07 4.7478e+06 -4.87078e+06
2.63592e+07 1.02356e+07 -8.46384e+06
-2.68866e+07 8.90296e+06 -3.77143e+06
1.61712e+07 1.05192e+07 -9.19793e+06
-1.39924e+07 7.60971e+06 -9.22647e+06
1.84167e+07 4.1361e+06 -1.69931e+06
-2.20514e+06 -473388 -1.05847e+07
2.8854e+06 859638 -4.22202e+06
-1.11247e+07 1.61673e+07 -7.74664e+06
1.55753e+07 2.31822e+07 -269476
-1.03621e+07 1.74681e+07 3.81384e+06
1.19977e+07 1.3047e+07 7.39639e+06
-6.28079e+06 1.50998e+07 1.61529e+06
-7.51713e+06 7.33961e+06 3.2768e+06
3.44011e+06 3.75849e+06 -1.39442e+06
363634 -2.51648e+06 1.47766e+07
-1.05258e+07 -9.16169e+06 1.85993e+06
7.96364e+06 -1.00158e+07 3.8204e+06
3.4064e+06 -1.56517e+07 8.40987e+06
-8.58732e+06 -7.01097e+06 5.99366e+06
8.18153e+06 -9.03146e+06 4.84655e+06
-8.0639e+06 -1.02034e+07 4.50065e+06
2.0193e+07 -5.63353e+06 -1.32373e+06
-2.60746e+07 -198073 -851963
1.6714e+07 1.03276e+07 1.05484e+06
-1.69963e+07 5.03629e+06 -4.74425e+06
2.47287e+07 -9.60894e+06 7.63789e+06
2.77307e+07 1.80892e+06 7.08773e+06
0 0 0
0 0 0
-2.35906e+06 -1.69944e+07 -859148
-1.67308e+06 1.77537e+07 -3.15944e+06
-287723 -1.78725e+07 -3.65552e+06
4.34773e+06 2.35479e+07 -365785
9.25202e+06 -2.0106e+07 -3.25681e+06
4.43647e+06 2.06263e+07 -2.80694e+06
-7.47098e+06 -2.79027e+07 1.77974e+06
-1.35927e+07 3.49746e+07 1.56252e+06
-795193 -3.16262e+07 1.2802e+06
-2.60676e+06 3.14786e+07 -1.84418e+06
-1.91393e+06 -1.4326e+07 -175094
4.2233e+06 -1.34784e+06 -8.31482e+06
4.00815e+06 2.48553e+06 1.25492e+06
-908601 -4.34848e+06 1.78249e+06
-277426 -8.39516e+06 -1.70105e+06
-3.89377e+06 8.43668e+06 -2.14872e+06
-1.21871e+07 5.47885e+06 -2.33793e+06
-7.60102e+06 -3.12311e+06 4.1796e+06
-612192 1.17444e+07 4.40876e+06
9.58556e+06 1.78278e+06 790725
1.59099e+07 2.02369e+06 6.05475e+06
2.02943e+07 -2.99285e+06 5.22272e+06
2.8539e+07 -8.95816e+06 8.69718e+06
2.83925e+07 6.58236e+06 7.39056e+06
2.15604e+07 -8.9195e+06 2.34345e+06
1.53968e+07 -2.37002e+06 5.29212e+06
1.96309e+07 -1.71306e+06 -5.95522e+06
1.507e+07 1.01133e+07 -944222
5.33669e+06 -9.97891e+06 20041.7
-204180 1.99656e+07 -566768
-2.89902e+06 -1.55933e+07 -2.86104e+06
-6.96321e+06 1.87489e+07 -2.98456e+06
-1.13711e+07 -2.47739e+07 -2.77672e+06
-1.57073e+07 2.09575e+07 -9.27839e+06
-2.66216e+07 -2.07911e+07 -1.19079e+07
-2.52524e+07 1.81615e+07 -9.04562e+06
-2.98509e+07 -1.39925e+07 -8.65752e+06
0 0 0
0 0 0
657899 3.90778e+06 874748
2.71964e+06 1.75818e+07 3.97779e+06
-8.84719e+06 1.59263e+07 3.73787e+06
6.05752e+06 1.59731e+07 -4.14796e+06
1.29431e+06 1.82398e+07 2.3611e+06
2.05592e+06 1.89998e+07 432154
-6.35291e+06 1.39891e+07 154787
1.47915e+07 7.72423e+06 -5.69245e+06
-1.2859e+07 4.32774e+06 -67775.2
2.78632e+07 -7.80463e+06 -1.10477e+06
-2.96674e+07 -1.14596e+07 8.94905e+06
2.65779e+07 -1.0806e+07 -644518
-2.63788e+07 -1.2253e+07 7.95915e+06
1.64992e+07 -5.58001e+06 2.59343e+06
-1.68869e+07 -7.70882e+06 1.19188e+07
1.49676e+07 -3.8562e+06 8.32978e+06
-1.28548e+07 -8.89581e+06 2.56735e+06
8.69438e+06 -1.36621e+07 9.9598e+06
-9.45765e+06 -1.7449e+07 8.88478e+06
1.31586e+07 -2.02918e+07 -1.21093e+06
-9.01465e+06 -1.26453e+07 1.74969e+06
4.85822e+06 -1.60665e+07 -6.39444e+06
-8.09368e+06 -7.40023e+06 -2.79882e+06
-2.01018e+06 2.60862e+06 -5.05461e+06
4.71193e+06 4.37929e+06 -4.88918e+06
3.75931e+06 766007 2.08111e+06
-706605 8.98137e+06 -9.93912e+06
2.48148e+06 1.47694e+07 -7.30384e+06
-3.39675e+06 9.1538e+06 -2.08802e+06
4.93524e+06 7.4977e+06 -7.30336e+06
-756400 6.32e+06 -2.3728e+06
-4.73638e+06 8.71223e+06 -1.75226e+06
1.01615e+07 8.63864e+06 -2.05162e+06
-2.29838e+07 -4.75203e+06 -2.23471e+06
1.94764e+07 -8.6636e+06 -3.59881e+06
-2.22956e+07 -1.07142e+07 -897174
2.37235e+07 -1.41245e+07 889955
-3.24281e+07 7.8534e+06 1.99533e+06
-2.13731e+07 -1.01933e+07 -5.02334e+06
0 0 0
0 0 0
2.35695e+06 -5.4774e+06 1.30505e+06
881929 1.81816e+07 218562
1.96498e+06 -1.49268e+07 3.76951e+06
-81957.2 1.66521e+07 6.18697e+06
-2.45376e+06 -1.87374e+07 5.08984e+06
-3.57409e+06 1.53282e+07 955147
7.14044e+06 -2.74633e+07 4.3108e+06
1.58887e+07 2.8182e+07 1.51694e+06
6.39861e+06 -3.28341e+07 3.25007e+06
9.82675e+06 2.26045e+07 -1.69691e+06
2.00819e+06 -1.39138e+07 6.24128e+06
-3.16673e+06 2.74787e+06 -1.94449e+06
8.1813e+06 8.29713e+06 6.87235e+06
1.29971e+07 -4.58464e+06 -964975
9.51385e+06 -5.84275e+06 7.60089e+06
3.59552e+06 -4.8003e+06 352904
1.60155e+07 8.77324e+06 8.50829e+06
1.51792e+07 -1.14156e+07 -95070.8
5.62319e+06 1.18229e+07 4.20272e+06
-1.00144e+07 -9.68912e+06 -5.43817e+06
-2.04843e+07 3.11337e+06 7.75088e+06
-1.46532e+07 2230.11 -6.65066e+06
-2.04488e+07 -5.7201e+06 5.33761e+06
-2.22725e+07 2.25685e+06 -3.06622e+06
-2.49636e+07 403339 4.11397e+06
-7.36212e+06 -508679 5.99788e+06
-1.20885e+07 1.81185e+06 9.94816e+06
-1.39305e+07 -3.3146e+06 1.60121e+06
-4.7706e+06 -9.2707e+06 8.35843e+06
-818138 1.05254e+07 -255644
-1.27443e+06 -8.74219e+06 8.6486e+06
1.04075e+07 1.08597e+07 -6.12414e+06
1.07761e+07 -1.26397e+07 1.13307e+07
1.63482e+07 1.09866e+07 -4.32233e+06
2.01311e+07 -8.91337e+06 9.88492e+06
2.94686e+07 1.22552e+07 3.08767e+06
2.91721e+07 -1.19953e+07 6.37509e+06
3.1887e+07 6.26351e+06 2.3061e+06
0 0 0
0 0 0
2.27675e+06 -8.83122e+06 -861293
-8.38298e+06 -1.65113e+07 -6.89627e+06
-7.2874e+06 -2.10833e+07 4.20038e+06
9.00181e+06 -1.60428e+07 -1.91689e+06
-1.12774e+06 -2.41085e+07 2.45408e+06
5.42978e+06 -1.78432e+07 -1.95724e+06
-6.29923e+06 -1.07036e+07 5.58206e+06
7.35905e+06 -3.00078e+06 -1.1782e+06
-2.27254e+07 3.40142e+06 1.08703e+07
1.93417e+07 -1.44088e+06 -4.89476e+06
-1.6231e+07 5.85157e+06 821945
1.96033e+07 5.95398e+06 -1.19414e+07
-1.66778e+07 9.698e+06 2.83676e+06
1.83806e+07 1.14916e+07 -1.19554e+07
-1.60151e+07 6.33261e+06 1.49536e+06
1.57951e+07 4.52614e+06 -6.98594e+06
-1.60016e+07 5.43219e+06 764.677
1.16929e+07 1.64341e+07 -1.1984e+07
-1.00197e+07 1.82672e+07 -2.51802e+06
9.62986e+06 2.07896e+07 -8.4677e+06
-9.31798e+06 1.06771e+07 5.4418e+06
1.20262e+07 5.86132e+06 -2.40188e+06
-4.72018e+06 -453235 5.13638e+06
4.74128e+06 -7.76546e+06 -4.42981e+06
-4.78067e+06 -8.13832e+06 -3.48887e+06
5.02974e+06 -2.04124e+06 7.30493e+06
-1.53639e+06 -1.97306e+06 1.08176e+06
-1.3028e+06 -4.61362e+06 3.05874e+06
-6.9527e+06 -6.15258e+06 1.03848e+07
3.77964e+06 -1.19827e+07 4.32625e+06
-2.97493e+06 -1.53574e+07 5.61127e+06
4.88103e+06 -1.39457e+07 4.58472e+06
1.15057e+07 -3.57549e+06 -2.80403e+06
-2.21487e+07 7.65318e+06 798971
2.22561e+07 1.01552e+07 -2.37417e+06
-2.0228e+07 1.49979e+07 -4.21868e+06
1.97611e+07 1.79468e+07 1.09715e+06
-1.68464e+07 1.19429e+07 494278
2.85999e+07 -8.36512e+06 663279
2.23142e+07 1.43759e+07 -6.76211e+06
0 0 0
0 0 0
2.61378e+06 -8.06261e+06 -1.69435e+06
4.10904e+06 1.19477e+07 -4.70164e+06
4.22404e+06 -9.78938e+06 -5.68933e+06
5.88947e+06 7.28368e+06 415217
8.1018e+06 -7.12271e+06 -3.96439e+06
-3.38384e+06 8.63736e+06 -2.17387e+06
-1.06046e+07 -1.49975e+07 -6.65329e+06
-8.84741e+06 2.57458e+07 -2.47131e+06
-7.45623e+06 -2.61824e+07 -4.84856e+06
153528 1.98447e+07 -2.03889e+06
-3.39806e+06 -2.04763e+07 -4.28026e+06
1.71813e+06 1.69565e+07 -6.78219e+06
-1.12035e+07 3.07596e+06 -3.12926e+06
-1.72802e+07 -65127.1 -1.31451e+06
-4.25799e+06 -5.0235e+06 -1.03785e+07
-2.92279e+06 -1.07552e+06 -9.21593e+06
-41368.1 5.50572e+06 -1.06589e+07
-2.54963e+06 -5.40469e+06 -1.0699e+06
-4.69279e+06 4.95725e+06 -3.84452e+06
3.12271e+06 -8.94528e+06 -4.12886e+06
1.39125e+07 6.78137e+06 -7.17411e+06
8.63364e+06 9.33969e+06 -5.53146e+06
1.17926e+07 -7.70896e+06 -5.44845e+06
1.45802e+07 3.08132e+06 -3.06663e+06
1.50367e+07 3.38823e+06 -1.23461e+07
9.83894e+06 2.0082e+06 -7.50193e+06
8.28636e+06 -453054 -1.62779e+07
9.34294e+06 8.61081e+06 -9.35726e+06
4.52328e+06 -2.99168e+06 -1.77061e+06
615430 4.31549e+06 -2.55421e+06
-6.11254e+06 666240 7.51614e+06
-9.77774e+06 3.42273e+06 -688575
-1.67205e+07 -1.4725e+06 1.08434e+07
-1.61253e+07 -1.06957e+06 -5.76187e+06
-1.84109e+07 -2.18666e+06 -2.2829e+06
-2.81049e+07 1.3048e+07 -1.10746e+07
-2.95885e+07 -1.15291e+07 -5.14251e+06
-2.34985e+07 1.19416e+07 -399168
-2.06519e+07 -1.13911e+07 -1.85237e+06
0 0 0
0 0 0
-570221 7.26971e+06 86677.1
4.09552e+06 1.60087e+07 3.56759e+06
859843 2.09704e+07 4.59375e+06
-165690 2.65727e+07 -4.01858e+06
-6.99715e+06 1.52392e+07 6.49297e+06
6.37397e+06 1.0645e+07 585795
-8.25653e+06 8.97546e+06 107444
1.27904e+07 -1.03428e+06 -6.38126e+06
-1.68802e+07 3.58e+06 -218216
1.93669e+07 8.14916e+06 -1.82183e+06
-8.87974e+06 -108774 6.39798e+06
6.39694e+06 -1.00142e+07 -4.96775e+06
-1.17814e+07 -7.57895e+06 6.33442e+06
9.74038e+06 -6.6166e+06 -1.20261e+06
-1.5449e+07 -2.51906e+06 1.3948e+07
1.49722e+07 -4.93416e+06 640585
-1.24191e+07 -7.33439e+06 4.33468e+06
1.39566e+07 -8.29819e+06 956767
-9.6554e+06 -2.43262e+07 1.19982e+07
7.02261e+06 -2.08362e+07 -2.94651e+06
-1.54038e+07 -1.25432e+07 6.20515e+06
1.63444e+07 -2.89956e+06 -2.09803e+06
-1.29984e+07 4.11708e+06 8.24498e+06
9.06776e+06 7.68394e+06 2.17959e+06
-9.40862e+06 7.76666e+06 2.63985e+06
1.43037e+07 3.50539e+06 6.01843e+06
-4.21314e+06 5.23493e+06 -7.04097e+06
-1.14367e+07 765542 -3.17097e+06
7.01436e+06 344864 -3.26062e+06
5.84237e+06 1.37272e+07 -7.32757e+06
-4.35513e+06 1.48518e+07 -3.1257e+06
5.92309e+06 5.68619e+06 861655
1.42104e+07 1.53305e+06 -1.94128e+06
-2.99444e+07 -142461 1.89874e+06
2.19721e+07 -8.2548e+06 -2.5458e+06
-2.18378e+07 -1.32947e+07 3.38328e+06
2.07633e+07 -1.65252e+07 -1.39094e+06
-1.46193e+07 -1.27988e+07 -625070
2.19201e+07 -1.22102e+07 -3.15156e+06
-3.12354e+07 1.03117e+07 -4.54236e+06
-2.81427e+07 -6.56845e+06 1.56054e+06
0 0 0
0 0 0
-5.7707e+06 -4.95438e+06 838748
-5.23616e+06 9.30998e+06 -43944.9
-1.6163e+07 -1.34794e+07 3.44415e+06
-1.28693e+07 1.5088e+07 5.19282e+06
-3.26187e+06 -6.89228e+06 3.19145e+06
-271319 -3.37266e+06 3.58473e+06
7.77602e+06 -7.42808e+06 1.44863e+06
8.6257e+06 1.78917e+07 6.96678e+06
1.00794e+06 -2.26376e+07 4.81967e+06
-4.72624e+06 2.63587e+07 6.64509e+06
-2.4497e+06 -2.71893e+07 9.01754e+06
9.60275e+06 2.3232e+07 9.54759e+06
-853416 -1.92219e+07 8.25419e+06
4.2984e+06 1.37965e+07 9.37179e+06
2.42903e+06 -6.78257e+06 7.16781e+06
2.85306e+06 4.96443e+06 1.19019e+07
-3.18858e+06 -2.79114e+06 7.01487e+06
2.62224e+06 397442 1.20355e+07
831863 -5.46505e+06 2.42917e+06
2.21617e+06 -903995 1.13137e+07
-8.55741e+06 -7.21574e+06 3.71631e+06
-5.96587e+06 8.93734e+06 5.65961e+06
-6.3042e+06 -4.87622e+06 2.0687e+06
-1.05088e+06 368488 1.19246e+07
-4.35697e+06 -7.83105e+06 3.23157e+06
-6.1262e+06 5.29226e+06 1.91792e+07
-3.43705e+06 -6.14508e+06 8.42072e+06
-2.86126e+06 1.72422e+06 1.17323e+07
-8.05019e+06 -1.43709e+07 1.70228e+06
-2.94661e+06 6.26941e+06 2.97805e+06
5.11418e+06 -6.03094e+06 2.81251e+06
1.07635e+07 2.27565e+06 -8.25224e+06
9.4169e+06 -44218.4 7.95918e+06
1.7617e+07 2.58686e+06 -1.35056e+06
2.21246e+07 -4.10189e+06 9.86477e+06
1.74662e+07 6.46922e+06 4.81657e+06
1.67843e+07 -1.16289e+07 2.88331e+06
2.21935e+07 1.42738e+07 2.20651e+06
1.6528e+07 -1.17947e+07 -723069
1.78077e+07 2.03712e+06 -6.5144e+06
0 0 0
0 0 0
2.21774e+06 -3.91463e+06 -538087
5.23936e+06 -7.23593e+06 -7.50415e+06
-4.04927e+06 -1.15103e+07 3.23147e+06
-2.12556e+06 -1.09888e+07 -1.28155e+06
-6.90962e+06 -1.6786e+07 1.97338e+06
8.7365e+06 -1.30612e+07 150140
-1.23214e+07 -6.51234e+06 -1.74654e+06
9.50623e+06 -7.76468e+06 -868361
-8.35722e+06 -1.03213e+07 3.3664e+06
9.0196e+06 -1.10783e+07 2.95395e+06
-8.00126e+06 -6.27091e+06 -2.67623e+06
8.40874e+06 2.40027e+06 -3.48984e+06
-1.05283e+07 3.26445e+06 453570
9.36119e+06 5.79969e+06 -4.71366e+06
-3.22776e+06 1.50311e+07 506860
6.80438e+06 9.72928e+06 -3.77936e+06
-5.98386e+06 6.25886e+06 -871142
7.89433e+06 1.4152e+07 -1.02125e+07
-1.0288e+07 1.68736e+07 -2.75934e+06
1.59181e+07 1.97996e+07 -4.84162e+06
-1.53289e+07 1.80628e+07 2.8242e+06
1.24649e+07 9.54424e+06 -1.09242e+06
-1.4039e+07 -1.77895e+06 2.57121e+06
6.98874e+06 2.3643e+06 -5.44179e+06
-2.99267e+06 7054.39 -1.02635e+07
1.1004e+07 -5.70369e+06 3.95009e+06
-4.83566e+06 -6.80085e+06 -7.34832e+06
-1.46546e+07 -3.73077e+06 532044
1.14173e+07 -6.62402e+06 2.50663e+06
2.12494e+06 -7.32835e+06 3.02453e+06
-3.7837e+06 -4.4095e+06 3.69935e+06
-5.03028e+06 -5.73193e+06 5.76819e+06
1.16084e+07 -5.3798e+06 -1.91367e+06
-1.76441e+07 1.69357e+06 4.74202e+06
2.33953e+07 5.39978e+06 396423
-1.86479e+07 1.42275e+07 3.56067e+06
1.67605e+07 1.50882e+07 5.93211e+06
-1.0053e+07 1.16616e+07 1.22936e+07
9.85409e+06 8.55184e+06 585235
-1.44573e+07 6.12993e+06 8.15573e+06
1.33493e+07 3.31811e+06 835269
1.2578e+07 6.24151e+06 1.08151e+06
0 0 0
0 0 0
1.27341e+07 5.90971e+06 -1.31521e+06
9.468e+06 7.4423e+06 -5.93343e+06
1.34527e+07 -1.28303e+07 -6.68271e+06
1.06193e+07 1.38136e+07 -4.89196e+06
-1.59802e+06 -3.38222e+06 -6.02155e+06
-1.03909e+06 3.52404e+06 -5.25208e+06
1.58683e+06 -6.16833e+06 -5.92088e+06
3.78894e+06 1.34034e+07 -4.7213e+06
-159490 -2.48022e+07 -2.86208e+06
1.85522e+06 2.18896e+07 -8.66677e+06
2.04168e+06 -2.35512e+07 -6.30965e+06
1.18184e+06 2.08052e+07 -1.67889e+07
-1.40723e+06 -2.84305e+07 -4.85243e+06
-660576 2.10411e+07 -1.03478e+07
-6.75944e+06 -1.65376e+07 -8.56339e+06
-6.18535e+06 1.01561e+07 -1.40035e+07
-1.08472e+07 -6.40557e+06 -1.03727e+07
-6.35149e+06 1.04486e+07 -9.39541e+06
-7.4033e+06 -5.34265e+06 -3.78847e+06
-5.4769e+06 1.03472e+07 -7.29742e+06
5.72484e+06 -1.28712e+07 -5.87603e+06
4.44403e+06 4.74995e+06 -1.07777e+07
-9.91103e+06 634758 -3.88824e+06
-3.35564e+06 1.28423e+07 -4.94116e+06
4.54806e+06 -1.10898e+07 -8.60622e+06
5.18061e+06 8.07382e+06 -9.44685e+06
2.86891e+06 -4.93378e+06 -1.26799e+07
7.22549e+06 -287289 -1.28231e+07
1.86923e+06 -6.62701e+06 -3.77198e+06
4.67367e+06 1.22802e+07 -1.25477e+07
3.56421e+06 -1.02167e+07 2.61138e+06
-934496 7.08022e+06 -1.56455e+07
-3.60135e+06 -1.35122e+06 8.02231e+06
-7.76042e+06 4.49028e+06 -1.3861e+07
-1.80707e+07 -7.30389e+06 4.48199e+06
-1.53569e+07 9.1299e+06 -9.10898e+06
-1.83024e+07 -6.79943e+06 4.88584e+06
-1.78287e+07 2.80969e+06 3.71712e+06
-1.53914e+07 -3.33363e+06 7.8632e+06
-1.81916e+06 -5.796e+06 -4.56468e+06
-1.00439e+07 8.95593e+06 9.61677e+06
0 0 0
0 0 0
-471471 1.9764e+06 -1.41776e+06
2.69472e+06 1.4246e+06 411001
768962 272149 -3.111e+06
717132 1.11072e+07 -5.58116e+06
-3.40101e+06 1.61126e+07 -2.18128e+06
8.68282e+06 1.5544e+07 4.28671e+06
-3.16916e+06 1.31493e+07 -8.75809e+06
633419 7.6172e+06 685716
-4.30246e+06 8.9411e+06 -9.26825e+06
-1.95556e+06 4.3759e+06 6.87826e+06
1.77007e+06 5.54209e+06 -4.39004e+06
2.11726e+06 3.59802e+06 3.54928e+06
-1.37155e+07 -9.4936e+06 -5.02599e+06
1.15598e+07 -1.11048e+07 4.70592e+06
-2.29737e+06 -8.57448e+06 2.01781e+06
2.51772e+06 -1.59428e+07 2.58558e+06
1.26693e+06 -9.73232e+06 -5.53027e+06
-1.39572e+06 -1.23958e+07 2.36929e+06
-3.64683e+06 -1.68825e+07 1.48003e+06
1.05153e+07 -1.7032e+07 -321722
-1.04259e+07 -1.9542e+07 -3.3908e+06
2.91611e+06 -1.03648e+07 721555
-3.74656e+06 -4.22123e+06 1.00499e+06
4.7082e+06 -1.08714e+06 4.53849e+06
-7.72194e+06 -687131 1.30748e+06
8.51072e+06 3.52603e+06 1.41505e+07
-1.0098e+06 2.71156e+06 -4.57031e+06
-6.4606e+06 8.01193e+06 5.93282e+06
4.55182e+06 5.76188e+06 -4.11003e+06
2.10469e+06 1.57711e+06 -2.6168e+06
-2.22136e+06 700680 -848930
-6.07184e+06 4.35387e+06 3.24633e+06
1.56325e+07 -125534 -932817
-1.0075e+07 -1.26117e+06 -699305
7.68456e+06 -6.06845e+06 -3.51118e+06
-1.75981e+06 -1.08875e+07 -1.45655e+06
-2.51066e+06 -1.49362e+07 -8.16362e+06
-4.09142e+06 -1.77853e+07 -5.94409e+06
8.09435e+06 -1.01016e+07 -9.4713e+06
-3.16174e+06 -6.46243e+06 -3.20916e+06
1.21584e+06 1.0027e+06 -5.13998e+06
-2.32042e+06 -1.35241e+06 3.83795e+06
-4.20682e+06 4.2244e+06 1.75447e+06
0 0 0
0 0 0
-4.05744e+06 2.15908e+06 1.49663e+06
-1.40636e+07 -1.20983e+07 1.79648e+06
-8.24241e+06 2.16454e+06 2.22563e+06
-2.50656e+06 6.20873e+06 2.71323e+06
2.14103e+06 -3.95024e+06 -1.29125e+06
4.73147e+06 3.8792e+06 153814
-1.00473e+07 -1.12311e+07 -5.74108e+06
-9.03379e+06 1.53375e+07 1.87552e+06
-1.05255e+07 -1.26639e+07 -2.37894e+06
-7.18604e+06 1.56381e+07 -1.03674e+06
907674 -1.12997e+07 1.03671e+06
-1.196e+07 1.15108e+07 3.21031e+06
-8.38778e+06 -1.20933e+07 1.97686e+06
-2.83577e+06 9.19866e+06 2.73881e+06
3.4027e+06 -6.01325e+06 1.93868e+06
1.61329e+07 8.95041e+06 8.94765e+06
1.85864e+07 -8.11924e+06 2.15979e+06
8.25853e+06 7.19147e+06 5.3669e+06
9.18352e+06 -1.02766e+07 -2.0572e+06
-5.63917e+06 8.07787e+06 9.22414e+06
4.87176e+06 827394 2.04108e+06
5.43129e+06 -1.09304e+06 -145635
9.45497e+06 -5.13533e+06 -1.64636e+06
-3.83465e+06 3.46166e+06 3.59963e+06
-1.34622e+07 -6.87813e+06 -2.99184e+06
-1.55261e+07 2.3535e+06 9.36533e+06
-6.02385e+06 6.64355e+06 2.84705e+06
-4.96089e+06 -2.02049e+06 4.35868e+06
-6.8037e+06 2.23415e+06 -3.40879e+06
-4.60067e+06 2.48246e+06 -1.45089e+06
246555 -4.61064e+06 1.87133e+06
-3.32456e+06 4.35561e+06 -1.25613e+07
-3.5242e+06 -2.31534e+06 7.60854e+06
2.80604e+06 -3.77507e+06 -5.54804e+06
9.11874e+06 -4.46588e+06 8.25556e+06
1.24098e+07 9.24999e+06 2.86204e+06
1.39903e+07 918265 1.11952e+06
1.57639e+07 -5.36158e+06 3.54187e+06
1.46477e+07 1.04868e+07 789819
1.78154e+07 -1.20014e+07 -5.46955e+06
2.67291e+06 4.59544e+06 2.60205e+06
-467514 883579 -525763
0 0 0
0 0 0
1.57626e+06 6.68815e+06 281361
1.28672e+06 2.37154e+06 -4.30537e+06
710441 -3.05759e+06 3.62181e+06
2.30819e+06 -1.21201e+07 2.62533e+06
-8.69401e+06 -1.58706e+07 -1.44044e+06
4.35009e+06 -1.5575e+07 8.05938e+06
-2.59824e+06 -1.43399e+07 -7.46937e+06
-805094 -8.72895e+06 5.73428e+06
7.5451e+06 -4.67258e+06 -4.79319e+06
-6.69496e+06 -4.30381e+06 1.06251e+07
4.64809e+06 -5.51527e+06 -8.91611e+06
-21503.1 411660 6.83513e+06
-5.88458e+06 1.09888e+07 -7.24057e+06
1.60417e+07 1.32583e+07 3.91459e+06
-1.3382e+06 1.28438e+07 -6.97158e+06
-7.50958e+06 9.57798e+06 6.49323e+06
1.02253e+07 9.1484e+06 -1.81976e+06
-1.22376e+07 6.99935e+06 4.51341e+06
4.18245e+06 1.08182e+07 -4.32701e+06
2.30086e+06 1.39502e+07 8.2583e+06
-2.60739e+06 1.34053e+07 2.14251e+06
5.81787e+06 1.19549e+07 7.24023e+06
-1.6806e+06 6.01203e+06 -893312
-529368 1.91396e+06 -3.43671e+06
-8.53949e+06 4.39203e+06 -1.30375e+07
6.12247e+06 5.29654e+06 7.67386e+06
-1.16194e+07 -8.53875e+06 -8.03566e+06
-4.49237e+06 -1.02668e+07 4.52899e+06
-1.84812e+06 -1.01218e+07 835719
-3.40234e+06 -8.06602e+06 2.21038e+06
1.19254e+07 525504 2.01888e+06
-1.1566e+07 1.68663e+06 -2.34843e+06
1.42924e+07 3.62578e+06 -4.43304e+06
-1.25712e+07 9.07897e+06 -3.3136e+06
3.58424e+06 3.64441e+06 711214
4.77441e+06 1.51895e+07 -722776
-6.04306e+06 1.14818e+07 6.20455e+06
7.10079e+06 2.30824e+06 8.69683e+06
3.33666e+06 7.67627e+06 4.96249e+06
1.48796e+06 2.37573e+06 8.52266e+06
5.98975e+06 -8.05373e+06 2.10947e+06
-2.23268e+06 -7.32519e+06 -683517
-3.62215e+06 -316167 -1.77291e+06
-2.56782e+06 -5.10619e+06 -91887.2
0 0 0
0 0 0
1.02204e+07 1.10466e+07 -13164
1.14705e+07 -2.22098e+07 -1.6205e+06
5.27172e+06 1.18972e+07 -393654
1.54331e+06 8.45534e+06 7.69816e+06
-1.02173e+07 -4.75743e+06 9.89675e+06
-5.78156e+06 1.2366e+06 1.42441e+07
4.78296e+06 -7.72106e+06 7.91346e+06
1.66831e+07 1.59064e+07 1.26217e+07
6.77862e+06 -1.50264e+07 9.11869e+06
607380 1.58479e+07 8.74013e+06
1.31435e+07 -1.07162e+07 6.85256e+06
1.10615e+07 1.16027e+07 5.58409e+06
1.50959e+07 4.91396e+06 8.39303e+06
1.21272e+07 4973.43 1.06939e+07
-2.29526e+06 4.01053e+06 -1.41274e+06
-1.83358e+07 1.59264e+06 7.49428e+06
-1.20404e+07 -8.03507e+06 -3.84118e+06
-8.1206e+06 5.86597e+06 9.64646e+06
-836351 -6.64725e+06 2.38262e+06
-6.67255e+06 2.32967e+06 1.20908e+07
-8.24148e+06 4.46509e+06 1.49535e+06
-1.18531e+07 -5.75988e+06 6.17382e+06
-5.11957e+06 -1.04949e+06 2.90744e+06
4.82974e+06 -1.13725e+06 1.16172e+07
1.52887e+07 612981 -2.87806e+06
1.26322e+07 985180 8.71224e+06
1.08701e+07 1.05623e+07 -1.76304e+06
1.47892e+07 -6.38317e+06 1.0467e+07
1.12247e+07 5.06376e+06 9.36652e+06
1.4952e+06 1.03146e+06 1.03392e+07
1.39091e+06 -1.48581e+06 1.2736e+07
-1.41949e+06 1.00261e+06 2.247e+06
-527778 -823599 1.24118e+07
-5.3547e+06 2.84348e+06 -5.08504e+06
-3.63274e+06 1.76459e+06 -531776
2.47236e+06 1.40848e+06 -8.21477e+06
-7.44803e+06 2.58716e+06 -8.9265e+06
-6.54222e+06 -3.69647e+06 -740398
-6.94792e+06 1.38527e+07 -4.44942e+06
-8.8405e+06 -9.68951e+06 -7.78387e+06
1.35383e+06 3.68662e+06 133818
4.63542e+06 -2.76715e+06 -1.00475e+06
-2.81205e+06 -263989 -2.69608e+06
0 0 0
0 0 0
4.02192e+06 -7.70712e+06 199348
-6.82767e+06 -5.9821e+06 3.59296e+06
3.14626e+06 1.86077e+06 1.49483e+06
1.45628e+06 4.55744e+06 -2.79848e+06
712819 1.32245e+07 867778
7.5628e+06 1.55928e+07 8.61144e+06
-6.36405e+06 6.1172e+06 -2.02e+06
-206728 -874266 5.66421e+06
3.25375e+06 -5.86514e+06 -4.57972e+06
-3.75447e+06 -1.8309e+06 6.45621e+06
-3.2648e+06 -3.31753e+06 -2.3424e+06
6.9657e+06 1.74057e+06 6.24785e+06
-8.05455e+06 -3.36249e+06 -4.171e+06
3.95787e+06 -1.31051e+07 6.28019e+06
2.90636e+06 -1.1302e+07 -733146
-1.03501e+07 -7.27905e+06 5.97246e+06
1.38418e+07 -9.84038e+06 -4.90354e+06
-1.69731e+07 -1.10586e+07 5.86531e+06
8.97999e+06 -3.31588e+06 -4.37379e+06
-338462 -7.2013e+06 1.22015e+06
158050 -1.18845e+07 -8.17317e+06
-2.69734e+06 -1.13529e+07 1.3523e+06
1.57361e+06 -9.19742e+06 -3.83653e+06
5.61949e+06 -5.75047e+06 -2.06492e+06
-4.76311e+06 -7.53121e+06 -3.84717e+06
4.24267e+06 -5.37219e+06 8.65577e+06
-2.68515e+06 440304 -7.47193e+06
3.24337e+06 1.35709e+07 3.13003e+06
-9.32428e+06 1.80492e+07 -6.47301e+06
-147902 7.04148e+06 -4.84105e+06
1.40724e+07 -1.26014e+06 3.08183e+06
-2.16398e+07 -615737 278649
1.93479e+07 -5.46601e+06 6.57485e+06
-1.4443e+07 -1.27596e+06 -1.83037e+06
5.42684e+06 -6.11864e+06 8.40404e+06
3.12056e+06 -9.13202e+06 -344692
-7.26393e+06 -5.06907e+06 597309
4.69382e+06 -1.78135e+06 -6.56755e+06
6.93674e+06 5.84887e+06 -3.28344e+06
-1.77119e+06 3.88394e+06 -3.09098e+06
1.16e+06 5.43505e+06 -3.03925e+06
2.60566e+06 1.04127e+07 -1.55609e+06
-7.31604e+06 7.15394e+06 515274
1.38362e+06 -3.44165e+06 -3.41091e+06
5.33337e+06 6.60682e+06 -591855
0 0 0
0 0 0
-9.70167e+06 1.37441e+07 1.73444e+06
-3.88231e+06 -9.7954e+06 349028
524200 3.1698e+06 3.40003e+06
-3.50192e+06 -3.64042e+06 -4.21224e+06
-4.96486e+06 -9.00794e+06 -3.04957e+06
-5.14164e+06 1.6403e+06 -9.91159e+06
-1.5711e+07 -6.49365e+06 -1.20973e+07
-1.91909e+07 1.40637e+07 -1.04039e+07
-8.76865e+06 -1.53255e+07 -8.398e+06
-1.52512e+06 1.71915e+07 -1.15356e+07
-4.9395e+06 -1.45188e+07 -3.23383e+06
-4.89016e+06 6.48252e+06 -5.02775e+06
-8.76955e+06 -4.61114e+06 -3.52909e+06
-7.66344e+06 187731 -6.73891e+06
4.89551e+06 -6.06756e+06 -7.19368e+06
1.19113e+07 3.29988e+06 1.28895e+06
4.99012e+06 -4.84225e+06 -7.3078e+06
1.03795e+07 1.44382e+07 -3.78577e+06
7.55298e+06 -7.49064e+06 -1.23319e+07
1.37184e+07 5.71341e+06 -345478
8.86518e+06 -3.62354e+06 -6.67281e+06
1.5268e+07 3.8337e+06 -8.40876e+06
8.14149e+06 -5.57061e+06 -7.44241e+06
-89718.3 1.23886e+07 -1.28678e+06
-5.69055e+06 -3.50231e+06 -8.16757e+06
-8.56288e+06 1.05908e+06 5.5939e+06
-1.73271e+07 -6.2294e+06 -1.48729e+06
-2.38216e+07 -32929.4 -489812
-1.63784e+07 -7.79759e+06 -1.08484e+07
-9.19907e+06 8.71516e+06 -8.95325e+06
-8.87154e+06 -3.46145e+06 -8.26447e+06
-3.57326e+06 5.72202e+06 -1.87036e+07
1.04906e+06 -6.0504e+06 2.24674e+06
-36777.7 164192 -6.67711e+06
-1.36125e+06 -2.78394e+06 6.44713e+06
-1.06843e+07 -2.18154e+06 4.52881e+06
-1.25774e+07 -384408 -934080
-6.27034e+06 -566945 2.65384e+06
-5.96572e+06 5.77788e+06 -698638
-6.50826e+06 -4.11512e+06 -2.26469e+06
-2.89119e+06 1.71914e+06 5.25993e+06
-6.74405e+06 -2.99238e+06 3.26492e+06
-1.80764e+06 4.53515e+06 1.71687e+06
826086 -2.9894e+06 4.38375e+06
0 0 0
0 0 0
741248 8.60423e+06 -1.19311e+06
-2.79569e+06 4.58353e+06 -6.15509e+06
585326 1.01413e+06 3.28081e+06
-1.49816e+06 -6.93552e+06 -3.8541e+06
5.8741e+06 -1.19526e+07 -1.69912e+06
2.14427e+06 -1.17416e+07 1.97468e+06
-9.34014e+06 -7.59464e+06 -3.15932e+06
1.39752e+06 6.86442e+06 -357365
-2.23817e+06 1.01704e+07 629100
1.71058e+06 7.32835e+06 2.137e+06
-5.24382e+06 3.9258e+06 -789514
1.15322e+07 136474 20950.3
-3.27622e+06 3.66093e+06 -3.97591e+06
115315 1.03334e+07 -2.99792e+06
6.23167e+06 8.46227e+06 -5.31164e+06
-1.4944e+07 8.35998e+06 3.03089e+06
9.83611e+06 7.74245e+06 1.93703e+06
-7.597e+06 9.42381e+06 2.32888e+06
8.57086e+06 3.22855e+06 -5.4271e+06
-4.40556e+06 -3.04317e+06 5.88756e+06
5.82922e+06 2.58455e+06 3.13458e+06
-936066 3.28831e+06 6.6764e+06
-946675 6.53454e+06 3.6258e+06
7.70232e+06 5.74266e+06 -4.93406e+06
-1.02725e+07 1.478e+06 -7.58471e+06
-4.49191e+06 1.14387e+06 6.64115e+06
7.52869e+06 -5.67736e+06 -3.55216e+06
3.84643e+06 -7.88934e+06 3.67527e+06
-2.40488e+06 -1.23728e+07 2.81637e+06
-1.96711e+06 -7.79911e+06 -408611
1.32477e+07 737337 3.51917e+06
-1.94542e+07 1.73736e+06 -9.48512e+06
1.52784e+07 2.37837e+06 -3.53488e+06
-1.57562e+07 3.75376e+06 -1.13908e+07
5.18085e+06 6.19226e+06 -1.15278e+06
1.67192e+06 1.5336e+07 -7.64467e+06
-4.25907e+06 8.24403e+06 2.4987e+06
-3.5447e+06 -2.22121e+06 851774
1.14817e+07 -4.17682e+06 2.19759e+06
-3.81604e+06 -5.29425e+06 5.209e+06
-1.52617e+06 -1.22804e+07 -1.20387e+06
3.19815e+06 -1.52614e+07 -896000
-3.1447e+06 -1.3745e+07 -1.9487e+06
3.84227e+06 -6.00118e+06 -3.01678e+06
1.71529e+06 3.01747e+06 4.49475e+06
-1.86601e+06 -4.7104e+06 364265
0 0 0
0 0 0
3.46507e+06 6.60573e+06 -2.23544e+06
-376479 -3.30868e+06 -6.77319e+06
7.75937e+06 5.30034e+06 -6.28168e+06
1.3041e+07 890142 -6.45737e+06
1.5037e+07 -700667 2.52426e+06
1.45607e+07 -3.5296e+06 -1.87484e+06
2.0516e+07 -2.97098e+06 4.00876e+06
1.83667e+07 7.87566e+06 -2.93806e+06
6.88621e+06 -1.36014e+07 8.20039e+06
4.80817e+06 1.31492e+07 -4.31599e+06
2.37351e+06 -1.81133e+07 7.87911e+06
-2.24087e+06 1.15443e+07 -8.12294e+06
-4.52949e+06 -7.44343e+06 1.02397e+07
148961 9.85309e+06 -551553
-5.27227e+06 -9.15274e+06 -255569
-6.65879e+06 1.26706e+07 1.19692e+06
-2.01575e+07 -1.41016e+07 -2.09533e+06
-9.50391e+06 1.72548e+07 3.88082e+06
-1.46453e+07 -2.34857e+07 5.5991e+06
-9.49981e+06 1.93039e+07 4.79956e+06
-1.27011e+07 -1.56495e+07 5.07624e+06
-8.67231e+06 1.08147e+07 -1.42818e+06
-1.29522e+07 -1.71578e+07 3.76808e+06
-1.49314e+06 2.14104e+07 2.00304e+06
-2.8697e+06 -2.27249e+07 -5.04889e+06
-1.63479e+06 1.75701e+07 -1.187e+06
8.43278e+06 -1.84084e+07 -4.95944e+06
1.29171e+07 1.51595e+07 865523
1.58809e+07 -1.11703e+07 5.94532e+06
1.78314e+07 9.95406e+06 3.13815e+06
9.13238e+06 -7.74355e+06 7.68776e+06
6.45563e+06 1.51207e+06 -3.07361e+06
-1.04715e+06 -5.27892e+06 7.0688e+06
1.42767e+06 9.27716e+06 -7.03428e+06
7.42796e+06 692044 164144
1.55885e+07 1.45503e+06 -607626
1.53383e+07 990017 -2.59626e+06
1.28148e+07 -2.05289e+06 4.98446e+06
8.12454e+06 2.90027e+06 -2.10856e+06
6.62192e+06 3.01362e+06 -1.29902e+06
1.25768e+07 2.24597e+06 1.40613e+06
5.92163e+06 -2.81465e+06 5.64496e+06
-5.68278e+06 3.34608e+06 479977
358968 -1.38313e+06 5.50966e+06
-2.82897e+06 513152 3.34914e+06
0 0 0
0 0 0
574688 -1.59877e+06 -67770.6
9.08383e+06 4.24817e+06 2.34119e+06
-1.06741e+07 8.94356e+06 2.60781e+06
-1.79896e+06 9.84677e+06 -5.72574e+06
7.58418e+06 9.8306e+06 2.76469e+06
-800675 1.128e+07 1.64875e+06
-2.88894e+06 -354242 1.92464e+06
3.81521e+06 -6.16236e+06 -946518
3.67331e+06 -1.41287e+07 -212476
-2.92994e+06 -8.76238e+06 -3.71084e+06
-3.93804e+06 -4.01203e+06 1.8171e+06
1.39208e+06 -6.95771e+06 -2.73828e+06
-1.02515e+06 61130.1 -3.56137e+06
-5.14039e+06 -5.01614e+06 -1.33008e+06
6.3048e+06 -8.40072e+06 -1.15155e+06
-4.57748e+06 -1.40095e+06 -1.15531e+06
3.56824e+06 -3.35807e+06 -5.5746e+06
-1.95753e+06 -4.42662e+06 -2.28509e+06
-2.54407e+06 -7.52641e+06 -8.09412e+06
-669268 -3.245e+06 -3.93757e+06
3.32184e+06 2.40421e+06 -8.1994e+06
-3.05628e+06 -169334 -847798
-690057 -21617.4 -1.41656e+06
8.53614e+06 -2.61624e+06 -6.21066e+06
-1.19982e+07 -1.83325e+06 -1.84521e+06
-4.38759e+06 -836364 2.16996e+06
9.09897e+06 1.49701e+06 -6.32452e+06
-1.84658e+06 7.50018e+06 -521699
1.74627e+06 655956 -8.82084e+06
-6.40439e+06 -1.90734e+06 -7.0529e+06
1.04294e+07 -2.41099e+06 3.03575e+06
-1.59906e+07 -4.5123e+06 2.34385e+06
1.75386e+07 -8.01107e+06 1.06564e+07
-1.76543e+07 -1.15882e+07 747507
9.7194e+06 -2.11365e+07 9.49114e+06
1.50212e+06 -1.67946e+07 1.41465e+06
7.20716e+06 -1.41752e+07 2.78924e+06
-7.81935e+06 -4.58887e+06 -3.47586e+06
1.91793e+06 -3.91612e+06 -2.15811e+06
-826179 1.97728e+06 -2.29401e+06
-7.20208e+06 1.25756e+07 -3.70334e+06
6.91471e+06 1.22422e+07 -379142
-6.13458e+06 1.72749e+07 2.20266e+06
1.95967e+06 8.37698e+06 1.09043e+06
-9.80636e+06 5.53189e+06 7.60437e+06
-265504 166641 3.90417e+06
5.07218e+06 1.57921e+06 7.77085e+06
0 0 0
0 0 0
-6.75491e+06 2.6323e+06 1.87514e+06
-9.17019e+06 -5.36927e+06 5.22511e+06
-1.05381e+07 3.57057e+06 963664
-1.77444e+07 625391 -1.83476e+06
-1.7696e+07 1.57244e+06 -5.82095e+06
-2.09481e+07 -2.25224e+06 -1.88427e+06
-1.36153e+07 2.80498e+06 -2.22605e+06
-9.71546e+06 1.82479e+06 2.0587e+06
-4.99671e+06 -9.67849e+06 2.43914e+06
-3.37963e+06 1.95162e+07 -7.2368e+06
1.41029e+06 -1.43952e+07 2.68896e+06
4.87348e+06 1.66317e+07 -6.8724e+06
4.41633e+06 -1.17936e+07 7.35203e+06
7.20332e+06 9.28267e+06 -5.3956e+06
-31779.8 -1.23657e+07 6.7416e+06
6.47084e+06 1.23226e+07 2.85256e+06
4.21814e+06 -1.78134e+07 4.82553e+06
-606098 2.75633e+07 -4.62069e+06
1.40977e+06 -2.49861e+07 1.2123e+06
6.87139e+06 2.38942e+07 -2.41134e+06
7.0315e+06 -1.11319e+07 8.63524e+06
1.12836e+07 1.6105e+07 -7.39112e+06
1.02253e+07 -2.45448e+07 9.00833e+06
1.14149e+07 3.12105e+07 -1.35232e+06
8.26821e+06 -3.53343e+07 5.09691e+06
5.72206e+06 2.88121e+07 4.37812e+06
4.59653e+06 -1.97428e+07 1.04684e+07
-8.22135e+06 1.4876e+07 -772181
-1.37181e+07 -1.17044e+07 5.32258e+06
-2.63926e+07 -1.36153e+06 -1.9747e+06
-2.06978e+07 2.24003e+06 8.73095e+06
-1.22604e+07 5.87332e+06 -1.12136e+07
-6.392e+06 -7.36614e+06 1.11198e+07
-6.4379e+06 9.43184e+06 -6.98189e+06
-1.41663e+07 -1.96883e+06 8.34236e+06
-1.28597e+07 2.66487e+06 2.91962e+06
-1.99057e+07 -420596 4.59006e+06
-1.59852e+07 3.78415e+06 1.5787e+06
-1.90196e+07 -3.39269e+06 2.46692e+06
-1.94295e+07 7.81487e+06 -3.57206e+06
-1.19547e+07 -2.72441e+06 1.4265e+06
-9.21358e+06 -2.56099e+06 -2.68547e+06
-3.01709e+06 2.11666e+06 -5.9566e+06
536410 -5.46961e+06 1.23867e+06
-3.83528e+06 15390.2 -6.70399e+06
-3.60977e+06 3.7769e+06 -6.41522e+06
0 0 0
0 0 0
2.21391e+06 -2.27135e+06 21134.2
6.2852e+06 -7.73173e+06 -2.05074e+06
-3.60254e+06 -9.9679e+06 5.08733e+06
-298831 -5.16539e+06 -1.39089e+06
-1.52265e+06 -1.23788e+07 920578
-9.63965e+06 -1.23253e+07 1.54048e+06
-893752 -6.70084e+06 -3.84219e+06
-965961 1.08325e+07 -3.01535e+06
-3.38907e+06 7.8546e+06 221188
3.26511e+06 1.12268e+07 1.69083e+06
-4.4411e+06 1.38119e+07 3.24695e+06
2.32426e+06 5.48266e+06 -2.69038e+06
907536 2.94881e+06 -3.76911e+06
-4.03059e+06 -1.1707e+06 -2.37893e+06
5.87823e+06 -1.84268e+06 -1.84357e+06
1.13029e+06 2.51693e+06 3.43027e+06
3.21582e+06 2.75135e+06 4.73213e+06
455392 8.95349e+06 2.35728e+06
-1.00873e+07 8.57688e+06 -1.33424e+06
8.34394e+06 1.02137e+07 6.43705e+06
287294 3.28665e+06 6.31815e+06
-3.89977e+06 1.68325e+06 5.30804e+06
112333 3.96597e+06 9.14958e+06
1.28657e+07 646291 -2.92576e+06
-4.64446e+06 4.82432e+06 2.4169e+06
-3.52699e+06 1.89403e+06 5.60036e+06
4.37263e+06 4.10967e+06 4.80641e+06
-9.47228e+06 873913 6.10593e+06
3.24668e+06 -3.38033e+06 7.65434e+06
-565929 5.76674e+06 43137.2
1.45327e+07 8.89229e+06 3.6727e+06
-6.58957e+06 1.81009e+07 -7.67075e+06
9.7292e+06 1.82763e+07 -344980
-1.57567e+07 2.45755e+07 -9.15496e+06
8.58878e+06 2.66045e+07 -3.67097e+06
-7.44222e+06 2.50504e+07 -8.08909e+06
1.13228e+07 2.12554e+07 -130138
-6.83948e+06 1.97222e+07 63773.3
6.95514e+06 8.24106e+06 2.52381e+06
5.74239e+06 284024 3.11086e+06
-1.00646e+07 -4.96304e+06 -996466
1.23012e+07 -1.40598e+07 -430350
-1.21037e+07 -1.45843e+07 -1.94739e+06
1.36226e+07 -1.39307e+07 -9.55652e+06
-1.83578e+06 354153 -1.23872e+06
7.94965e+06 3.45745e+06 -1.32603e+06
-6.30744e+06 -2.15679e+06 -1.92389e+06
-1.3437e+07 5.57818e+06 -7780.73
0 0 0
0 0 0
6.28556e+06 1.09887e+07 1.80914e+06
7.66444e+06 -4.03752e+06 -2.27184e+06
1.07713e+07 -612743 -1.10582e+06
1.22249e+07 6.20874e+06 3.99572e+06
9.88654e+06 6.33043e+06 6.73817e+06
2.06872e+07 -3.34017e+06 9.97381e+06
2.07825e+07 6.72791e+06 9.51072e+06
6.40186e+06 -3.86839e+06 9.8927e+06
5.16566e+06 -5.08894e+06 1.2729e+07
4.52951e+06 3.87734e+06 3.24854e+06
-2.09999e+06 -1.28268e+07 7.57049e+06
-1.21541e+07 1.67229e+07 -8.87698e+06
-1.79158e+07 -1.98677e+07 1.26521e+07
1.05052e+06 1.65828e+07 -2.92051e+06
8.82202e+06 -8.99662e+06 2.33995e+06
1.38848e+07 1.04277e+07 -4.74524e+06
1.56239e+07 -2.02445e+07 -2.6487e+06
1.12514e+07 2.0828e+07 -5.55805e+06
6.09224e+06 -2.64319e+07 6.79242e+06
7.66526e+06 1.80666e+07 -7.2475e+06
-616709 -2.18305e+07 7.25622e+06
-1.13966e+07 1.60697e+07 -1.37536e+07
-1.20244e+07 -2.82772e+07 6.45295e+06
-1.38371e+07 3.35181e+07 -1.00946e+07
-9.59067e+06 -3.20908e+07 478340
-3.99707e+06 2.63851e+07 -1.23933e+07
1.28255e+06 -2.25488e+07 -911426
1.11371e+07 1.47198e+07 -1.33428e+07
2.1831e+07 -1.31339e+07 1.03392e+07
3.72054e+07 8.33584e+06 -6.15272e+06
3.25195e+07 -3.67669e+06 1.60469e+07
1.51846e+07 1.76489e+06 -5.91587e+06
1.252e+07 -7.41542e+06 1.6725e+07
1.4688e+07 -1.04182e+06 -1.04626e+07
1.11227e+07 -1.86556e+06 5.28936e+06
2.20731e+07 -1.27935e+06 -7.8722e+06
2.83679e+07 -8.06547e+06 3.81801e+06
2.18934e+07 8.14386e+06 -3.87667e+06
2.52465e+07 -5.33707e+06 3.79956e+06
1.96251e+07 2.82969e+06 -5.94889e+06
1.65394e+07 2.495e+06 862731
1.68887e+07 -434578 -3.14547e+06
1.08098e+07 2.69856e+06 -4.78536e+06
2.99701e+06 -6.70438e+06 1.5181e+06
466576 1.83981e+06 -3.47752e+06
5.6501e+06 1.86409e+06 -2.66682e+06
3.78836e+06 -2.33945e+06 -1.39816e+06
0 0 0
0 0 0
-9.07511e+06 8.48624e+06 -1.12678e+06
-265309 5.33484e+06 492307
-1.46514e+06 8.93659e+06 -3.71509e+06
4.16478e+06 1.25371e+07 -9.67696e+06
-6.81156e+06 6.06532e+06 -1.28612e+06
944550 8.74752e+06 -1.50163e+06
6.21041e+06 2.63792e+06 813917
3.92081e+06 -1.29143e+06 146976
-2.08279e+06 -1.04086e+07 3.36342e+06
7.84593e+06 -5.8551e+06 1.94933e+06
-5.48443e+06 -9.71118e+06 7.6398e+06
761468 -1.06041e+07 785884
-4.13259e+06 -4.38719e+06 5.00646e+06
3.55639e+06 3.65004e+06 3.16774e+06
-2.62409e+06 -4.90412e+06 7.78514e+06
3.9221e+06 -4.27092e+06 434819
-4.01632e+06 -2.43174e+06 4.49431e+06
6.63438e+06 -5.08388e+06 -3.20634e+06
-6.44991e+06 -8.28902e+06 3.89874e+06
1.19206e+06 -9.48866e+06 -2.44293e+06
6.19566e+06 -7.84244e+06 2.22678e+06
-3.77158e+06 -7.29131e+06 -2.35362e+06
-919020 -2.48902e+06 8.10357e+06
-2.84902e+06 -8.75496e+06 -6.64147e+06
3.5686e+06 -7.93529e+06 8.83213e+06
-1.44228e+06 -8.89911e+06 -2.39868e+06
3.9446e+06 -2.85146e+06 4.14892e+06
-8.97947e+06 -5.34276e+06 563439
9.55034e+06 -3.79999e+06 -1.24885e+06
-4.1521e+06 1.94971e+06 -6.22177e+06
9.28617e+06 -1.10411e+07 2.87351e+06
-5.75031e+06 -1.95272e+07 3.10063e+06
2.47984e+06 -2.41382e+07 1.04941e+07
-1.47294e+07 -3.01581e+07 3.11202e+06
7.82831e+06 -3.42393e+07 5.37757e+06
-1.171e+07 -2.73759e+07 2.33878e+06
8.88178e+06 -2.37539e+07 2.42365e+06
-1.82125e+06 -1.48677e+07 196047
340319 -8.25725e+06 -843532
8.37922e+06 -8.73127e+06 -1.18606e+06
-9.89242e+06 1.95875e+06 -1.65406e+06
1.97439e+07 8.93728e+06 965826
-1.42759e+07 7.38666e+06 4.15021e+06
1.07441e+07 7.45933e+06 -3.16695e+06
-6.13996e+06 3.84356e+06 9.54089e+06
4.76565e+06 -1.04441e+07 1.42287e+06
-9.88718e+06 -7.35723e+06 4.94487e+06
8.60302e+06 -1.69464e+06 -6.26159e+06
5.69402e+06 2.18769e+06 -2.4746e+06
0 0 0
0 0 0
-2.97922e+06 4.9614e+06 1.39291e+06
-5.80806e+06 -1.26397e+07 1.29365e+06
-4.2984e+06 4.03962e+06 639478
-1.57463e+06 -5.9439e+06 1.33416e+06
-5.86887e+06 4.25818e+06 -6.49068e+06
-1.10493e+07 -3.91029e+06 -2.97468e+06
-1.65202e+07 7.89724e+06 -1.10991e+07
-1.16182e+07 -1.04357e+07 -4.09166e+06
-6.48771e+06 7.85653e+06 -7.79627e+06
-6.24378e+06 -4.25759e+06 -9.61561e+06
-523667 -7.2364e+06 -7.07295e+06
9.4696e+06 1.10655e+07 -9.42514e+06
1.00134e+07 -1.40429e+07 -961537
-2.51437e+06 1.64819e+07 -7.60048e+06
-1.43917e+07 1.92509e+06 -1.45418e+06
-1.24992e+07 3.8437e+06 1.38737e+06
-1.5997e+07 -1.49632e+07 -1.57751e+06
-1.08485e+07 1.98164e+07 -4.2689e+06
-1.57526e+07 -1.41482e+07 -3.57936e+06
-1.24052e+07 1.20485e+07 -2.90492e+06
-7.93612e+06 -1.18465e+07 6.0983e+06
4.14707e+06 1.68749e+07 -4.41987e+06
1.81586e+07 -2.08534e+07 9.69042e+06
7.5615e+06 2.46253e+07 1.52315e+06
2.59197e+06 -2.40065e+07 8.58948e+06
-5.7797e+06 1.56693e+07 7.73492e+06
-1.08276e+07 -5.03981e+06 1.10524e+07
-1.13044e+07 6.79348e+06 -2.45236e+06
-3.07656e+07 -4.89502e+06 763111
-2.70071e+07 5.32773e+06 -5.70819e+06
-2.41393e+07 -6.95183e+06 2.95344e+06
-1.54661e+07 3.2394e+06 -1.07813e+07
-9.21001e+06 540672 6.54153e+06
-2.03368e+07 -1.17254e+07 -5.54872e+06
-2.97355e+07 6.67239e+06 -57144.5
-2.85519e+07 5.77964e+06 -2.37242e+06
-2.20442e+07 43525.2 -808626
-1.97555e+07 6.5357e+06 -5.85375e+06
-2.19829e+07 -2.86173e+06 -558891
-1.84716e+07 -3.02385e+06 -3.41232e+06
-2.07223e+07 5.55527e+06 1.75079e+06
-1.97986e+07 2.2477e+06 -2.98932e+06
-1.66191e+07 1.28045e+06 -5.85251e+06
-1.05677e+07 -1.38687e+07 6.6469e+06
-4.25761e+06 6.64816e+06 -728468
-6.16257e+06 -4.37572e+06 401588
-6.57893e+06 5.67242e+06 4.77059e+06
1.23874e+06 3.88575e+06 1.96402e+06
0 0 0
0 0 0
-1.60385e+06 -1.37037e+07 2.62025e+06
921761 -1.79156e+07 3.84263e+06
5.00239e+06 -1.01655e+07 6.34886e+06
8.45326e+06 -9.39807e+06 2.56591e+06
-1.0506e+07 -3.81291e+06 4.22771e+06
7.9732e+06 4.33427e+06 5.07692e+06
-2.40248e+06 2.64599e+06 -3.42594e+06
-2.89747e+06 7.18282e+06 -1.55624e+06
-4.60859e+06 -1.43882e+06 -3.59104e+06
1.2513e+07 -383363 2.62019e+06
-4.59151e+06 4.11477e+06 -1.13844e+06
1.38098e+06 4.45006e+06 -4.76637e+06
-2.05445e+06 8.9156e+06 -5.49383e+06
7.91466e+06 1.0154e+07 -2.40245e+06
-1.80163e+07 753462 -1.51551e+06
1.17717e+07 -3.96254e+06 418850
-9.53593e+06 -590802 3.63087e+06
1.14071e+06 5.1075e+06 -4.07039e+06
-3.28426e+06 4.83537e+06 -991546
793959 8.34314e+06 -1.49248e+06
3.01079e+06 4.95608e+06 2.50393e+06
-5.10211e+06 3.68677e+06 -7.97619e+06
1.44845e+07 8.99337e+06 2.62187e+06
-5.24768e+06 1.13586e+07 -1.27444e+07
-6570.12 1.69954e+07 724963
-3.54574e+06 1.23389e+07 -8.20884e+06
1.43791e+06 9.49435e+06 2.11093e+06
-4.27681e+06 6.86798e+06 -1.53377e+06
1.39258e+07 9.57899e+06 8.18863e+06
-9.09975e+06 9.2829e+06 -734042
1.8766e+06 5.85743e+06 1.53313e+06
-1.10914e+07 1.03135e+07 -7.08797e+06
7.1021e+06 2.13511e+07 -871381
-3.13628e+06 2.74657e+07 -4.23232e+06
8.08714e+06 2.76275e+07 -5.47473e+06
-7.51709e+06 2.26687e+07 -3.0099e+06
4.62337e+06 1.77741e+07 -3.12736e+06
113391 1.17741e+07 1.91737e+06
-8.62504e+06 9.67186e+06 1.28544e+06
7.94249e+06 7.09554e+06 3.57731e+06
-1.21187e+07 1.83964e+06 -1.608e+06
1.90379e+07 -340500 924480
-1.93295e+07 233990 -3.12113e+06
5.46113e+06 -1.1382e+07 -1.21211e+07
-7.05326e+06 -1.86976e+06 -1.24599e+06
284663 304325 -7.06858e+06
-5.48842e+06 7.3759e+06 4.64345e+06
3.34162e+06 1.1407e+07 -7.63572e+06
-1.81791e+06 -1.03054e+07 1.10462e+07
-6.23964e+06 9.27593e+06 4.02442e+06
0 0 0
0 0 0
-3.18715e+06 5.75267e+06 944941
4.76351e+06 -7.38585e+06 -4.88683e+06
2.34422e+06 1.11257e+07 -2.49205e+06
4.29016e+06 -9.23933e+06 5.74631e+06
8.56227e+06 147093 5.59366e+06
1.73674e+07 -4.36458e+06 4.10374e+06
1.58793e+07 1.08692e+07 451151
6.38268e+06 -1.34592e+07 271402
2.01287e+06 9.09201e+06 9.15732e+06
-439791 -1.50347e+06 7.44529e+06
5.9785e+06 572370 1.18838e+07
-2.78629e+06 5.75511e+06 -3.0789e+06
-4.913e+06 -8.29017e+06 1.52393e+07
6.62302e+06 4.88059e+06 2.52339e+06
1.18787e+07 -254341 5.58901e+06
7.81817e+06 2.0419e+06 5.84186e+06
9.22872e+06 -4.22986e+06 1.22846e+06
1.33686e+07 8.39554e+06 1.14617e+07
8.25743e+06 -1.00504e+07 9.89393e+06
6.81863e+06 9.46367e+06 7.60968e+06
4.70422e+06 -5.99784e+06 2.73699e+06
-3.88809e+06 1.6557e+07 -3.42318e+06
-8.81095e+06 -1.36358e+07 -2.54254e+06
-5.96893e+06 1.52476e+07 -2.19624e+06
8.20076e+06 -4.4035e+06 -5.87538e+06
1.62164e+07 3.55443e+06 -2.14605e+06
1.83362e+07 5.87944e+06 -6.80375e+06
1.62942e+07 -1.39482e+07 -630047
1.60132e+07 232267 3.04906e+06
1.41554e+07 5.52184e+06 3.57194e+06
2.25887e+07 96403.6 3.24402e+06
1.27535e+07 7.96806e+06 788034
1.73727e+07 -1.51682e+06 2.93396e+06
2.18309e+07 -5.72298e+06 788426
2.78654e+07 6.0869e+06 -1.65586e+06
2.14689e+07 2.78406e+06 4.84136e+06
2.52183e+07 -859142 5.93596e+06
1.97881e+07 -4.93348e+06 5.06062e+06
1.74709e+07 -3.01343e+06 4.56496e+06
1.70802e+07 -320294 3.02056e+06
1.96396e+07 2.53336e+06 3.23339e+06
2.37565e+07 634703 2.37006e+06
2.18478e+07 -385844 -2.82532e+06
1.49012e+07 -4.73365e+06 5.61436e+06
1.07404e+07 5.46549e+06 -1.94391e+06
1.29259e+07 -7.72722e+06 1.03872e+06
7.31478e+06 4.13642e+06 -198405
6.50744e+06 -426832 -7.10964e+06
406992 -7.4096e+06 -3.42289e+06
0 0 0
0 0 0
-5.65434e+06 6.15248e+06 -1.01676e+06
-2.56978e+06 1.43887e+07 1.61271e+06
-448378 1.70586e+07 -6.90461e+06
5.98547e+06 8.56058e+06 -5.38619e+06
-5.17319e+06 1.48366e+06 -2.98434e+06
1.71715e+06 -7.76735e+06 3.40081e+06
-2.71353e+06 -1.1109e+07 -501971
9.16006e+06 -9.20104e+06 6.96069e+06
-1.04454e+07 -1.19189e+06 -4.11046e+06
1.23087e+07 -1.19595e+06 3.73149e+06
-1.46893e+07 -5.46748e+06 -5.47839e+06
9.81744e+06 -2.82478e+06 3.25679e+06
-8.19246e+06 -7.90676e+06 -3.56363e+06
1.37089e+07 -7.83041e+06 3.93354e+06
-1.59359e+07 21902.8 -1.49741e+06
1.4653e+07 6.9524e+06 314094
-6.87583e+06 4.80634e+06 -2.42351e+06
9.28201e+06 6.01802e+06 -5.42888e+06
-6.50336e+06 4.82505e+06 -677364
-1.63735e+06 -1.19531e+06 -2.42381e+06
2.67223e+06 -6.92874e+06 418349
-5.68266e+06 -2.64387e+06 -1.50655e+06
7.12086e+06 -9.34719e+06 5.51366e+06
-6.25186e+06 -1.70215e+07 -2.51276e+06
2.22207e+06 -1.21396e+07 1.07412e+07
-2.16226e+06 -1.82014e+07 -2.19847e+06
3.55579e+06 -1.00487e+07 3.68528e+06
-3.86104e+06 -3.25548e+06 -1.81603e+06
1.23526e+07 -3.91011e+06 -4.09073e+06
-1.27104e+07 -1.78874e+06 -6.78786e+06
9.68275e+06 -3.31657e+06 -1.92497e+06
-2.26889e+06 -2.3783e+06 1.96992e+06
939182 -1.13231e+07 5.47496e+06
1.3048e+06 -2.25781e+07 6.06863e+06
-959503 -2.06632e+07 1.60031e+06
-1.06233e+06 -1.85724e+07 8.95094e+06
-298346 -1.20319e+07 435887
4.14986e+06 -8.9561e+06 5.16369e+06
-2.40505e+06 -1.95894e+06 -3.20163e+06
3.99922e+06 -1.7393e+06 4.512e+06
-8.4885e+06 -2.4853e+06 -3.26566e+06
1.4736e+07 3.98521e+06 4.96023e+06
-2.19257e+07 -2.27981e+06 3.54726e+06
1.02685e+07 -5.43814e+06 3.02355e+06
-6.5276e+06 -4.92906e+06 1.07946e+07
1.25515e+07 -7.42559e+06 371554
-8.78167e+06 -8.21009e+06 4.21013e+06
987208 -1.69101e+07 1.40645e+06
-112584 -2.06339e+07 1.17387e+07
6.12775e+06 1.40712e+07 -1.24012e+07
3.31743e+06 -2.12862e+07 2.01335e+06
0 0 0
0 0 0
-6.37331e+06 1.48258e+06 1.76005e+06
-1.67913e+06 -3.86378e+06 509783
-3.60073e+06 4.34673e+06 4.66421e+06
-6.19313e+06 -730713 3.867e+06
-9.53731e+06 -1.12855e+06 376559
-1.14557e+07 868943 -1.54825e+06
-5.78457e+06 5.23937e+06 -3.19604e+06
-6.761e+06 -1.23665e+07 -6.47094e+06
-2.12532e+06 8.6766e+06 -1.26142e+06
-1.69803e+06 -3.05965e+06 -1.17663e+07
3.37524e+06 -4.47763e+06 -1.97423e+06
2.73841e+06 -43726.9 -1.37972e+07
3.77476e+06 -7.70534e+06 150508
-2.89014e+06 634402 -1.48203e+07
-9.1302e+06 1.86468e+06 -445868
-1.06182e+07 -2.29003e+06 -3.59094e+06
-1.60107e+06 -5.19781e+06 -2.57046e+06
-5.08823e+06 4.8819e+06 -9.41317e+06
-399006 -1.48834e+07 -1.12785e+07
-6.42827e+06 5.9654e+06 -1.08156e+07
-4.85576e+06 -1.17651e+07 -5.23271e+06
2.08046e+06 1.48881e+07 -1.10449e+07
8.84592e+06 -1.10731e+07 -2.48654e+06
3.83054e+06 2.45459e+06 -9.0568e+06
-1.56231e+07 -1.24102e+06 -7.28518e+06
-1.52212e+07 -413879 -4.66254e+06
-2.38524e+07 5.1523e+06 -5.21881e+06
-2.19009e+07 -5.96249e+06 -6.26568e+06
-9.9582e+06 2.0643e+06 -1.15978e+07
-1.25974e+07 1.13092e+07 -6.49385e+06
-1.41128e+07 -1.28971e+07 -9.48342e+06
-1.70861e+07 9.47244e+06 -9.49346e+06
-1.33786e+07 -1.00029e+07 -3.99193e+06
-1.85298e+07 -6.98286e+06 1.05217e+06
-1.13089e+07 5.68297e+06 -6.75937e+06
-1.34174e+07 -1.27818e+06 643410
-1.6281e+07 1.73247e+06 -193315
-1.88364e+07 -934913 -3.13475e+06
-1.53487e+07 -500305 -1.3281e+06
-1.52618e+07 1.37669e+06 -3.99609e+06
-1.56133e+07 2.46565e+06 -924395
-1.90668e+07 -313572 -8.39232e+06
-1.5847e+07 -2.09005e+06 -9.34812e+06
-1.54507e+07 -2.95813e+06 1.89106e+06
-6.78193e+06 7.29244e+06 -5.93011e+06
-3.39653e+06 -1.03197e+07 -1.92404e+06
-4.50093e+06 5.57652e+06 535164
3.52789e+06 -4.21863e+06 1.51602e+06
-1.52988e+06 -4.22782e+06 7.44666e+06
-3.53979e+06 1.23855e+07 154399
0 0 0
0 0 0
86803.8 -2.23843e+06 1.54403e+06
434487 -6.51379e+06 3.62316e+06
-571934 -2.16353e+06 3.13155e+06
-1.56923e+06 -5.57702e+06 4.28151e+06
-3.09224e+06 2.88382e+06 3.78314e+06
-1.97812e+06 1.06312e+07 4.64279e+06
-8.12939e+06 1.06139e+07 -4.82919e+06
1.03117e+07 9.35172e+06 1.98182e+06
-1.42677e+07 8.50963e+06 -7.5533e+06
1.60786e+07 1.57191e+06 7.35106e+06
-1.82469e+07 4.25378e+06 -3.94961e+06
1.60819e+07 5.58095e+06 4.91359e+06
-1.25613e+07 3.05218e+06 -5.53576e+06
1.588e+07 3.95863e+06 5.41218e+06
-1.73377e+07 -1.44143e+06 -4.03669e+06
1.30816e+07 -6.75008e+06 5.48674e+06
-1.01365e+07 -1.1552e+07 908046
1.3788e+07 -1.40249e+07 -121310
-4.99423e+06 -8.90894e+06 -608181
4.93796e+06 5.35017e+06 680013
-6.21895e+06 7.82588e+06 3.5716e+06
3.47271e+06 7.24314e+06 -4.9649e+06
-651412 1.06478e+07 2.37897e+06
-1.49731e+06 1.53626e+07 -7.88236e+06
126504 1.60452e+07 5.27866e+06
-2.88947e+06 1.28111e+07 -6.88428e+06
9.36212e+06 1.00101e+07 2.63068e+06
-9.97476e+06 -720.028 -3.20922e+06
1.10719e+07 -5.49656e+06 9.26543e+06
-1.63204e+07 -9.51538e+06 1.3075e+06
6.4893e+06 -4.96226e+06 4.89252e+06
-5.48859e+06 -1.40019e+06 -5.8822e+06
-3.32408e+06 1.60418e+07 -38118.3
226379 2.03028e+07 -3.39122e+06
-4.13994e+06 1.62755e+07 -4.81624e+06
1.35826e+07 2.13145e+07 -465666
-1.01297e+07 1.4491e+07 -5.89498e+06
8.29863e+06 5.91941e+06 775240
-6.80598e+06 -1.0185e+06 1.10709e+06
4.08396e+06 -1.72504e+06 5.79177e+06
-6.39903e+06 2.89023e+06 -477618
1.73337e+07 1.38924e+06 1.14233e+06
-2.25695e+07 5.56951e+06 -4.00536e+06
1.0238e+07 1.08457e+07 -1.15123e+07
-1.93729e+07 7.43485e+06 -4.12715e+06
1.91866e+07 1.15481e+07 -1.16594e+07
-1.19581e+07 1.55119e+07 -230968
1.1003e+07 2.85582e+07 -8.60972e+06
-7.24462e+06 2.97403e+07 -3.2338e+06
48658.9 2.64876e+07 -1.18847e+07
6.2764e+06 -1.6491e+07 8.76784e+06
4.68075e+06 1.94357e+07 -6.02445e+06
0 0 0
0 0 0
8.73105e+06 1.87259e+06 -94505.2
7.91811e+06 -4208.6 -5.96257e+06
7.92013e+06 -1.88746e+06 -6.35563e+06
9.94004e+06 3.1648e+06 756454
8.48728e+06 -5.15421e+06 -2.19368e+06
-1.03758e+06 -619418 -1.37948e+06
3.03748e+06 5.4058e+06 -3.02794e+06
-1.34892e+06 -4.3894e+06 -4.63777e+06
-5.08513e+06 7.21145e+06 3.81289e+06
-3.31909e+06 -5.00614e+06 979717
-613426 -3.97132e+06 3.75879e+06
-6.84782e+06 -378841 -8.59022e+06
-3.33482e+06 -2.37673e+06 1.00318e+07
-1.33502e+06 1.12625e+06 -867249
-1.63153e+06 3.96381e+06 2.56068e+06
1.82741e+06 -4.25459e+06 826711
-3.02673e+06 -1.76772e+06 -4.20118e+06
-9.20406e+06 1.0116e+07 8.84168e+06
3.11416e+06 -1.02646e+07 3.87148e+06
3.49907e+06 1.06717e+07 9.17612e+06
1.19232e+07 -1.01757e+07 775133
7.13028e+06 1.45263e+07 5.25747e+06
-454025 -7.49809e+06 6.06831e+06
2.73271e+06 -5.12703e+06 1.17985e+07
1.18812e+07 5.72675e+06 5.94441e+06
2.32413e+07 120701 9.51698e+06
2.14176e+07 -3.89049e+06 655701
2.29187e+07 -6.11799e+06 1.21264e+07
1.58548e+07 -1.86582e+06 6.26719e+06
1.01495e+07 7.8194e+06 1.44539e+07
6.30442e+06 -1.71874e+07 2.70338e+06
9.83371e+06 1.04138e+07 8.54137e+06
1.06139e+07 -6.24972e+06 509937
1.28163e+07 -9.17312e+06 9.31415e+06
3.92091e+06 8.47983e+06 -7.87255e+06
1.37185e+07 -2.03986e+06 3.76567e+06
1.45572e+07 1.73267e+06 -2.55915e+06
7.62258e+06 -842179 5.62003e+06
1.74997e+07 3.22396e+06 -1.28644e+06
2.19532e+07 -4.46743e+06 8.95977e+06
1.89828e+07 3.41093e+06 317854
1.2041e+07 -4.7569e+06 9.65012e+06
6.07972e+06 -1.84505e+06 -3.05229e+06
1.68747e+06 701633 1.63151e+07
275885 8.38672e+06 -3.99147e+06
-703839 -1.32387e+07 1.39504e+07
-4.06339e+06 8.61433e+06 -5.50067e+06
-4.63544e+06 -474749 8.81048e+06
212561 -1.04085e+07 -5.63442e+06
-5.50306e+06 7.14162e+06 31468.8
-3.90296e+06 325918 -1.09784e+06
0 0 0
0 0 0
1.63723e+06 -1.93759e+06 -1.50512e+06
-408087 -1.08162e+06 -365055
3.09579e+06 -4.53546e+06 -8.57879e+06
-4.68917e+06 -9.33661e+06 -5.21745e+06
4.47427e+06 2.48288e+06 -4.34242e+06
-3.4739e+06 -7.37951e+06 -2.8311e+06
-3.22681e+06 -1.18175e+07 -2.27421e+06
7.13846e+06 -1.59624e+07 5.89169e+06
-1.18975e+07 -1.10909e+07 -4.81619e+06
1.26721e+07 -1.00662e+07 3.98232e+06
-1.67014e+07 -1.77018e+06 -8.10895e+06
2.23611e+07 2.90246e+06 9.41447e+06
-1.58815e+07 -2.30572e+06 -1.98292e+06
1.58298e+07 -170785 4.27976e+06
-1.58612e+07 8.02502e+06 -7.89727e+06
1.41306e+07 1.58293e+07 636924
-1.01146e+07 1.98966e+07 -4.54215e+06
1.04059e+07 1.79682e+07 -6.165e+06
-6.79838e+06 9.85239e+06 -2.44495e+06
1.69996e+07 720256 -4.29378e+06
-1.70404e+07 -6.91444e+06 113935
1.16454e+07 -1.68642e+06 -1.80361e+06
-7.46913e+06 -9.16332e+06 4.36853e+06
3.00701e+06 -1.50372e+07 -3.03075e+06
-3.40157e+06 -1.5849e+07 8.63377e+06
-8.7694e+06 -1.37554e+07 -4.02327e+06
1.28216e+07 -7.50114e+06 1.92733e+06
-1.62168e+07 -3.66754e+06 -4.3735e+06
1.67532e+07 8.62713e+06 -3.78433e+06
-9.44126e+06 8.33046e+06 -7.16346e+06
1.81876e+06 3.27272e+06 -132579
4.86094e+06 -4.64123e+06 -2.18452e+06
-2.29951e+06 -2.08099e+07 1.90373e+06
8.63697e+06 -2.30186e+07 -2.23684e+06
-1.97563e+06 -2.2056e+07 -3.19197e+06
1.6567e+07 -1.28935e+07 2.47116e+06
-2.03428e+07 -1.07886e+07 -4.1231e+06
1.97722e+07 -1.99697e+06 -3.16402e+06
-1.1934e+07 -137018 -7.74048e+06
8.38124e+06 633389 181698
-6.30461e+06 4.04045e+06 -5.54204e+06
1.18909e+07 -9.37268e+06 937354
-1.25474e+07 -1.16817e+07 4.09666e+06
2.49442e+07 -3.83803e+06 6.43925e+06
-2.07566e+07 -6.82686e+06 1.12468e+07
1.87483e+07 -6.57031e+06 -124821
-1.6424e+07 -1.67639e+07 2.62266e+06
1.47097e+07 -3.15471e+07 5.58248e+06
-3.27575e+06 -3.16506e+07 6.45343e+06
490091 -2.67071e+07 5.26204e+06
-55457.3 -1.68539e+07 6.34684e+06
-2.54396e+06 1.71109e+06 -221404
-1.89613e+06 -1.06828e+07 2.51038e+06
0 0 0
0 0 0
-9.39732e+06 5.27485e+06 -42178.5
-1.40674e+07 -2.45684e+06 -1.37818e+06
-1.39295e+07 -1.64306e+06 3.95456e+06
-1.06013e+07 1.66954e+06 1.13943e+06
-1.13056e+06 5.34608e+06 1.5159e+06
-3.93088e+06 -4.48403e+06 2.87839e+06
4.88122e+06 6.49645e+06 6.00748e+06
449375 1.63336e+06 2.57422e+06
2.97521e+06 3.48857e+06 7.75364e+06
-2.20993e+06 3.07351e+06 -2.29958e+06
1.0718e+07 3.41106e+06 6.14227e+06
8.6757e+06 -1.03775e+07 -2.14299e+06
1.17956e+07 -2.77465e+06 1.16678e+07
8.05588e+06 4.59941e+06 -6.20591e+06
6.72321e+06 6.38309e+06 8.63337e+06
6.37866e+06 -1.72338e+06 -131069
8.77112e+06 -3.89608e+06 3.89496e+06
7.1727e+06 5.76544e+06 -4.30377e+06
-1.19477e+06 -1.84901e+06 -5.27766e+06
-6.33389e+06 7.23036e+06 -2.87809e+06
-8.76629e+06 -1.3929e+07 2.18347e+06
-8.73206e+06 1.06648e+07 -2.91247e+06
-7.5112e+06 -1.94617e+06 6.30893e+06
-5.9781e+06 4.24064e+06 -3.84967e+06
-1.59109e+07 3.99765e+06 -590253
-3.07699e+07 -2.13586e+06 -1.51987e+06
-2.25238e+07 6.49453e+06 1.16398e+06
-2.38862e+07 -9.41565e+06 1.33143e+06
-9.72246e+06 1.23474e+06 -6.6994e+06
-1.44582e+07 4.13588e+06 618078
-9.29911e+06 -6.10406e+06 -5.0064e+06
-1.15075e+07 2.35288e+06 -5.91934e+06
-1.13638e+07 9.48325e+06 -1.50683e+06
-3.01627e+06 -5.40705e+06 6.99701e+06
-4.54072e+06 6.83475e+06 -4.49981e+06
-9.39797e+06 -717425 -39468.4
-1.1871e+07 -1.66712e+06 -932630
-9.0334e+06 -3.53767e+06 -4.46643e+06
-1.18748e+07 2.164e+06 -2.52506e+06
-1.87859e+07 3.50754e+06 -1.1103e+06
-1.45013e+07 3.53638e+06 1.16967e+06
-4.0948e+06 -4.31934e+06 -6.91502e+06
231738 -2.61945e+06 -1.02113e+07
720604 -561653 3.50006e+06
3.34079e+06 4.6689e+06 -9.09888e+06
7.74851e+06 -7.52255e+06 3.18784e+06
1.05297e+07 4.61386e+06 -1.0421e+07
2.05233e+06 3.80174e+06 9.64141e+06
2.17944e+06 -5.6661e+06 -1.47604e+06
8.59854e+06 883468 8.56237e+06
-3.08341e+06 1.60957e+06 -778534
5.34269e+06 -1.25618e+06 596217
0 0 0
0 0 0
-3.13297e+06 -1.66594e+06 764865
-1.51349e+06 -3.12262e+06 2.82117e+06
4.92042e+06 1.72575e+06 2.92461e+06
-5.77237e+06 6.93266e+06 2.44523e+06
9.47338e+06 8.39277e+06 7.14325e+06
-1.09674e+07 9.108e+06 -2.31126e+06
644658 1.13038e+07 -2.57989e+06
2.06706e+06 1.50622e+07 -1.30958e+06
-2.17468e+06 1.69079e+07 -1.97279e+06
1.56184e+07 1.85636e+07 7.07939e+06
-2.13006e+07 5.29822e+06 1.44267e+06
1.89079e+07 972913 9.00446e+06
-1.9387e+07 -168414 993034
1.44861e+07 -1.73898e+07 8.15002e+06
-4.97205e+06 -1.30992e+07 -2.1835e+06
7.59143e+06 -1.90114e+07 9.88086e+06
-1.21404e+07 -2.07727e+07 5.87556e+06
1.32581e+07 -1.22946e+07 7.01236e+06
-2.08595e+07 -1.11989e+07 4.87285e+06
1.32461e+07 -2.72691e+06 3.43421e+06
-1.2547e+07 2.39441e+06 4.87028e+06
2.15732e+07 2.07614e+06 -2.39749e+06
-1.4131e+07 2.56608e+06 2.84132e+06
8.8689e+06 6.25998e+06 -2.51766e+06
-1.89668e+06 1.54519e+07 3.10165e+06
-5.31982e+06 1.20878e+07 -4.42701e+06
1.5815e+07 1.09927e+07 -1.05159e+06
-1.62076e+07 646770 45114.1
1.00885e+07 -7.62697e+06 7.904e+06
-6.76146e+06 -6.32083e+06 6.16263e+06
-3.56087e+06 -258034 5.44126e+06
5.66251e+06 1.00333e+07 -1.01463e+06
-9.65456e+06 1.56089e+07 1.97064e+06
1.53657e+06 1.865e+07 1.54142e+06
-8.49116e+06 1.60784e+07 600319
1.54471e+07 8.23041e+06 5.78596e+06
-2.00331e+07 3.52943e+06 -3.21289e+06
1.81879e+07 7.30439e+06 4.32165e+06
-2.27072e+07 -499122 2.3365e+06
1.6858e+07 -1.42245e+06 8.71547e+06
-9.87238e+06 5.20834e+06 606578
7.59457e+06 3.47728e+06 3.2787e+06
-9.52941e+06 9.52139e+06 -2.96849e+06
2.0436e+07 8.6635e+06 -5.6386e+06
-2.21069e+07 3.69576e+06 -3.38852e+06
1.34771e+07 4.55183e+06 -4.86207e+06
-1.91953e+07 1.6385e+07 1.88496e+06
4.49811e+06 2.13733e+07 -447797
-2.0529e+06 2.35588e+07 -5.80354e+06
5.37009e+06 2.05578e+07 -6.46208e+06
3.52566e+06 1.52254e+07 -6.66117e+06
8.29454e+06 6.98812e+06 2.93755e+06
7.56007e+06 3.10504e+06 -3.3728e+06
-1.19102e+06 3.21309e+06 -163610
0 0 0
0 0 0
7.15014e+06 568021 -2.03735e+06
9.83141e+06 -2.58502e+06 -8.17614e+06
1.15074e+07 1.38776e+06 -6.80927e+06
4.78217e+06 -3.22501e+06 1.32157e+06
917774 7.58959e+06 -1.11087e+06
-2.86428e+06 -3.45702e+06 -2.37819e+06
144002 3.46118e+06 -6.33392e+06
-515605 -8.57588e+06 -8.64142e+06
5.20082e+06 1.50789e+06 -1.33061e+06
-1.51023e+07 740396 2.05282e+06
-1.13262e+07 5.20626e+06 -3.2771e+06
-9.72759e+06 -3.01745e+06 -8.9762e+06
-1.90071e+06 730540 4.96111e+06
826063 5.42501e+06 -2.80083e+06
2.22882e+06 -3.15946e+06 -1.52518e+06
-3.57444e+06 -2.73648e+06 -5.35561e+06
-725603 8.01836e+06 -3.83905e+06
-5.00128e+06 -9.73568e+06 7.75137e+06
1.88418e+06 5.49334e+06 1.10702e+07
8.79306e+06 -728313 7.00123e+06
7.70842e+06 1.06822e+06 3.9185e+06
1.33796e+07 -5.28208e+06 -7.62614e+06
5.49984e+06 1.69816e+06 5.36591e+06
1.20023e+07 -1.28214e+06 -7.20003e+06
1.57495e+07 -4.86208e+06 4.42607e+06
1.65889e+07 -4.46878e+06 -1.23241e+07
2.16909e+07 6.22882e+06 -630876
1.35792e+07 -8.35611e+06 -5.54753e+06
1.72106e+07 6.20897e+06 6.44705e+06
1.10852e+07 -4.13164e+06 -1.31487e+06
1.26772e+07 6.09041e+06 5.99332e+06
1.76244e+07 -1.01479e+07 -7.83643e+06
2.59142e+07 1.33035e+07 4.86254e+06
1.2493e+07 -9.55272e+06 -2.96754e+06
2.29697e+06 56162 1.48467e+06
1.27895e+07 -2.12801e+06 -5.521e+06
1.18163e+07 1.42215e+06 6.49456e+06
4.64122e+06 -4.64889e+06 -3.3864e+06
7.09641e+06 -4.74833e+06 3.16122e+06
5.39629e+06 2.55697e+06 3.73659e+06
2.16872e+06 1.17539e+06 9.46769e+06
219614 359388 7.79887e+06
-7.0078e+06 -8.25616e+06 3.22302e+06
-1.17529e+07 1.66427e+06 1.06725e+07
-1.69588e+07 5.58615e+06 -3.6218e+06
-1.44202e+07 -4.33967e+06 7.81057e+06
-7.15805e+06 6.66196e+06 -1.61616e+07
-8.40691e+06 -7.76651e+06 4.97626e+06
-8.46457e+06 2.66844e+06 -1.11563e+07
-5.36133e+06 -3.36041e+06 17958.3
-1.39556e+07 4.59939e+06 -3.17802e+06
-5.09258e+06 2.06934e+06 3.91293e+06
-3.54883e+06 -605155 -940309
0 0 0
0 0 0
-2.33827e+06 5.55947e+06 -74115.4
-3.63212e+06 5.63167e+06 -344199
8.88551e+06 -2.10326e+06 -5.13661e+06
-1.14298e+07 -7.48127e+06 -6.10376e+06
7.81163e+06 -1.56812e+07 330548
-1.04196e+07 -1.77109e+07 -6.29551e+06
5.16462e+06 -1.59783e+07 2.41997e+06
-3.05266e+06 -1.41482e+07 2.25145e+06
2.95465e+06 -1.80148e+07 -635084
1.3345e+07 -1.57892e+07 -3.46979e+06
-2.22755e+07 -9.46307e+06 -9.95418e+06
2.42619e+07 1.52377e+06 1.87566e+06
-2.05776e+07 1.39541e+07 -3.90723e+06
1.5248e+07 1.48752e+07 -4.53778e+06
-3.69643e+06 2.06778e+07 -1.29537e+07
606849 2.24225e+07 -4.69323e+06
-6.91276e+06 2.16826e+07 -3.67698e+06
1.76108e+07 1.78172e+07 -8.20706e+06
-1.7093e+07 6.42498e+06 -418161
1.69872e+07 8.89802e+06 -6.38663e+06
-1.81529e+07 7.11466e+06 540342
1.20611e+07 -5.7497e+06 -3.6315e+06
-1.39052e+07 157044 3.1127e+06
6.68627e+06 -7.68717e+06 -1.09014e+06
-1.09178e+06 -9.98662e+06 3.71189e+06
-8.93438e+06 -6.5372e+06 -665382
8.65053e+06 -6.5793e+06 -19381.5
-1.29383e+07 -2.62676e+06 3.21587e+06
8.15561e+06 2.50737e+06 -3.02238e+06
3.32461e+06 536373 -473078
-4.30399e+06 1.64098e+06 -1.15203e+06
4.90393e+06 -1.17553e+06 2.55207e+06
-2.98611e+06 -1.2211e+07 1.32454e+06
3.77006e+06 -4.52709e+06 31299.1
-2.41678e+06 -163987 -3.68386e+06
1.16493e+07 -762030 5.58406e+06
-1.89433e+07 -3.05997e+06 -3.11113e+06
1.91941e+07 -8.27401e+06 -876995
-2.05913e+07 -7.22665e+06 -8.8913e+06
2.05797e+07 -4.1782e+06 656532
-1.308e+07 -7.82208e+06 -7.62031e+06
9.58559e+06 -1.13211e+07 44149.1
-1.28918e+07 -1.20447e+07 3.78507e+06
1.04112e+07 -1.67398e+07 1.1418e+07
-1.3493e+07 -9.66126e+06 8.59049e+06
1.75951e+07 -1.40068e+07 2.3995e+06
-1.18466e+07 -1.9178e+07 1.86586e+06
1.17647e+07 -1.59893e+07 9.2316e+06
-1.37737e+06 -1.76896e+07 -685993
-324929 -1.12602e+07 5.99425e+06
-6.10721e+06 -1.07249e+07 1.14717e+06
1.27017e+06 -1.05974e+07 3.41383e+06
-4.3985e+06 -8.42774e+06 -4.9629e+06
-8.39113e+06 -2.86492e+06 5.63842e+06
3.51021e+06 -78536.5 1.89415e+06
0 0 0
0 0 0
2.69735e+06 1.97706e+06 -389807
-9.26743e+06 -4.20326e+06 -838862
-4.07886e+06 4.63011e+06 2.94265e+06
5.91674e+06 -242684 2.49694e+06
1.99446e+06 2.19154e+06 -2.50573e+06
3.00058e+06 -7.1447e+06 357827
-3.2802e+06 945163 -631319
-1.00877e+06 4.99868e+06 2.82181e+06
4.52659e+06 -1.21163e+07 5.19768e+06
3.98467e+06 4.97087e+06 5.60388e+06
1.38301e+07 -1.02353e+06 3.38619e+06
1.27825e+06 -3.62108e+06 1.23916e+06
-1.00514e+07 -8.68053e+06 2.67975e+06
-9.1426e+06 7.37713e+06 -3.31603e+06
-7.26257e+06 -9.69552e+06 1.34224e+06
-1.2587e+07 -4.12326e+06 3.55627e+06
-2.96713e+06 9.06466e+06 -3.57892e+06
-5.88473e+06 -1.23992e+07 -1.1575e+06
-3.02971e+06 1.5562e+07 -1.38075e+07
-9.1906e+06 -1.73882e+07 -526766
-7.6128e+06 1.43058e+07 -5.12057e+06
-8.36257e+06 -1.45026e+07 -5.02655e+06
-1.28739e+07 6.19131e+06 1.35515e+06
-1.4755e+07 -1.10914e+06 -3.9741e+06
-2.79432e+07 -4.85631e+06 185838
-1.956e+07 -66747.9 919551
-1.6203e+07 -1.73337e+06 6.6139e+06
-1.78473e+07 -3.35798e+06 6.32975e+06
-1.31925e+07 4.89375e+06 -2.45422e+06
-1.26455e+07 -2.52163e+06 5.17655e+06
-2.16377e+07 6.9033e+06 3.11916e+06
-2.15079e+07 -9.45398e+06 -1.41444e+06
-2.64031e+07 6.3102e+06 3.66242e+06
-1.90981e+07 -6.54256e+06 7.80877e+06
-1.78176e+07 -818304 -1.43905e+06
-2.34454e+07 2.41488e+06 4.57784e+06
-1.26563e+07 1.5144e+06 5.87673e+06
-2.12947e+06 4.59511e+06 3.31498e+06
-572711 -3.77096e+06 -3.94845e+06
-5.822e+06 -721090 -660610
-5.63867e+06 1.0011e+07 -1.66026e+06
162094 -524728 -8.46002e+06
9.82734e+06 -1.04165e+07 -1.06117e+07
1.47016e+07 4.01714e+06 -47558
1.54075e+07 7.97359e+06 -2.71015e+06
1.73768e+07 -6.97247e+06 4.14257e+06
1.52968e+07 8.05236e+06 -6.8265e+06
1.27737e+07 -3.59879e+06 1.14882e+07
9.3817e+06 563601 1.76105e+06
8.23161e+06 -8.67964e+06 7.47689e+06
4.33127e+06 3.91706e+06 -841297
3.76838e+06 -1.65477e+06 2.63582e+06
3.6431e+06 1.72266e+06 -1.72458e+06
4.89803e+06 -988890 736022
0 0 0
0 0 0
4.98329e+06 1.1492e+06 36024.7
-2.61533e+06 1.2543e+06 2.69431e+06
6.85957e+06 481831 4.84812e+06
-1.1707e+07 5.866e+06 720362
7.78279e+06 1.03241e+07 1.30327e+07
-7.68341e+06 1.14375e+07 -3.0976e+06
7.93532e+06 1.44867e+07 5.4237e+06
-2.15823e+06 1.65583e+07 -4.9162e+06
-2.54558e+06 1.36384e+07 3.8367e+06
1.1527e+07 1.0855e+07 -1.20909e+06
-1.93157e+07 6.74556e+06 4.98756e+06
2.22283e+07 -6.55836e+06 -634786
-1.72033e+07 -1.21161e+07 2.82676e+06
1.2334e+07 -1.87529e+07 2.28875e+06
-8.07859e+06 -2.26878e+07 1.65705e+06
7.23512e+06 -1.74576e+07 5.40711e+06
-1.47198e+07 -1.32567e+07 1.00661e+07
1.32895e+07 -1.56884e+07 3.97744e+06
-1.68687e+07 -1.8738e+07 9.00223e+06
1.96077e+07 -1.14765e+07 -2.19968e+06
-1.04181e+07 1.39495e+06 5.58104e+06
6.53403e+06 2.26356e+06 -7.59141e+06
455721 8.52815e+06 2.04954e+06
-4.9085e+06 4.7213e+06 -4.21418e+06
3.71895e+06 -1.40644e+06 -370519
-2.12855e+06 2.55521e+06 -9.1785e+06
1.08554e+07 4.84518e+06 -8.30387e+06
-7.32189e+06 395841 -4.69529e+06
-1.87066e+06 -1.22388e+06 -813428
4.38558e+06 -4.06235e+06 -1.56159e+06
-1.01767e+07 -2.62377e+06 -4.56291e+06
6.2017e+06 571782 -4.53054e+06
-7.15892e+06 2.5515e+06 -2.48819e+06
9.80982e+06 -760703 -2.68959e+06
-3.69606e+06 -645767 -2.62903e+06
1.19972e+07 -1.27018e+06 1.00099e+06
-1.73326e+07 2.56309e+06 -6.03209e+06
1.55239e+07 4.35952e+06 1.73485e+06
-1.11402e+07 7.58981e+06 1.05075e+06
1.53959e+07 8.82952e+06 5.14121e+06
-1.09541e+07 5.36055e+06 -4.41774e+06
5.70465e+06 1.16422e+07 -3.65156e+06
-1.05613e+07 1.56304e+07 -9.14475e+06
1.02553e+07 1.53195e+07 -8.10746e+06
-1.11667e+07 2.02218e+07 -1.1063e+07
1.52506e+07 1.55417e+07 -7.80248e+06
-1.42933e+07 2.12524e+07 -3.71102e+06
1.09184e+07 2.86043e+07 -1.80089e+06
-9.97219e+06 2.21404e+07 -1.04391e+07
-1.30547e+06 1.8093e+07 -5.60475e+06
-5.75346e+06 7.24173e+06 -7.52735e+06
2.83387e+06 2.72775e+06 -1.96163e+06
-3.37971e+06 5.17604e+06 -3.14675e+06
7.89758e+06 750222 992264
1.89847e+06 4.18493e+06 -3.33276e+06
-7.39032e+06 824489 -6.68574e+06
0 0 0
0 0 0
-2.48287e+06 -1.24552e+06 -1.46028e+06
-8.51581e+06 -5.04114e+06 -9.09614e+06
-7.2661e+06 -531137 -4.52147e+06
-4.30857e+06 4.82059e+06 1.37445e+06
-1.26288e+07 -9.02086e+06 4.4635e+06
-1.06838e+07 2.05585e+06 654401
59886.3 -6.51658e+06 -3.22144e+06
-1.00285e+07 1.67645e+07 -2.47277e+06
-2.37848e+06 -1.68833e+07 -1.21877e+06
-1.06443e+06 1.64733e+07 3.67816e+06
-7.74216e+06 -3.68342e+06 -5.75841e+06
5.98241e+06 5.68811e+06 -1.0451e+07
9.26914e+06 -4.85219e+06 4.0148e+06
1.44001e+07 1.48646e+07 486259
1.34728e+07 -5.4365e+06 -2324.77
1.60309e+07 931680 -3.99859e+06
1.47287e+07 5.07516e+06 -6.8548e+06
9.95566e+06 -1.26924e+07 5.26521e+06
1.05597e+07 1.52819e+07 1.86175e+06
8.84231e+06 -1.62047e+07 6.40119e+06
1.02914e+07 1.71315e+07 -3.31686e+06
1.1156e+07 -1.31777e+07 -4.30936e+06
1.66566e+07 8.52345e+06 85260.2
2.21765e+07 -2.95869e+06 3.84588e+06
3.06034e+07 43120.8 2.70773e+06
2.35839e+07 3.53205e+06 544574
1.67722e+07 4.93409e+06 -4.50286e+06
1.98424e+07 5.19043e+06 3.14763e+06
9.06968e+06 1.35219e+06 -4.29218e+06
1.78738e+07 3.37052e+06 2.58517e+06
2.24767e+07 5.93503e+06 -4.00829e+06
2.72871e+07 -3.21185e+06 -2.39689e+06
2.32855e+07 7.12048e+06 -2.49174e+06
1.85827e+07 808013 -1.12781e+06
1.07983e+07 -4.08221e+06 -5.92334e+06
1.88471e+07 1.22259e+07 -4.17302e+06
1.46297e+07 -9.92701e+06 1.42581e+06
1.96384e+06 7.95772e+06 -1.68109e+06
-703926 -1.47663e+07 -4.56072e+06
1.17181e+06 -204576 -2.60435e+06
6.42971e+06 7.20446e+06 3.25907e+06
6.35129e+06 1.02502e+07 -1.38667e+06
-6.70493e+06 -1.60392e+07 754670
-3.45971e+06 6.1041e+06 -1.53198e+06
-1.03891e+07 -429868 -39620
-2.12476e+07 2.49037e+06 358632
-2.37721e+07 -170511 -1.35462e+07
-2.48784e+07 -2.3092e+06 3.16107e+06
-1.72878e+07 -1.18435e+06 -7.13134e+06
-1.08279e+07 -576368 -4.29926e+06
-5437.87 8.72739e+06 -4.95457e+06
7.0219e+06 -8.08789e+06 -807382
1.50668e+06 8.95414e+06 -449675
-2.25568e+06 -8.68745e+06 4.11135e+06
-3.6103e+06 4.42246e+06 9.69004e+06
0 0 0
0 0 0
8.3385e+06 -1.11162e+06 -1.12552e+06
-9.65887e+06 -1.54275e+06 -1.71428e+06
1.50554e+07 447007 -3.61538e+06
-1.28054e+07 -3.77612e+06 -8.06989e+06
1.32827e+07 -5.65127e+06 -375941
-1.05858e+07 -9.00886e+06 -7.01938e+06
37143.3 -9.33041e+06 6.60368e+06
-3.1919e+06 -4.72495e+06 -984215
-1.83656e+06 -1.24515e+07 3.42265e+06
1.21948e+07 -1.56871e+07 -8.11478e+06
-1.88237e+07 -4.05512e+06 -3.43326e+06
2.01829e+07 6.54618e+06 -305130
-1.50722e+07 1.42233e+07 4.56573e+06
8.24712e+06 1.48255e+07 -2.69413e+06
-2.46576e+06 1.80622e+07 -4.63036e+06
1.99285e+06 1.02393e+07 -3.42138e+06
-9.7661e+06 9.86648e+06 194945
1.37843e+07 1.36499e+07 -1.27396e+07
-1.12753e+07 1.50565e+07 1.34818e+06
1.61483e+07 1.19184e+07 -7.75288e+06
-1.74359e+06 3.67268e+06 3.52944e+06
-2.81889e+06 1.79205e+06 -1.91718e+06
-677211 -8.3517e+06 6.99326e+06
-1.02103e+07 -3.16777e+06 4.24237e+06
3.99823e+06 -164211 7.22921e+06
3.48836e+06 -353508 6.32322e+06
3.17353e+06 -6.69791e+06 4.36159e+06
2.30305e+06 -4.13218e+06 1.03563e+07
-5.04156e+06 504621 1.09718e+06
1.08227e+07 -4.99403e+06 2.61583e+06
-1.2978e+07 -1.92707e+06 -484714
1.69436e+07 -1.91233e+06 5.77024e+06
-2.13163e+07 1.62322e+06 4.78339e+06
1.49416e+07 1.58342e+06 774792
-1.32843e+07 1.57829e+06 117768
6.93302e+06 -6.99832e+06 7.47651e+06
-8.8945e+06 802524 882092
6.18674e+06 -1.66013e+06 1.2277e+06
-1.261e+07 -533218 -3.68408e+06
1.00543e+07 2.73003e+06 4.57936e+06
-1.69193e+07 -8.62166e+06 -5.58964e+06
9.34686e+06 -1.15505e+07 1.73443e+06
-1.18048e+07 -1.24938e+07 3.11919e+06
1.13332e+07 -1.91187e+07 1.65093e+07
-1.28871e+07 -1.95949e+07 4.73855e+06
2.36973e+07 -1.59884e+07 5.17377e+06
-1.76017e+07 -2.74198e+07 -574525
1.60388e+07 -3.34683e+07 8.30769e+06
-9.12842e+06 -2.78358e+07 -6.36145e+06
5.45655e+06 -2.49357e+07 6.05392e+06
1.41526e+06 -1.2137e+07 -2.67512e+06
4.56836e+06 -5.27688e+06 -759741
-7.75621e+06 1.69051e+06 -8.58983e+06
8.25843e+06 6.11057e+06 1.65398e+06
-1.32878e+07 1.80325e+06 -8.10714e+06
6.54187e+06 -1.82193e+06 2.64353e+06
1.3864e+07 8.03291e+06 8.41128e+06
0 0 0
0 0 0
5.0119e+06 -5.96629e+06 -727365
7.24017e+06 3.98301e+06 3.24118e+06
9.09313e+06 -6.21755e+06 4.12727e+06
1.58295e+07 2.06781e+07 1.08833e+06
1.72784e+07 -1.67526e+07 -2.44533e+06
1.80713e+07 1.66589e+07 -501608
1.76367e+07 -1.62338e+07 -2.89943e+06
1.2459e+07 1.67778e+07 3.53971e+06
1.66827e+07 -2.17666e+07 -2.9662e+06
4.79654e+06 1.4196e+07 4.58121e+06
630110 -1.05765e+07 -2.04564e+06
-1.18327e+06 1.37558e+07 4.42826e+06
-1.46908e+07 -1.27171e+07 3.38826e+06
-1.76319e+07 1.6603e+07 3.47438e+06
-2.27345e+07 -5.65504e+06 3.8736e+06
-1.9896e+07 2.66589e+06 4.91799e+06
-1.97841e+07 5.29734e+06 -2.82924e+06
-9.60778e+06 -7.34691e+06 -4.31764e+06
-1.55594e+07 5.29253e+06 -1.45213e+07
-6.7538e+06 -370517 -2.64078e+06
-4.68112e+06 -620451 1.04925e+06
-1.10876e+07 -3.122e+06 -5.22876e+06
-1.2876e+07 100281 1.80687e+06
-2.54055e+07 6.42994e+06 -9.21814e+06
-1.98433e+07 2.22083e+06 -8.96857e+06
-1.71697e+07 2.6641e+06 -9.8041e+06
-1.28548e+07 4.04983e+06 -2.60688e+06
-6.4061e+06 -7.69085e+06 -3.55104e+06
-8.06338e+06 524735 -1.20559e+07
-1.25296e+07 2.03114e+06 -4.9319e+06
-2.08357e+07 -2.69164e+06 -3.71216e+06
-1.81587e+07 -6.23568e+06 -9.00675e+06
-1.23282e+07 2.31512e+06 2.03011e+06
-1.67585e+07 -4.77208e+06 1.00516e+06
-1.20704e+07 -1.40675e+06 -2.20644e+06
-8.8395e+06 1.58039e+07 -1.73716e+06
-1.23823e+07 -1.93459e+07 3.40918e+06
-1.08269e+07 1.52252e+07 494286
-3.5609e+06 -1.40888e+07 -4.17215e+06
1.35446e+06 9.64571e+06 144613
-2.91232e+06 -3.593e+06 4.09438e+06
-7.15365e+06 1.31085e+07 -2.99651e+06
1.52049e+06 -1.09684e+07 -2.25004e+06
1.26758e+07 7.56351e+06 1.04437e+06
1.49317e+07 -9.74862e+06 5.50816e+06
2.05975e+07 2.12723e+06 3.60077e+06
2.158e+07 -8.97344e+06 -3.70933e+06
1.57564e+07 6.02037e+06 8.45156e+06
2.05489e+07 -81517.5 4.42385e+06
1.07248e+07 -3.8108e+06 1.98172e+06
-4.96638e+06 1.00236e+07 1.58734e+06
-1.33141e+07 -1.39094e+07 -2.51204e+06
-7.492e+06 9.13248e+06 1.75759e+06
-6.40856e+06 -1.91371e+07 -4.33221e+06
-6.39873e+06 1.23142e+07 424553
1.98073e+06 -8.99121e+06 -1.19695e+07
0 0 0
0 0 0
895402 -563732 -1.70751e+06
-1.61168e+07 -2.95051e+06 407851
1.43002e+07 -3.87761e+06 4.53809e+06
-1.2278e+07 87520.6 101551
1.53785e+07 1.03401e+07 1.08845e+07
-9.44556e+06 7.13109e+06 -1.15994e+06
1.12851e+07 1.51896e+07 6.23823e+06
-9.36263e+06 6.95293e+06 -4.75874e+06
-2.27528e+06 9.48701e+06 4.29822e+06
5.8304e+06 9.2966e+06 -4.76122e+06
-1.53174e+07 6.75435e+06 4.61301e+06
2.0915e+07 -1.05174e+06 -6.2818e+06
-1.74732e+07 -9.98584e+06 -2.2868e+06
2.82055e+06 -1.30382e+07 -789776
4.84502e+06 -6.75346e+06 -1.58793e+06
-1.65077e+06 -5.85862e+06 2.30614e+06
-1.87394e+06 -1.1769e+07 4.27795e+06
6.57049e+06 -1.60614e+07 1.77917e+06
-1.14448e+07 -2.0758e+07 6.03466e+06
1.28965e+07 -1.3111e+07 741181
-329934 -5.97135e+06 2.0693e+06
713247 9.66998e+06 -4.30641e+06
-4.40984e+06 1.16326e+07 -3.11037e+06
-7.58528e+06 6.00796e+06 479171
-629538 78967.3 -6.16943e+06
1.92653e+06 5.31923e+06 -4.53573e+06
-7.30688e+06 -1.21685e+06 -1.18005e+07
6.71447e+06 3.81685e+06 1.02307e+06
-7.80232e+06 6.5448e+06 -1.85035e+06
1.42097e+07 531676 5.04446e+06
-9.70448e+06 1.17466e+06 -7.07897e+06
1.43689e+07 -2.64411e+06 2.50936e+06
-1.46762e+07 -1.31115e+06 -2.69332e+06
2.18433e+07 -3.65803e+06 635539
-1.71887e+07 3.37271e+06 -2.83816e+06
5.77566e+06 -463050 1.70726e+06
-5.60092e+06 -980632 -6.57846e+06
9.19268e+06 -394370 2.2424e+06
-1.0168e+07 -6.0915e+06 3.83868e+06
1.81762e+07 -7.42492e+06 9.43214e+06
-1.14119e+07 4.05542e+06 60436.8
1.17262e+07 1.29547e+07 417286
-1.31627e+07 1.34254e+07 -6.05173e+06
1.92421e+07 2.55103e+07 -1.74621e+06
-1.9255e+07 1.96914e+07 -3.62627e+06
1.99678e+07 2.37989e+07 -10056.4
-2.98432e+07 2.19698e+07 4.72703e+06
2.22738e+07 2.42038e+07 3.75536e+06
-5.25495e+06 3.22586e+07 194645
5.55471e+06 2.75042e+07 4.06334e+06
4.43679e+06 2.23491e+07 6.17863e+06
2.33821e+06 1.12336e+07 1.66991e+06
-5.60154e+06 -1.00014e+06 6.69528e+06
1.24258e+07 -4.96497e+06 4.91974e+06
-1.38182e+07 -8.13482e+06 2.43887e+06
1.78587e+07 -6.4913e+06 1.603e+06
-8.88566e+06 9.90853e+06 -4.24589e+06
-1.68332e+07 -3.22467e+06 -8.19882e+06
0 0 0
0 0 0
-6.0383e+06 -2.45265e+06 -1.55326e+06
-3.17167e+06 7.12915e+06 -6.49624e+06
-7.9329e+06 -4.44838e+06 -5.78432e+06
-8.82749e+06 9.01073e+06 -639120
-1.51756e+07 -1.83683e+07 4.00191e+06
-1.98508e+07 1.58306e+07 647082
-2.20879e+07 -2.20567e+07 -1.19898e+06
-2.00954e+07 1.7235e+07 826571
-1.64072e+07 -2.55961e+07 -3.21432e+06
-9.94824e+06 2.43621e+07 2.66544e+06
4.81693e+06 -1.78544e+07 -8.11871e+06
4.88788e+06 1.07097e+07 -9.69214e+06
1.38717e+07 -1.90845e+07 1.87171e+06
2.6084e+07 1.53293e+07 1.77189e+06
2.55093e+07 -1.51086e+07 -5.61399e+06
2.10884e+07 9.93794e+06 -3.75366e+06
1.8666e+07 -233324 -3.22761e+06
2.0015e+07 -3.04613e+06 1.33177e+07
2.0288e+07 3.47457e+06 1.26413e+07
1.34487e+07 4.74526e+06 1.3059e+07
1.80928e+07 -8.62467e+06 1.0548e+07
1.03941e+07 1.26492e+07 4.762e+06
8.98711e+06 -1.00393e+07 1.4615e+07
1.88305e+07 4.20958e+06 1.32345e+07
2.00815e+07 -314541 1.38758e+07
1.79611e+07 -4.84039e+06 5.19669e+06
8.13604e+06 7.11962e+06 8.54015e+06
7.21093e+06 -7.86663e+06 9.75984e+06
5.02289e+06 2.14644e+06 1.10528e+07
3.81168e+06 2.59323e+06 8.45828e+06
1.70796e+07 -652642 9.12714e+06
2.48474e+07 4.05735e+06 3.32388e+06
2.08583e+07 -3.21664e+06 9.03613e+06
1.84219e+07 -736443 2.95415e+06
1.40325e+07 -5.45691e+06 4.61082e+06
1.20281e+07 1.28173e+07 755146
1.27721e+07 -1.77111e+07 3.85926e+06
1.05817e+07 1.47293e+07 1.4358e+06
3.57177e+06 -1.52112e+07 -7.8132e+06
4.93536e+06 1.58537e+07 -2.2306e+06
4.28065e+06 -1.45431e+07 1.1838e+06
9.31514e+06 1.10779e+07 3.59891e+06
-729162 -7.20311e+06 2.16843e+06
-8.95608e+06 1.99972e+06 -1.61473e+06
-9.1156e+06 -983089 1.58705e+06
-1.14907e+07 5.18244e+06 -308790
-1.86826e+07 -7.65466e+06 -7.10502e+06
-2.57215e+07 6.70255e+06 4.43242e+06
-1.38989e+07 -4.58354e+06 872716
-1.18029e+07 -4.01284e+06 -4.26175e+06
-3.15009e+06 1.02608e+07 916917
1.1748e+06 -1.39755e+07 582975
1.74067e+07 1.81505e+07 -2.22807e+06
1.63243e+07 -1.80305e+07 3.74851e+06
5.46439e+06 1.30761e+07 8.41615e+06
1.06456e+07 -3.60338e+06 2.53791e+06
1.58063e+07 7.94549e+06 1.08406e+07
0 0 0
0 0 0
6.65918e+06 828444 -384177
-8.2978e+06 7.42525e+06 -4.32109e+06
9.5845e+06 3.43163e+06 -2.17347e+06
-8.67809e+06 -8.17974e+06 -8.53634e+06
1.33001e+07 -4.85636e+06 -3.71362e+06
-8.13533e+06 -1.5179e+07 -6.08043e+06
1.27737e+07 -1.23845e+07 3.55656e+06
-1.28553e+07 -1.44515e+07 1.29789e+06
1.37463e+06 -6.61746e+06 5.97381e+06
4.63068e+06 -3.26329e+06 -3.10963e+06
-7.849e+06 -7.64131e+06 1.98539e+06
7.43027e+06 -3.73115e+06 6.34266e+06
-3.3576e+06 -71152.6 7.7769e+06
-1.86728e+06 8.52242e+06 6.8362e+06
7.03316e+06 6.1183e+06 -1.38726e+06
-8.25186e+06 3.8743e+06 3.79687e+06
-289890 1.2468e+07 -2.46325e+06
4.25161e+06 1.7198e+07 -9.69554e+06
-8.38788e+06 1.97679e+07 -910832
1.32399e+07 1.70109e+07 -1.32948e+06
-3.59681e+06 -2.54223e+06 2.83943e+06
833160 -1.42609e+07 2.24268e+06
-1.64764e+06 -2.21111e+07 2.20133e+06
3.52633e+06 -7.65491e+06 4.85246e+06
-2.8845e+06 -5.13276e+06 815753
1.01454e+07 425854 6.03223e+06
-8.55801e+06 1.64158e+06 1.04365e+06
2.06249e+06 -6.27031e+06 9.14333e+06
-6.04615e+06 -3.65395e+06 93218.3
5.08029e+06 3.36398e+06 3.28373e+06
-7.94071e+06 3.56113e+06 -1.52318e+06
6.76281e+06 3.85144e+06 5.82309e+06
-1.8915e+07 3.7321e+06 7.1423e+06
1.69247e+07 -731554 -56305.6
-2.0974e+07 421461 5.09292e+06
1.29281e+07 7.54844e+06 6.29618e+06
-4.85866e+06 7.86963e+06 5.90695e+06
1.04189e+07 3.33635e+06 -2.66622e+06
-1.4585e+07 6.02628e+06 1.13584e+06
1.79858e+07 6.51243e+06 -634189
-1.90365e+07 -2.08812e+06 -1.09385e+06
8.57714e+06 -8.96109e+06 -6.34591e+06
-8.41919e+06 -1.07793e+07 687823
1.3548e+07 -1.85758e+07 1.99301e+06
-1.64022e+07 -2.52945e+07 1.66113e+06
1.55603e+07 -2.0267e+07 -6.13925e+06
-3.15955e+07 -2.3923e+07 352959
2.2376e+07 -2.18898e+07 -4.03574e+06
-1.44973e+07 -2.58358e+07 -4.60265e+06
-692738 -3.09679e+07 -2.26929e+06
2.22612e+06 -2.50412e+07 3.26595e+06
-37666.7 -1.74416e+07 -5.76705e+06
-4.76535e+06 -6.90759e+06 219743
1.23324e+07 -298802 -3.61457e+06
-1.44216e+07 1.0228e+07 376776
1.59414e+07 7.60136e+06 -2.20101e+06
-1.90579e+07 9.23367e+06 4.84923e+06
2.88034e+07 -5.36353e+06 -1.79506e+06
1.70824e+07 3.3589e+06 -1.44932e+06
0 0 0
0 0 0
1.6045e+06 -7.56545e+06 -38204.1
42588.1 -4.23788e+06 5.27336e+06
-3.01764e+06 6.13228e+06 2.15031e+06
6.92222e+06 1.20629e+07 -33460.1
1.27792e+07 -1.42687e+07 709674
1.99236e+07 2.01282e+07 -2.57792e+06
2.84275e+07 -1.74101e+07 -2.32608e+06
2.60705e+07 2.33955e+07 2.21942e+06
2.23486e+07 -2.08346e+07 -291358
7.66296e+06 1.91592e+07 2.08113e+06
-2.76219e+06 -1.1109e+07 895642
-7.85425e+06 1.60075e+07 1.04551e+06
-1.05052e+07 -1.46622e+07 5.65882e+06
-2.42631e+07 1.47956e+07 5.51145e+06
-2.59431e+07 -1.67723e+07 5.78659e+06
-1.65516e+07 1.54957e+07 6.99194e+06
-1.87775e+07 -5.13334e+06 3.36058e+06
-2.54355e+07 -1.29002e+06 2.08586e+06
-2.67203e+07 -4.58785e+06 -1.34501e+07
-2.92984e+07 1.23083e+07 -6.11819e+06
-2.41878e+07 -1.28113e+07 -6.50507e+06
-2.54103e+07 1.32208e+07 -1.08681e+07
-1.84352e+07 -4.90399e+06 -5.83758e+06
-1.97987e+07 1.41679e+06 -8.87463e+06
-2.54958e+07 -602576 -1.4132e+07
-1.67535e+07 -188971 -5.87789e+06
-6.59493e+06 254996 -3.18559e+06
290588 6.19785e+06 2.38597e+06
-1.24662e+06 -4.54831e+06 -1.24437e+07
-9.49833e+06 1.08883e+07 -2.63092e+06
-1.47681e+07 -7.42036e+06 -9.16236e+06
-2.04931e+07 1.40183e+07 -1.01624e+07
-2.17319e+07 -9.39882e+06 -6.25443e+06
-1.59887e+07 5.07283e+06 -3.12501e+06
-1.20292e+07 -8.61182e+06 -8.35801e+06
-1.18547e+07 1.45237e+07 428504
-1.36445e+07 -2.08331e+07 -446534
-1.21689e+07 1.57201e+07 9.54919e+06
-2.63563e+06 -1.37953e+07 -3.50721e+06
-1.63121e+06 1.75537e+07 7.59208e+06
-2.47214e+06 -1.45941e+07 4.6857e+06
-6.34789e+06 1.92025e+07 5.44076e+06
-5.48551e+06 -1.10267e+07 307204
572767 252071 -516023
3.82447e+06 498268 778626
1.52191e+07 5.10738e+06 -6.71582e+06
2.0338e+07 -1.25222e+07 -6.22607e+06
2.49887e+07 1.23082e+07 981831
3.12001e+07 -3.0823e+06 3.06228e+06
1.36166e+07 -5.09369e+06 684363
3.04984e+06 2.98296e+06 2.3259e+06
-8.14292e+06 -1.04227e+07 3.60474e+06
-1.3613e+07 1.39876e+07 -3.36794e+06
-1.13364e+07 -1.20325e+07 -2.81824e+06
-1.09324e+07 6.86705e+06 -5.23801e+06
-1.32776e+07 -2.55287e+06 -1.02248e+07
-2.24254e+07 182005 -6.94795e+06
-2.5221e+07 227953 -7.59124e+06
0 0 0
0 0 0
720258 -3.11941e+06 -1.4346e+06
-7.39792e+06 -4.68822e+06 897008
7.72933e+06 4.32635e+06 5.27381e+06
-1.02044e+07 5.66176e+06 2.41939e+06
1.42216e+07 1.3037e+07 6.55616e+06
-2.23406e+07 1.11753e+07 -554060
1.90113e+07 1.24927e+07 -2.77198e+06
-1.21651e+07 1.26291e+07 -4.2117e+06
6.28397e+06 7.30477e+06 -1.6617e+06
307933 7.701e+06 -4.81848e+06
2.44918e+06 9.51112e+06 -2.83257e+06
-3.34445e+06 1.43436e+07 -7.40418e+06
5.19883e+06 7.83929e+06 -1.22996e+07
-1.58302e+07 785200 1.2502e+06
6.95866e+06 -7.82192e+06 -7.71272e+06
-1.13694e+07 -6.27462e+06 3.48773e+06
2.86244e+06 -9.90403e+06 -2.32964e+06
4.47857e+06 -1.53497e+07 4.14542e+06
-5.61321e+06 -1.64282e+07 1.04599e+06
8.00176e+06 -1.80459e+07 506722
-3.94522e+06 -8.90106e+06 -2.6371e+06
4.90049e+06 9.65455e+06 -5.12639e+06
-7.70493e+06 2.14616e+07 -7.22493e+06
4.88187e+06 1.98404e+07 -178983
-2.52431e+06 6.6312e+06 -5.42148e+06
9.16813e+06 3.7202e+06 -3.00272e+06
-9.07405e+06 -5.43842e+06 -9.2176e+06
1.16893e+07 1.14257e+06 -2.1548e+06
-1.9822e+06 6.93824e+06 -3.13728e+06
288586 -2.7981e+06 -589121
-3.22943e+06 -1.3665e+06 -1.28456e+07
6.4773e+06 -3.35175e+06 -4.13561e+06
-1.6535e+07 -1.09416e+07 -5.54872e+06
2.05591e+07 266497 -7.55662e+06
-1.71334e+07 -152106 -6.52033e+06
1.85483e+07 -7.22068e+06 -7.91809e+06
-1.68981e+07 -1.38708e+07 -8.31562e+06
1.70971e+07 -1.30952e+07 -4.79773e+06
-1.85458e+07 -1.41352e+07 3.20887e+06
2.17829e+07 -1.76179e+07 2.95068e+06
-2.04876e+07 -4.02168e+06 3.15695e+06
2.26586e+07 3.12437e+06 734295
-1.01726e+07 7.30837e+06 603354
4.66486e+06 1.42226e+07 -3.85499e+06
-7.27654e+06 1.87218e+07 654806
9.24078e+06 1.51594e+07 -425294
-1.42282e+07 1.86501e+07 8.78637e+06
2.18934e+07 2.32999e+07 5.04227e+06
-2.07675e+07 2.47259e+07 5.50318e+06
4.13517e+06 2.49315e+07 5.80249e+06
343705 2.03736e+07 9.17422e+06
-7.31112e+06 1.56971e+07 663097
-8.68644e+06 6.67275e+06 1.20333e+07
1.12448e+07 -146215 5.6887e+06
-1.15353e+07 -3.21677e+06 1.35771e+07
7.19519e+06 -1.24554e+07 -26960.4
-5.86576e+06 -9.28519e+06 5.13746e+06
6.19391e+06 -8.67308e+06 -3.04297e+06
-1.98459e+07 -951397 3.3544e+06
-5.95128e+06 -3.36848e+06 7.07294e+06
0 0 0
0 0 0
5.70717e+06 2.85589e+06 -960070
554689 -5.45611e+06 -2.07266e+06
4.93642e+06 9.31723e+06 -7.93975e+06
-4.59607e+06 799423 7.05438e+06
-1.75543e+07 -1.72179e+07 7.54753e+06
-2.16173e+07 1.55424e+07 2.3169e+06
-2.69342e+07 -1.50717e+07 -3.72623e+06
-2.29015e+07 2.11785e+07 3.74145e+06
-1.8667e+07 -1.79654e+07 -206386
-1.15906e+07 1.02614e+07 7.13296e+06
1.15092e+06 -8.3257e+06 -926917
293159 1.07221e+06 -1.17263e+07
-238910 -7.93865e+06 4.18304e+06
1.61352e+07 1.15736e+07 -1.70011e+06
2.13235e+07 -2.04549e+06 -7.95242e+06
1.81529e+07 1.54013e+06 -1.30321e+07
1.59055e+07 -1.70506e+06 -1.0126e+07
2.30044e+07 6.62047e+06 4.16173e+06
2.24469e+07 -1.22961e+07 2.72726e+06
2.71192e+07 1.22203e+07 822061
2.47006e+07 -1.54161e+07 -1.73676e+06
2.35257e+07 9.14652e+06 -2.26724e+06
1.37551e+07 -1.54638e+07 5.27753e+06
1.2156e+07 2.30416e+06 1.49145e+07
2.64371e+07 1.57253e+06 3.15019e+06
1.43413e+07 -3.13691e+06 1.95018e+06
1.1539e+07 3.93753e+06 -7.03445e+06
4.62935e+06 853369 6.51179e+06
3.61977e+06 -1.42826e+06 2.03258e+06
5.82759e+06 2.13115e+06 8.40464e+06
1.05666e+07 -1.52417e+07 2.8923e+06
1.20149e+07 1.5676e+07 8.04501e+06
1.2943e+07 -6.17003e+06 5.13463e+06
9.75832e+06 7.84051e+06 3.09489e+06
7.65519e+06 -8.7136e+06 -3810.6
1.03842e+07 1.66219e+07 -88264.8
1.67015e+07 -1.29495e+07 -2.36552e+06
1.01426e+07 1.32296e+07 3.87408e+06
115973 -1.44566e+07 -7.8236e+06
502197 1.78825e+07 -5.18196e+06
-3.45064e+06 -1.57598e+07 -3.30331e+06
3.26322e+06 1.46101e+07 1.3905e+06
7.04772e+06 -9.23603e+06 4.66448e+06
-3.2207e+06 -3.4931e+06 1.0073e+06
-1.08464e+07 4.54026e+06 4.43632e+06
-9.86047e+06 1.26726e+06 -1.98635e+06
-2.22813e+07 -1.05398e+07 -5.20283e+06
-2.73387e+07 1.3347e+07 2.50543e+06
-2.26623e+07 -5.9787e+06 -3.12756e+06
-1.55866e+07 -1.75832e+06 -5.00759e+06
-5.11276e+06 7.11825e+06 -3.2964e+06
1.38638e+07 -338601 5.20481e+06
2.37878e+07 5.41467e+06 -8.92402e+06
1.19532e+07 -6.63103e+06 4.77901e+06
8.25833e+06 -1.25939e+06 3.69803e+06
3.07288e+06 1.83898e+06 4.19015e+06
1.60995e+07 7.37959e+06 1.23095e+07
2.88384e+07 -1.43204e+06 -2.63599e+06
2.16116e+07 -1.02868e+07 411416
0 0 0
0 0 0
3.45084e+06 612838 676692
-4.79891e+06 4.20678e+06 -2.10612e+06
1.21976e+07 -783982 2.42811e+06
-8.82155e+06 -5.94681e+06 -3.24896e+06
1.50296e+07 -1.21884e+07 -2.63409e+06
-2.51428e+07 -1.31628e+07 -1.07869e+06
1.83631e+07 -1.69042e+07 407328
-1.5866e+07 -1.60774e+07 4.41625e+06
7.44735e+06 -9.01806e+06 5.95766e+06
-8.74437e+06 -7.85964e+06 1.48831e+06
1.47585e+07 -1.66551e+07 1.98033e+06
-1.07923e+07 -1.51251e+07 7.13449e+06
1.15226e+07 -1.75491e+07 5.95582e+06
-9.50604e+06 -4.26782e+06 1.10733e+07
1.33451e+07 259349 500189
509475 7.84392e+06 1.01386e+07
5.00455e+06 1.04356e+07 -841604
-3.3955e+06 1.42758e+07 -2.2232e+06
-8.18472e+06 2.47354e+07 1.5103e+06
4.29591e+06 1.46052e+07 2.05565e+06
-7.48611e+06 9.51074e+06 5.57566e+06
1.73474e+07 -4.52623e+06 2.34634e+06
-9.94726e+06 -1.1599e+07 1.90184e+06
2.26015e+06 -1.00846e+07 676790
-4.01742e+06 -9.19238e+06 3.15213e+06
-2.99112e+06 -544240 2.94965e+06
-1.11135e+07 3.04006e+06 4.22468e+06
1.04572e+07 -2.49738e+06 3.20728e+06
-4.42146e+06 -6.87953e+06 3.05276e+06
-4.51485e+06 -5.06337e+06 905787
-1.11396e+06 -3.4788e+06 -770777
2.50982e+06 2.78491e+06 3.57927e+06
-6.22351e+06 9.12474e+06 8.65124e+06
2.09457e+07 1.17786e+07 -661606
-1.84904e+07 997142 6.76407e+06
1.43303e+07 7.06589e+06 7.20657e+06
-2.18595e+07 7.78248e+06 6.10971e+06
2.10086e+07 2.0197e+07 -526988
-2.68732e+07 1.8495e+07 -1.0888e+06
2.74386e+07 1.64697e+07 -2.28496e+06
-2.86711e+07 1.30899e+07 -3.08111e+06
2.4123e+07 5.9179e+06 -2.25326e+06
-1.55038e+07 -155464 931212
7.26859e+06 -2.12367e+06 2.36558e+06
-1.18041e+07 -8.96595e+06 -5.19603e+06
9.36238e+06 -7.91314e+06 -4.42919e+06
-8.50372e+06 -1.37832e+07 -7.35026e+06
1.71094e+07 -2.12124e+07 -4.22491e+06
-1.32204e+07 -2.6907e+07 -1.27735e+07
9.15296e+06 -2.64534e+07 -4.11485e+06
6.10583e+06 -2.05307e+07 -7.53899e+06
-2.26718e+06 -8.57497e+06 -1.05123e+07
2.94382e+06 -4.58861e+06 -8.26236e+06
1.22032e+07 5.65085e+06 -8.53943e+06
-9.1192e+06 8.0787e+06 -4.13103e+06
7.52507e+06 1.25372e+07 -7.4994e+06
895176 1.64441e+07 3.32978e+06
-4.10438e+06 9.26004e+06 -7.88496e+06
-4.12423e+06 2.71643e+06 -809226
1.67322e+07 3.43618e+06 -2.94646e+06
7.25566e+06 -263499 -4.71214e+06
0 0 0
0 0 0
616946 -216436 1.4327e+06
971443 -7.86865e+06 4.93812e+06
4.88477e+06 7.21243e+06 -323394
2.70979e+06 -1.13555e+06 2.88959e+06
1.92064e+07 -7.55148e+06 -4.00387e+06
1.79506e+07 7.29175e+06 -4.22968e+06
1.1957e+07 -9.13745e+06 -1.24054e+07
1.91461e+07 1.34557e+07 3.21817e+06
-455609 -1.7788e+07 -4.70855e+06
3.12143e+06 1.84834e+07 2.62449e+06
7.53453e+06 -1.00643e+07 -2.12168e+06
8.97905e+06 3.02328e+06 -3.05916e+06
-6.09082e+06 -1.1824e+07 4.36661e+06
-1.254e+07 1.16079e+07 6.15788e+06
-2.15376e+07 -8.23186e+06 1.28882e+07
-1.9874e+07 684315 9.27656e+06
-8.64132e+06 -4.89042e+06 1.13349e+07
-1.32977e+07 6.69265e+06 3.86641e+06
-1.496e+07 -1.14058e+07 -2.06302e+06
-6.36514e+06 1.48972e+07 -789275
-9.00456e+06 -1.47354e+07 8.0546e+06
2.15386e+06 1.05544e+07 -4.97646e+06
5.0944e+06 -1.46977e+07 5.71447e+06
-1.87762e+06 1.46024e+07 -1.46489e+06
-7.78062e+06 -2.39492e+06 -5.46454e+06
-2.46963e+07 -1.39414e+07 -2.98571e+06
-1.96084e+07 1.18732e+07 725155
-1.89187e+07 -1.13731e+07 2.26049e+06
-2.87143e+06 3.03812e+06 -5.86718e+06
-8.64482e+06 -1.62421e+06 -2.64903e+06
-1.09636e+07 -1.07833e+07 -2.82359e+06
-1.47759e+07 1.18918e+07 -8.9931e+06
-1.16161e+07 -9.79742e+06 3.86622e+06
-6.79185e+06 1.1837e+07 -4.78274e+06
-5.42174e+06 -9.24199e+06 1.294e+06
-6.61896e+06 7.97779e+06 -3.74858e+06
-9.81781e+06 -9.53529e+06 2.8929e+06
-9.2177e+06 8.69269e+06 5.38364e+06
-8.47257e+06 -1.92432e+07 4.92869e+06
-5.00817e+06 1.85359e+07 319182
4.20287e+06 -1.75961e+07 3.36275e+06
1.65112e+06 1.07897e+07 -4.73427e+06
-1.57786e+06 -2.34814e+06 -1.58786e+06
7.43024e+06 -5.45757e+06 -1.64852e+06
4.67182e+06 4.26958e+06 4.23378e+06
7.54151e+06 4.35965e+06 -2.45048e+06
1.18377e+07 -9.21335e+06 -958593
2.16145e+07 8.29145e+06 5.38722e+06
2.1553e+07 -5.39698e+06 3.52227e+06
1.50344e+07 2.11175e+06 3.69025e+06
8.95235e+06 8.53961e+06 612635
-1.06603e+07 -2.85606e+06 6.78453e+06
-1.54272e+07 -737791 -657045
-1.32051e+07 5.15615e+06 -1.13047e+06
-7.51044e+06 -1.06795e+07 -494947
-8.58014e+06 920055 -1.52169e+07
-1.80763e+07 6.39483e+06 -1.96715e+06
-2.63995e+07 -1.58034e+06 -1.34125e+07
-1.57655e+07 -3.02185e+06 8.51037e+06
-966162 7.02614e+06 366056
0 0 0
0 0 0
5.36164e+06 -390464 -1.79326e+06
-2.07584e+06 163412 -478034
1.27598e+07 -1.45387e+06 3.41313e+06
-1.29149e+07 2.61482e+06 3.683e+06
1.14792e+07 4.58182e+06 2.36353e+06
-9.75398e+06 1.07231e+07 2.93991e+06
1.65053e+07 1.69303e+07 -8.90106e+06
-8.50504e+06 1.56126e+07 -1.0529e+06
1.69991e+07 1.82478e+07 -4.21474e+06
-1.97024e+07 1.76125e+07 -36701.4
1.78876e+07 1.46293e+07 -5.45156e+06
-1.92334e+07 1.18626e+07 -5.08279e+06
8.60177e+06 1.03289e+07 -1.58075e+07
-5.15974e+06 1.22913e+07 2.76072e+06
2.87747e+06 2.27403e+06 -9.67407e+06
-1.18355e+07 -6.60103e+06 3.94494e+06
9.36975e+06 -1.35369e+07 -4.43781e+06
-439901 -1.25841e+07 6.48699e+06
-2.40883e+06 -1.21924e+07 -501185
6.05846e+06 -1.69044e+07 -517222
-1.37891e+07 -2.33945e+06 -1.59376e+06
7.99698e+06 -4.64303e+06 -5.22066e+06
-5.64978e+06 1.76695e+06 -3.87585e+06
7.43052e+06 6.84744e+06 473976
-2.08975e+06 2.22377e+06 2.75328e+06
1.81612e+06 529229 -1.23415e+06
-8.35429e+06 -218370 650916
6.32566e+06 5.21291e+06 -4.22968e+06
481145 26153.9 6.09639e+06
470719 4.36675e+06 740948
-1.99029e+06 6.37561e+06 -4.3267e+06
1.10172e+07 2.30408e+06 -2.39451e+06
-1.06443e+07 -1.90821e+06 2.57378e+06
1.38559e+07 -1.02511e+07 -6.83628e+06
-2.1696e+07 -1.32791e+07 971040
1.85248e+07 -8.64099e+06 -4.56591e+06
-1.5052e+07 -8.8296e+06 -1.21462e+06
2.73592e+07 -4.17586e+06 -1.07168e+06
-2.9797e+07 -1.12666e+07 4.35988e+06
2.68194e+07 -1.10425e+07 -266956
-3.27295e+07 -7.50302e+06 1.41745e+06
2.75331e+07 -7.03589e+06 6.07322e+06
-1.74898e+07 -5.53698e+06 4.64218e+06
2.13212e+07 3.6424e+06 3.63468e+06
-1.62834e+07 9.87596e+06 -1.46019e+06
1.27476e+07 1.07227e+07 9.03193e+06
-7.2886e+06 9.40847e+06 4.91219e+06
1.0747e+07 1.689e+07 1.22385e+07
-8.07e+06 2.35242e+07 545866
-1.74938e+06 3.07689e+07 1.1678e+07
-812382 2.1224e+07 1.62537e+06
-5.29769e+06 1.3438e+07 2.42055e+06
-1.19163e+06 -548305 2.54481e+06
1.09717e+07 -3.72495e+06 5.68938e+06
-9.26982e+06 -8.6954e+06 7.37448e+06
2.84361e+06 -1.15079e+07 1.77031e+06
-7.29824e+06 -1.43043e+07 4.20734e+06
-7.06136e+06 -1.36259e+07 2.22199e+06
-403972 -7.85802e+06 6.3443e+06
1.00404e+07 -9.43863e+06 6.27727e+06
-8.20001e+06 -7.73615e+06 2.01617e+06
-7.89942e+06 4.71088e+06 -440409
0 0 0
0 0 0
-877734 -2.91378e+06 -579400
-1.31286e+07 5.31881e+06 -5.31616e+06
-7.32017e+06 3.42038e+06 -1.25352e+07
-8.12692e+06 1.50236e+06 2.35783e+06
-1.69003e+07 199622 1.50204e+06
-1.72792e+07 2.71444e+06 3.45121e+06
-1.26487e+07 -1.00524e+07 -7.97952e+06
-4.35848e+06 1.50719e+07 2.52295e+06
-5.59966e+06 -2.12537e+07 -8.85887e+06
1.29833e+06 2.41547e+07 3.67865e+06
-3.88783e+06 -1.29301e+07 -5.42809e+06
-7.27472e+06 1.76786e+07 -1.31338e+07
7.63377e+06 -2.2676e+07 2.42853e+06
1.85528e+07 2.04146e+07 -4.91833e+06
2.57445e+07 -1.56067e+07 -8.48146e+06
1.79432e+07 1.93033e+07 -1.90836e+07
1.23244e+07 -1.39986e+07 -1.37192e+07
6.92896e+06 9.52533e+06 -6.48297e+06
4.15817e+06 -1.21818e+07 2.71564e+06
-3.29046e+06 1.64629e+07 -6.90296e+06
-7.64732e+06 -1.07035e+07 3.03117e+06
-9.24718e+06 1.82715e+07 -1.12652e+07
-1.22967e+06 -1.0523e+07 5.07941e+06
-2.37324e+06 1.32419e+07 3.63011e+06
499845 -1.0874e+07 4.921e+06
1.5155e+07 1.08901e+06 -8.11873e+06
2.25482e+07 5.07204e+06 -4.31489e+06
1.55208e+07 -2.38663e+06 -3.66591e+06
1.05631e+07 6.44861e+06 9.35689e+06
9.04245e+06 -328043 -3.52818e+06
1.35634e+07 -1.31981e+07 7.96414e+06
1.89035e+07 1.76864e+07 -6.34915e+06
1.72898e+07 -1.00572e+07 9.21566e+06
8.51342e+06 8.19132e+06 -1.15178e+07
-2.54743e+06 -2.13398e+07 8.07499e+06
2.39386e+06 1.65062e+07 -1.09937e+07
2.82995e+06 -1.0118e+07 -785468
4.39812e+06 1.28428e+07 -8.94474e+06
7.55421e+06 -2.25822e+07 -2.68422e+06
-1.70953e+06 2.1318e+07 -1.56663e+07
-1.49198e+07 -1.57153e+07 -1.71703e+06
-3.11989e+06 1.84667e+07 -5.99173e+06
1.01103e+06 -6.10877e+06 2.48345e+06
-4.93275e+06 3.56412e+06 429979
-2.75236e+06 -1.74803e+06 3.69847e+06
580652 5.08441e+06 1.45985e+06
-7.14704e+06 -6.59327e+06 -5.91252e+06
-1.29856e+07 8.24684e+06 3.01728e+06
-1.51175e+07 -2.65251e+06 -2.63907e+06
-1.08601e+07 -3.86896e+06 -1.35407e+06
-6.49211e+06 -4.65406e+06 1.38819e+06
-808026 -4.36089e+06 4.92564e+06
2.77292e+06 -4.48351e+06 -2.70062e+06
-648169 9.45233e+06 4.84692e+06
3.98085e+06 -8.93276e+06 1.40185e+07
7.14285e+06 317186 3.14423e+06
8.13816e+06 2.95891e+06 1.7137e+07
8.5733e+06 -3.60433e+06 -6.58232e+06
1.59051e+06 921994 3.89719e+06
-3.93406e+06 1.18016e+07 -7.30974e+06
2.22261e+06 -5.60669e+06 -3.31587e+06
0 0 0
0 0 0
9.78633e+06 -3.31466e+06 1.88307e+06
-1.16662e+07 4.00551e+06 -900328
1.1714e+07 -8.02767e+06 2.26368e+06
-9.18223e+06 2.33839e+06 2.67122e+06
7.20153e+06 -3.42973e+06 -4.86551e+06
-7.1863e+06 -1.12735e+07 7.21426e+06
4.88016e+06 -1.35594e+07 -5.87699e+06
-202843 -1.49252e+07 1.05759e+07
2.76994e+06 -2.14265e+07 558169
-1.62128e+07 -2.28057e+07 1.04003e+07
1.74147e+07 -1.24213e+07 -518682
-1.53568e+07 -1.27311e+07 1.14753e+07
1.60909e+07 -9.4478e+06 -598813
-8.89334e+06 -4.26243e+06 1.19672e+07
4.2455e+06 2.93738e+06 -6.38576e+06
-1.63308e+07 6.98314e+06 9.80307e+06
1.19809e+07 8.27267e+06 -1.0864e+07
-9.12828e+06 4.1618e+06 -485942
-2.19496e+06 1.56272e+06 -5.34221e+06
8.91093e+06 7.23496e+06 4.25818e+06
-1.11564e+07 8.40542e+06 5.89865e+06
5.75175e+06 -1.87226e+06 7.16976e+06
3.63048e+06 898884 2.04035e+06
915370 -2.97161e+06 339484
-4.02468e+06 -2.00082e+06 666790
1.4291e+07 7.41784e+06 -2.03035e+06
-1.13152e+07 3.99319e+06 2.60934e+06
1.1641e+07 3.28746e+06 -5.12705e+06
-5.88447e+06 5.52655e+06 607078
1.86406e+06 2.59536e+06 -2.04628e+06
-4.42228e+06 -2.36673e+06 -3.04961e+06
8.35372e+06 -2.03e+06 -3.20682e+06
-2.14236e+07 -1.06472e+06 2.99038e+06
2.4555e+07 4.23866e+06 -6.41574e+06
-2.38773e+07 8.95121e+06 4.14139e+06
2.68496e+07 6.80678e+06 3.2213e+06
-1.70192e+07 2.95882e+06 3.46035e+06
1.9905e+07 442133 -1.61837e+06
-3.26465e+07 2.26594e+06 -2.83179e+06
2.28199e+07 5.39788e+06 -7.18489e+06
-2.13486e+07 2.8454e+06 -4.4311e+06
3.02788e+07 5.34291e+06 -2.24479e+06
-2.43534e+07 -3.20659e+06 -317098
2.13512e+07 -7.26416e+06 1.82538e+06
-2.21499e+07 -1.33053e+07 -7.98076e+06
9.967e+06 -1.37361e+07 -1.29797e+06
-4.2984e+06 -1.44771e+07 -8.02692e+06
8.04936e+06 -1.37296e+07 -4.26336e+06
-7.89943e+06 -2.6338e+07 -1.15764e+07
5.4983e+06 -2.68377e+07 -2.28887e+06
-9.20588e+06 -1.8179e+07 -4.02733e+06
4.45702e+06 -1.06235e+07 -5.37483e+06
1.03862e+06 -1.28535e+06 -1.75836e+06
-2.27171e+06 693980 -3.0582e+06
2.0369e+06 -5.00479e+06 -946982
2.96112e+06 -2.07609e+06 -4.45387e+06
1.71893e+06 894767 5.403e+06
-41576.2 1.02799e+07 -6.0696e+06
294017 1.48028e+07 -364087
1.15976e+06 3.82814e+06 195998
-6.45421e+06 -2.07356e+06 3.7313e+06
9.40034e+06 -1.17454e+06 750591
5.37545e+06 -723001 3.38518e+06
0 0 0
0 0 0
5.58201e+06 -5.78385e+06 3.09848e+06
9.48842e+06 3.23276e+06 1.63351e+06
1.19805e+07 -5.61747e+06 4.21802e+06
1.275e+07 6.48153e+06 3.16626e+06
1.44464e+07 -7.61691e+06 1.19543e+06
1.41043e+07 730950 3.11151e+06
7.04495e+06 -1.34227e+07 -2.48738e+06
-5.02822e+06 2.23739e+07 1.22151e+07
-1.85471e+06 -1.8961e+07 1.29629e+06
1.54582e+06 2.29783e+07 6.69018e+06
5.26971e+06 -2.01122e+07 4.21323e+06
-510001 1.91448e+07 2.97287e+06
-1.09835e+07 -2.45481e+07 6.84775e+06
-2.03227e+07 2.04556e+07 7.06439e+06
-2.36764e+07 -1.87036e+07 8.09365e+06
-2.91439e+07 1.60962e+07 1.013e+07
-1.93532e+07 -1.54388e+07 7.94125e+06
-3.64684e+06 1.71636e+07 5.48277e+06
-7.21366e+06 -1.21498e+07 -4.50282e+06
-9.73045e+06 8.08264e+06 2.34534e+06
3.208e+06 -1.33103e+07 7.62218e+06
-349823 1.61592e+07 -4.14994e+06
-4.65375e+06 -3.7634e+06 2.71765e+06
-8.14139e+06 3.13114e+06 -3.06322e+06
-7.88965e+06 -9.75799e+06 -2.10795e+06
-3.03623e+06 4.27679e+06 5.2261e+06
-1.8939e+07 -1.17977e+06 8.20237e+06
-1.06325e+07 654020 8.86377e+06
-1.33424e+07 1.25551e+06 1.81111e+06
-1.53066e+07 7.97372e+06 1.16373e+06
-2.05186e+07 -1.30789e+07 2.76955e+06
-2.12666e+07 1.45553e+07 -9.80362e+06
-2.32043e+07 -9.68991e+06 6.61584e+06
-1.12457e+07 3.94911e+06 -8.07536e+06
-1.51483e+06 -1.4693e+07 6.76217e+06
3.80189e+06 2.24432e+07 -215169
-4.03964e+06 -1.73184e+07 6.53539e+06
175908 1.13113e+07 8.31202e+06
-530900 -1.91568e+07 1.0993e+07
6.8137e+06 1.55268e+07 2.65595e+06
9.60759e+06 -5.71487e+06 4.94637e+06
1.24448e+07 1.19771e+07 1.35826e+06
2.82571e+06 -9.14412e+06 -6.34389e+06
8.02975e+06 -395659 2.47909e+06
-2.38515e+06 115680 -2.98134e+06
-1.35867e+06 3.43753e+06 3.2804e+06
1.85743e+06 -1.05234e+07 -7.02132e+06
7.03238e+06 2.98407e+06 2.66307e+06
5.51788e+06 -963238 -5.82122e+06
6.96716e+06 4.25103e+06 798029
7.36315e+06 -4.74024e+06 -4.6435e+06
1.27167e+06 5.7866e+06 2.46289e+06
7.67128e+06 1.71092e+06 -2.85058e+06
485068 4.97837e+06 -5.40564e+06
3.96002e+06 -1.21204e+06 -2.74965e+06
5.9874e+06 2.08312e+06 -1.60163e+07
6.35357e+06 5.86358e+06 -3.74649e+06
1.03706e+07 -8.13713e+06 -9.60872e+06
7.67538e+06 -7.96881e+06 9.81015e+06
4.20176e+06 4.57172e+06 5.64314e+06
-5.65236e+06 -8.65685e+06 -239177
5.5307e+06 9.53509e+06 393615
0 0 0
0 0 0
9.48196e+06 2.01123e+06 -1.5147e+06
-1.69059e+07 1.11402e+07 -1.12623e+06
1.09457e+07 482550 197552
-3.18571e+06 8.57334e+06 5.7971e+06
7.84156e+06 6.21877e+06 -594156
3.79614e+06 1.23765e+07 5.91254e+06
-1.12822e+07 1.96289e+07 -1.24163e+07
8.13462e+06 1.47384e+07 -879303
-2.99124e+06 1.66029e+07 -9.48233e+06
-5.34664e+06 1.7951e+07 -396054
1.5071e+07 1.19433e+07 -5.98456e+06
-1.7653e+07 9.01006e+06 -2.80861e+06
1.88467e+07 579431 -1.55722e+07
-1.3379e+07 -359332 977399
1.56115e+07 -5.29008e+06 -1.14386e+07
-1.31879e+07 542483 1.756e+06
2.08828e+07 -2.49851e+06 -7.89403e+06
-1.83009e+07 -9.046e+06 6.76873e+06
1.13972e+07 -2.46455e+06 -3.77469e+06
7.66427e+06 -6.3599e+06 -1.44753e+06
-1.511e+07 -4.79164e+06 -2.59661e+06
4.30908e+06 -2.15338e+06 -3.77432e+06
-5.30094e+06 667203 -3.38328e+06
4.17581e+06 2.16748e+06 -1.51976e+06
-1.05276e+07 5.32064e+06 2.16874e+06
1.27427e+07 716574 -3.77703e+06
-1.70414e+07 -2.24008e+06 3.85066e+06
1.28213e+07 -5.2853e+06 -7.48721e+06
-1.31093e+07 -6.75967e+06 8.25357e+06
7.5366e+06 -6.70079e+06 1.11102e+06
-9.57151e+06 -1.09522e+07 513548
1.54205e+07 -4.83798e+06 -3.47374e+06
-2.12828e+07 -933103 4.00323e+06
2.90863e+07 -154484 -1.12478e+07
-2.3345e+07 -3.83083e+06 2.55012e+06
2.26943e+07 -7.07062e+06 -6.51199e+06
-2.09803e+07 -2.88493e+06 2.03948e+06
2.46281e+07 -1.01013e+07 -1.51961e+06
-2.44083e+07 -382278 7.33377e+06
2.36627e+07 332943 -2.06309e+06
-2.80343e+07 -1.53658e+06 4.31986e+06
2.25424e+07 -2.78655e+06 7.18218e+06
-1.92793e+07 3.63483e+06 4.15674e+06
2.11158e+07 1.15879e+07 2.21396e+06
-1.80403e+07 9.12119e+06 -1.80789e+06
1.51965e+07 1.83272e+07 7.05128e+06
-1.14959e+07 1.69276e+07 6.45082e+06
3.8745e+06 1.22168e+07 6.62469e+06
-8.67278e+06 1.43123e+07 6.68896e+06
1.88447e+07 1.69184e+07 6.10324e+06
-1.60889e+07 1.75396e+07 7.33759e+06
3.02346e+06 8.63472e+06 -6.28653e+06
5.72117e+06 3.36766e+06 3.88341e+06
-1.08299e+07 5.36764e+06 -6.75081e+06
1.13757e+07 1.74629e+06 8.34046e+06
-7.0087e+06 5.36044e+06 -1.30852e+07
7.27289e+06 -1.50731e+06 9.62657e+06
-7.36141e+06 -7.28373e+06 -1.18281e+07
7.11112e+06 -6.44858e+06 1.328e+07
-8.4177e+06 -1.06571e+06 -7.18919e+06
7.42304e+06 -570986 3.85316e+06
-351851 6.61954e+06 -1.3477e+07
7.88156e+06 -3.63036e+06 3.35454e+06
7.22467e+06 1.50657e+06 5.24506e+06
0 0 0
0 0 0
-5.62447e+06 1.45908e+06 1.16395e+06
-9.6048e+06 5.99539e+06 -5.46306e+06
-9.07371e+06 -9.50083e+06 -1.02072e+07
-7.33656e+06 1.63011e+07 -201760
-6.56543e+06 -1.09469e+07 2.51255e+06
-4.94464e+06 5.31372e+06 6.10931e+06
4.7005e+06 -1.11915e+07 -1.7618e+06
9.5255e+06 1.47736e+07 7.86871e+06
6.97978e+06 -2.06327e+07 -1.01438e+07
591216 1.87963e+07 1.68477e+06
415303 -1.3627e+07 -5.69246e+06
3.87564e+06 2.01296e+07 -1.09251e+07
1.65499e+07 -1.80161e+07 4.68882e+06
2.40998e+07 1.73206e+07 1.48398e+06
2.46784e+07 -1.47106e+07 -4.77907e+06
1.72507e+07 8.87032e+06 -6.75428e+06
1.72947e+07 -5.65323e+06 -1.1283e+07
9.92813e+06 7.05111e+06 5.23465e+06
1.11109e+07 -9.60654e+06 -1.93125e+06
1.02741e+07 8.32154e+06 649275
1.08942e+07 -6.01796e+06 -724513
1.8487e+07 4.79933e+06 -332326
1.46826e+07 -7.6662e+06 1.38116e+06
1.08405e+07 -2.3933e+06 1.15556e+07
9.39635e+06 2.81636e+06 470946
8.96286e+06 3.75009e+06 13285.5
1.50793e+07 -1.38814e+06 -1.31785e+07
1.8023e+07 8.50511e+06 -2.45382e+06
1.9163e+07 -4.64149e+06 -1.39201e+06
1.91457e+07 8.8049e+06 -2.74284e+06
2.53515e+07 -1.5141e+07 3.50393e+06
2.10231e+07 6.69778e+06 -811288
2.01247e+07 -346392 6.00909e+06
1.22735e+07 655524 -7.27789e+06
1.96365e+06 -9.14696e+06 4.05454e+06
36496.2 1.87706e+07 -4.03906e+06
5.67342e+06 -1.07523e+07 -6.19168e+06
5.95388e+06 9.22565e+06 -2.76294e+06
8.27465e+06 -1.10016e+07 -3.43548e+06
2.85038e+06 3.04442e+06 -9.97215e+06
-1.04444e+07 -828912 -1.54269e+06
-1.12085e+07 -3.97975e+06 5.9904e+06
-1.3954e+07 1.06506e+07 4.36406e+06
-2.01323e+06 -5.33167e+06 9.36545e+06
-5.32407e+06 -2.99934e+06 512015
-4.06765e+06 9.05482e+06 7.97837e+06
-1.06374e+07 -1.25488e+07 -7.47809e+06
-794203 6.93995e+06 5.72008e+06
4.46011e+06 -1.0103e+06 -4.65183e+06
-705814 4.8055e+06 1.88947e+06
-3.71336e+06 -3.73302e+06 1.51058e+06
-1.05626e+07 -3.83957e+06 1.72197e+06
-9.6251e+06 -91184.5 -3.72863e+06
-1.63977e+07 -3.27806e+06 2.69789e+06
-1.54018e+07 -1.13068e+06 1.1782e+07
-8.06648e+06 5.83042e+06 5.34098e+06
-1.49733e+07 -1.35809e+06 1.15563e+07
-1.50414e+07 5.47091e+06 -1.99334e+06
-1.2895e+07 -8.45451e+06 1.13447e+06
-1.37611e+07 4.62874e+06 -233843
-7.48986e+06 -4.53347e+06 -5.98603e+06
-1.34384e+07 1.33859e+07 2.81414e+06
-2.18987e+07 -9.7637e+06 3.21236e+06
0 0 0
0 0 0
8.68876e+06 -8.02883e+06 1.04895e+06
-9.20622e+06 -8.13739e+06 -2.09819e+06
6.83659e+06 -5.10298e+06 -61817.1
143263 1.18236e+06 -331409
-4.98197e+06 -3.15893e+06 -6.26439e+06
9.50181e+06 -8.52224e+06 3.00822e+06
-1.67513e+07 -8.16983e+06 -6.2417e+06
9.39771e+06 -1.72468e+07 2.97004e+06
406278 -1.24015e+07 -902449
-5.32366e+06 -2.30435e+06 2.2228e+06
1.50639e+07 -2.85798e+06 3.7175e+06
-2.49947e+07 -2.89014e+06 3.31086e+06
1.99195e+07 -543963 6.14647e+06
-2.38842e+07 2.69252e+06 3.65412e+06
1.92232e+07 954197 1.45916e+06
-2.55206e+07 -944678 4.35059e+06
1.56736e+07 -744476 -5.01018e+06
-1.58104e+07 -2.4573e+06 -1.70811e+06
1.36387e+07 6.07723e+06 -1.52923e+06
-2.15005e+06 2.509e+06 2.32019e+06
-4.90289e+06 1.19943e+06 6.3999e+06
1.23352e+07 804267 5.08482e+06
-9.5503e+06 -7.6893e+06 1790.77
1.70541e+07 -1.01358e+07 -2.23327e+06
-1.10957e+07 -5.67618e+06 -1.27687e+06
8.63225e+06 -7.69487e+06 -2.40976e+06
-1.0477e+07 -2.15393e+06 6.23393e+06
1.45964e+07 7.0939e+06 -2.15293e+06
-1.44999e+07 6.41158e+06 6.82419e+06
1.52009e+07 1.42437e+07 4.82227e+06
-1.39352e+07 1.2851e+07 6.65823e+06
1.88313e+07 5.05667e+06 3.15499e+06
-2.26244e+07 2.9215e+06 1.01243e+07
2.12877e+07 3.62638e+06 -2.52174e+06
-2.2909e+07 3.29057e+06 8.16864e+06
2.20636e+07 1.11634e+07 2.36819e+06
-2.79275e+07 1.42001e+07 4.55408e+06
2.60326e+07 3.10081e+06 -3.23181e+06
-1.64203e+07 7.45659e+06 -715621
2.64952e+07 4.80866e+06 -7.8768e+06
-2.25283e+07 7.84863e+06 -4.29763e+06
2.05204e+07 5.70918e+06 -3.14216e+06
-2.4219e+07 -3.15158e+06 -5.09462e+06
2.5457e+07 -8.38169e+06 -1.7257e+06
-2.12944e+07 -3.57153e+06 -8.30801e+06
1.51553e+07 -1.00424e+07 -3.76005e+06
-1.22245e+07 -1.00931e+07 -7.2385e+06
7.65021e+06 -8.95176e+06 -1.10655e+07
-9.05963e+06 857642 -9.32476e+06
1.61313e+07 -6.46551e+06 -5.82561e+06
-9.12482e+06 -2.06814e+06 -1.27346e+06
-4.48472e+06 3.61837e+06 -4.64587e+06
1.12114e+07 -3.05594e+06 1.38581e+06
-1.58373e+07 -240561 -5.6647e+06
1.66619e+07 1.15204e+06 -184783
-1.36077e+07 -2.64708e+06 -1.12214e+07
8.25573e+06 451431 5.5078e+06
-4.10629e+06 6.92324e+06 -1.40668e+07
1.27228e+07 7.06321e+06 -1.2644e+06
-1.71056e+07 1.00192e+07 -6.47532e+06
1.72101e+07 1.54944e+06 -182137
-1.70899e+07 -163571 -5.56133e+06
9.06729e+06 -7.37423e+06 -2.1054e+06
-1.40581e+07 9.44954e+06 -7.38103e+06
-1.1901e+07 -6.69693e+06 -5.77531e+06
0 0 0
0 0 0
4.00738e+06 -2.32393e+06 2.10203e+06
4.81335e+06 -239182 3.20106e+06
4.81356e+06 -7.97002e+06 7.42438e+06
2.76239e+06 8.55638e+06 4.74959e+06
2.02237e+06 -1.36053e+07 737195
-2.40776e+06 3.79062e+06 1.18227e+06
-4.65527e+06 -6.02987e+06 -3.79457e+06
-1.20262e+07 1.04479e+07 1.20916e+07
-7.43237e+06 -1.59112e+07 -3.04274e+06
-8.37145e+06 6.54098e+06 4.02431e+06
-7.50736e+06 -7.10329e+06 2.22983e+06
-1.04293e+07 9.95083e+06 347774
-1.15748e+07 -1.05462e+07 5.6178e+06
-2.1915e+07 1.47042e+07 3.06778e+06
-1.60076e+07 -1.24011e+07 4.84359e+06
-8.53578e+06 2.91692e+06 1.02287e+07
-4.88381e+06 226638 6.61542e+06
-9.41236e+06 1.09862e+06 1.17955e+07
-7.36511e+06 -5.76423e+06 -6.54516e+06
-1.04782e+07 7.60845e+06 6.45566e+06
-1.53806e+07 -3.07181e+06 3.66724e+06
-1.44049e+07 1.0286e+07 707820
-1.7513e+07 -1.00781e+07 -1.8377e+06
-6.25225e+06 -873047 -5.58969e+06
473010 -3.54936e+06 -1.08633e+07
-1.29178e+07 6.2898e+06 1.97708e+06
-1.74687e+07 -8.50116e+06 -1.02577e+06
-2.41888e+07 1.8535e+06 3.35452e+06
-1.96049e+07 -158639 -5.75018e+06
-1.9258e+07 3.58288e+06 -339171
-1.34853e+07 -4.51203e+06 3.6222e+06
-1.53383e+07 5.05544e+06 -4.93589e+06
-1.4916e+07 853698 1.3185e+07
-8.04308e+06 -5.09322e+06 -2.58131e+06
2.01814e+06 -3.30018e+06 1.32755e+07
-3.65024e+06 3.47789e+06 5.9295e+06
-1.34658e+07 -4.70019e+06 1.06558e+07
-1.604e+07 1.72664e+06 8.25653e+06
-8.42922e+06 3.24767e+06 1.44969e+07
-1.39497e+06 -3.04335e+06 -3.47591e+06
5.90145e+06 7.55764e+06 2.03405e+06
1.58642e+07 -9.33007e+06 -4.52639e+06
1.07566e+07 9.43207e+06 -8.8245e+06
1.49615e+07 301993 -3.29009e+06
1.37951e+07 -4.70025e+06 -4.11771e+06
1.50121e+07 -24021.6 3.55794e+06
2.95616e+06 -1.12924e+07 -4.6239e+06
3.61486e+06 1.11274e+07 2.53932e+06
2.25431e+06 -2.69438e+06 -3.25796e+06
-525618 -222641 1.79592e+06
4.62902e+06 300360 2.0442e+06
1.41468e+07 2.92978e+06 2.28457e+06
1.69518e+07 -3.60371e+06 3.64013e+06
1.76255e+07 4.11244e+06 -8.6744e+06
1.87292e+07 -5.55557e+06 -2.79337e+06
1.56778e+07 1.11455e+07 -1.64803e+07
1.36058e+07 -9.15696e+06 -5.11611e+06
1.61152e+07 5.70515e+06 -9.80097e+06
1.57878e+07 -1.09233e+07 1.05699e+07
1.77131e+07 4.59067e+06 9.39872e+06
1.7835e+07 -8.24466e+06 409919
1.9854e+07 9.99843e+06 -1.14415e+06
2.81518e+07 -5.69841e+06 1.706e+06
2.03667e+07 7.62207e+06 5.71139e+06
0 0 0
0 0 0
3.50836e+06 2.67134e+06 -952474
4.17086e+06 6.69211e+06 -509493
-3.25114e+06 465335 1.83377e+06
1.17976e+07 -4.97311e+06 4.70272e+06
-1.26411e+07 -4.73552e+06 4.35376e+06
1.3299e+07 -4.31699e+06 7.75176e+06
-1.49718e+07 976514 109063
4.08672e+06 7.75153e+06 -715124
-786333 -9375.74 1.58104e+06
-2.88389e+06 -221402 -3.3487e+06
1.00271e+07 546219 7.04701e+06
-1.79199e+07 2.98627e+06 -3.58141e+06
2.68534e+07 4.05736e+06 3.847e+06
-1.91081e+07 -259046 -152335
2.75833e+07 -429643 6.15003e+06
-2.2672e+07 49517.8 2.72563e+06
1.8875e+07 2.86029e+06 7.80365e+06
-1.74156e+07 3.04961e+06 1.00753e+07
1.4646e+07 1.98646e+06 5.49342e+06
-7.23214e+06 -2.1263e+06 1.26803e+06
372527 -3.25789e+06 -40360.4
1.22306e+07 1.59255e+06 -1.54244e+06
-1.84481e+07 7.40638e+06 -2.16433e+06
1.72027e+07 8.93856e+06 2.67299e+06
-1.9983e+07 1.97702e+06 1.96079e+06
8.70155e+06 7.5876e+06 195738
-1.22942e+07 3.18446e+06 1.7698e+06
1.63109e+07 -2.76344e+06 -6.8491e+06
-1.73125e+07 -4.77734e+06 746216
1.8686e+07 -5.81877e+06 -441149
-1.61527e+07 -7.03481e+06 -2.01657e+06
1.8242e+07 -8.08481e+06 -753336
-1.3949e+07 1.49803e+06 2.24396e+06
1.79447e+07 1.00777e+07 -8.77192e+06
-2.13941e+07 -3.7695e+06 1.84071e+06
2.6817e+07 -7.23606e+06 -4.00014e+06
-2.66056e+07 -8.58148e+06 2.29597e+06
1.48862e+07 -1.07064e+07 -911400
-1.74043e+07 -9.63257e+06 7.04832e+06
1.71484e+07 -5.30288e+06 -405197
-2.29367e+07 -1.25022e+07 787522
2.52971e+07 -1.23597e+07 5.74524e+06
-3.10199e+07 2.52189e+06 -2.62763e+06
2.20249e+07 4.73527e+06 1.21995e+06
-2.71844e+07 5.50649e+06 -1.93961e+06
1.61482e+07 6.57993e+06 1.0364e+07
-1.41015e+07 7.57254e+06 7.39008e+06
1.83671e+07 912474 1.05391e+07
-1.21962e+07 4.57983e+06 6.56643e+06
9.71696e+06 -1.58394e+06 1.33211e+07
-5.55521e+06 -5.87086e+06 5.30392e+06
-303466 -8.76165e+06 6.33347e+06
1.457e+07 -2.29163e+06 2.65576e+06
-1.68383e+07 361043 8.84718e+06
1.68798e+07 6.00316e+06 7.38497e+06
-2.03225e+07 2.06324e+06 3.3349e+06
1.10699e+07 -2.74283e+06 6.31514e+06
-6.76883e+06 -6.35592e+06 2.72669e+06
9.49799e+06 -1.68889e+07 5.48774e+06
-2.12814e+07 -9.88907e+06 7.67872e+06
2.00262e+07 -6.80602e+06 -4.69202e+06
-2.26725e+07 -4.21931e+06 1.38626e+06
1.60265e+07 634.977 -2.48584e+06
-1.14385e+07 6.29429e+06 6.58579e+06
1.62557e+07 -1.08986e+07 -3.37465e+06
1.21148e+07 9.60477e+06 -794422
0 0 0
0 0 0
829670 69226.8 2.47791e+06
-4.46902e+06 5.34354e+06 -7.42088e+06
-1.23971e+06 -2.02717e+06 -9.0602e+06
1.61446e+06 5.99862e+06 -736727
2.33008e+06 -1.02448e+06 2.61712e+06
-40605.4 -4.82352e+06 -886892
701234 5.40771e+06 -5.04518e+06
3.77816e+06 1.84372e+06 4.19901e+06
3.02123e+06 -3.76737e+06 -7.49501e+06
7.33584e+06 -3.445e+06 7.04205e+06
8.47257e+06 4.94649e+06 -7.25937e+06
1.00531e+07 1.03195e+07 -1.496e+07
8.06547e+06 -1.31347e+07 1.34113e+06
7.33928e+06 5.67086e+06 -1.35192e+06
5.96824e+06 -1.63747e+06 -5.82587e+06
732748 2.40201e+06 -8.05114e+06
-970430 -1.39941e+06 -1.59663e+07
-4.56236e+06 606152 4.65415e+06
-757209 -1.11664e+07 -1.01341e+07
1.25462e+06 9.11594e+06 -2.67773e+06
1.3883e+06 -1.02835e+07 -1.16891e+07
3.90339e+06 5.48639e+06 -773516
-3.49355e+06 -9.37728e+06 -3.60749e+06
-2.54271e+06 7.43534e+06 1.21822e+07
3.29468e+06 -4.53686e+06 -2.0456e+06
3.95393e+06 4.22948e+06 3.94935e+06
5.589e+06 -6.50668e+06 -1.0394e+07
1.4759e+07 -125439 4.90506e+06
1.29989e+07 -293572 1.026e+06
9.30446e+06 4.6841e+06 -416224
2.68815e+06 -4.33832e+06 1.67241e+06
7.02424e+06 597032 -4.19746e+06
4.78031e+06 2.14151e+06 -1.46544e+06
-29256.5 225698 -1.67013e+07
626286 1.24349e+07 -6.45448e+06
6.64582e+06 -1.15532e+07 -1.10539e+07
1.34153e+07 8.51464e+06 -1.22507e+07
2.0495e+07 -1.05819e+07 -1.09518e+07
1.73791e+07 1.25973e+07 -3.97914e+06
3.54495e+06 -1.26095e+07 -1.37564e+07
-1.84135e+06 1.61508e+07 3.66705e+06
-7.11146e+06 -1.00509e+07 3.49551e+06
-1.95249e+07 952816 7.91965e+06
-2.06586e+07 -2.81728e+06 30501.4
-2.14226e+07 1.47103e+06 2.37619e+06
-7.93354e+06 3.17049e+06 1.6108e+06
-6.46584e+06 -2.05392e+06 -5.52375e+06
-6.54292e+06 420583 -1.10047e+06
-1.51251e+07 -7.85828e+06 -2.08943e+06
-1.12767e+07 3.1999e+06 -5.2396e+06
-7.17975e+06 3.12598e+06 4.99196e+06
-1.20115e+07 7.11714e+06 -8.50901e+06
-9.64416e+06 -7.73511e+06 3.85829e+06
-1.05375e+07 6.26877e+06 -1.63991e+06
-1.88278e+07 -1.49842e+07 1.57987e+07
-2.39957e+07 1.60354e+07 1.27452e+06
-1.88774e+07 -9.71124e+06 1.03748e+07
-1.90698e+07 9.50541e+06 -5.53613e+06
-2.15547e+07 -1.07966e+07 -2.71182e+06
-1.25057e+07 1.64709e+07 -486113
-1.03201e+07 -1.4741e+07 -8.19047e+06
-1.56433e+07 1.25475e+07 729679
-1.79474e+07 -9.35196e+06 3.24672e+06
-2.73638e+07 1.10169e+07 -4.85453e+06
-2.1092e+07 -4.75909e+06 -4.37162e+06
0 0 0
0 0 0
-9.29588e+06 -1.76041e+06 -41971.5
1.24203e+07 285756 -4.1218e+06
-1.65371e+07 8.9744e+06 -2.62554e+06
4.67013e+06 7.46313e+06 -6.36188e+06
-7.60071e+06 1.39352e+07 -9.34831e+06
5.43202e+06 1.60205e+07 -1.89366e+06
-2.38876e+06 4.95422e+06 -2.38867e+06
913501 4.28344e+06 1.57749e+06
1.63283e+06 2.12729e+06 4.08278e+06
-1.46006e+06 298024 -1.51091e+06
1.29837e+07 1.86267e+06 4.77546e+06
-1.72705e+07 1.08152e+06 -9.01285e+06
1.353e+07 -38743.2 5.76173e+06
-2.26788e+07 -6.49761e+06 -1.07766e+07
1.22071e+07 -5.39262e+06 -678997
-1.73992e+07 -4.94478e+06 -9.81002e+06
1.71788e+07 -1.02638e+07 -8.79734e+06
-1.9546e+07 -7.27529e+06 -1.24543e+07
2.31015e+07 -2.92898e+06 -7.87278e+06
-7.49173e+06 2.44569e+06 -4.98335e+06
89580.5 5.84748e+06 -2.82196e+06
1.32104e+07 1.0466e+07 -1.88243e+06
-1.53477e+07 1.38331e+06 -8.0212e+06
1.25241e+07 -4.18692e+06 -1.8003e+06
-1.17597e+07 -489781 -5.54346e+06
2.02555e+07 -6.2645e+06 300631
-1.7558e+07 -6.39742e+06 2.10655e+06
1.85592e+07 -6.70689e+06 -2.88144e+06
-1.7978e+07 -2.47925e+06 -2.55329e+06
1.81049e+07 3.42847e+06 -2.07309e+06
-1.74546e+07 4.26092e+06 170440
1.66308e+07 4.25696e+06 -1.54577e+06
-1.44645e+07 -9.17488e+06 3.15982e+06
2.25008e+07 -1.00101e+07 -4.55762e+06
-2.74883e+07 -4.25286e+06 3.15696e+06
2.85727e+07 1.01244e+06 -3.40429e+06
-2.47877e+07 4.70774e+06 1.42253e+06
1.53348e+07 1.60451e+07 -6.17377e+06
-1.68346e+07 1.04395e+07 837714
2.59108e+07 8.38536e+06 -7.01642e+06
-2.94157e+07 1.26895e+07 -1.79985e+06
3.04154e+07 8.27161e+06 -1.17438e+06
-2.12937e+07 6.45112e+06 -2.03188e+06
2.24136e+07 -901962 805500
-1.96345e+07 -8.22449e+06 -1.99592e+06
1.76052e+07 -6.94963e+06 -144398
-1.93784e+07 -6.96615e+06 -4.20572e+06
1.88904e+07 -3.09364e+06 -7.33498e+06
-1.74337e+07 -4.33535e+06 -9.73552e+06
1.1199e+07 -495813 -3.11813e+06
-1.06811e+07 -1.80058e+06 -6.57659e+06
-3.36044e+06 3.40571e+06 1.66867e+06
1.10059e+07 283523 -2.17877e+06
-1.31808e+07 -6.88704e+06 2.36632e+06
1.59098e+07 -3.97819e+06 -3.29903e+06
-1.85126e+07 -2.91942e+06 -2.41751e+06
1.56517e+07 7.37611e+06 2.43012e+06
-2.09908e+07 3.09697e+06 -6.02813e+06
1.75758e+07 9.25183e+06 -3.06009e+06
-1.56406e+07 1.19653e+07 1.43988e+06
2.52723e+07 3.87712e+06 -961151
-1.78465e+07 3.82032e+06 2.55819e+06
2.32497e+07 2.75825e+06 -1.44999e+06
-6.32052e+06 -7.92215e+06 -871752
-961424 3.24012e+06 -4.95761e+06
-1.14578e+07 -6.20288e+06 9.45014e+06
-1.07473e+06 3.50059e+06 1.20587e+06
0 0 0
0 0 0
-940671 -949438 -2.03007e+06
-1.33219e+06 214669 -178324
-3.23858e+06 8.31984e+06 1.71078e+06
-8.55519e+06 -1.865e+06 1.45103e+06
-1.03924e+07 3.4742e+06 -6.85357e+06
2.77024e+06 -1.14869e+06 -8.68939e+06
2.63021e+06 4.46743e+06 -7.78072e+06
-5.86685e+06 -4.05212e+06 4.92773e+06
-2.28984e+06 4.9427e+06 -3.74084e+06
-897488 -4.27374e+06 3.06491e+06
4.40609e+06 6.14599e+06 -1.70495e+06
-1.09715e+06 3.44196e+06 -1.3185e+06
-2.16926e+06 -4.50821e+06 8.26292e+06
2.33413e+06 364652 4.94103e+06
-1.07845e+06 53383.6 4.3918e+06
-106596 -817573 5.97278e+06
-3.54182e+06 -6.67414e+06 -2.21342e+06
-2.21505e+06 1.19972e+07 8.61584e+06
8.33209e+06 -1.0664e+07 -1.19007e+07
5.50703e+06 1.57826e+07 9.97842e+06
5.54523e+06 -1.42749e+07 -3.71228e+06
3.77797e+06 1.57067e+07 4.58808e+06
6.99228e+06 -1.20591e+07 -5.30387e+06
5.71842e+06 4.65197e+06 153404
5.03875e+06 -1.27733e+06 -8.22658e+06
1.43678e+06 -3.96459e+06 1.10218e+07
-3.26578e+06 -3.21142e+06 1.39376e+06
-6.01435e+06 293425 1.08886e+07
-1.06472e+07 -3.87617e+06 -5.17536e+06
-9.28841e+06 8.17155e+06 4.58387e+06
-9.59164e+06 -3.58975e+06 2.44007e+06
-6.49289e+06 -304326 -1.50312e+06
2.86178e+06 8.199e+06 1.24191e+07
182060 -1.41652e+07 -2.91282e+06
-5.50989e+06 1.14984e+07 9.53575e+06
-9.56548e+06 -1.22683e+07 7.64526e+06
-1.52067e+07 8.67368e+06 1.45554e+07
-2.01978e+07 -2.11287e+07 7.10206e+06
-9.91888e+06 1.92637e+07 1.70706e+07
-5.13258e+06 -1.66325e+07 -7.39539e+06
-1.83352e+06 1.01353e+07 7.43557e+06
4.23715e+06 -1.07916e+07 -6.43189e+06
2.1143e+07 1.19902e+07 -3.24518e+06
2.50309e+07 -8.21987e+06 -9.58274e+06
1.20063e+07 4.48635e+06 1.37854e+06
9.66086e+06 -4.71595e+06 5.95763e+06
883684 1.12351e+06 -2.94998e+06
1.19927e+07 -6.85689e+06 1.26625e+06
1.95662e+07 7.16161e+06 -1.57947e+06
2.02631e+07 3.49679e+06 5.8668e+06
1.18802e+07 -5.81644e+06 6.35201e+06
5.43556e+06 8.53992e+06 4.94936e+06
7.98171e+06 -6.25295e+06 6.40069e+06
1.1296e+07 1.37806e+07 -4.40927e+06
2.45559e+07 -1.53551e+07 -2.1188e+06
2.30797e+07 1.4162e+07 -8.76785e+06
1.50126e+07 -1.53292e+07 -7.32804e+06
1.89768e+07 1.29851e+07 -4.18567e+06
1.74082e+07 -1.09481e+07 5.83263e+06
1.42781e+07 1.68693e+07 1.51152e+07
1.14585e+07 -1.94643e+07 -3.54507e+06
1.15943e+07 1.74544e+07 1.47044e+06
1.93038e+07 -1.89208e+07 -5.11714e+06
1.59419e+07 4.93012e+06 7.7961e+06
1.58785e+07 -146105 -1.01692e+07
1.1212e+07 -4.39492e+06 477813
0 0 0
0 0 0
-1.18162e+07 -1.55294e+06 2.17174e+06
2.33101e+07 -1.25741e+07 3.25811e+06
-1.73142e+07 -1.32775e+07 5.96029e+06
1.10014e+07 -1.94703e+07 8.28917e+06
-3.20248e+06 -1.46665e+07 6.74217e+06
-3.39608e+06 -1.17058e+07 8.51024e+06
4.84134e+06 -1.25192e+07 4.58341e+06
-4.07047e+06 -5.49384e+06 2.27473e+06
4.0821e+06 -1.41238e+06 3.50319e+06
-1.03734e+07 -3.21644e+06 -4.50039e+06
1.34654e+07 -2.70104e+06 5.97282e+06
-1.45688e+07 -4.5927e+06 -6.31511e+06
1.95226e+07 -719271 8.17509e+06
-1.26816e+07 5.26943e+06 -3.66822e+06
1.00212e+07 1.11982e+07 7.18837e+06
-6.32558e+06 9.89767e+06 -2.29584e+06
3.13216e+06 3.49644e+06 7.59357e+06
-1.34206e+07 1.06318e+07 6.63144e+06
1.57812e+07 1.17487e+06 6.35723e+06
-1.08172e+07 -763414 4.5373e+06
372826 -3.71786e+06 -209823
1.33569e+07 -7.11541e+06 996446
-2.007e+07 -566916 -1.25866e+06
6.68795e+06 284149 7.65171e+06
-9.19534e+06 4.01878e+06 3.15766e+06
1.33375e+07 3.29188e+06 6.014e+06
-1.95669e+07 9.81164e+06 2.54193e+06
1.89788e+07 1.17448e+07 -2.01764e+06
-1.49811e+07 9.49488e+06 -2.49412e+06
2.09969e+07 8.68757e+06 399469
-1.72624e+07 3.55761e+06 -518848
1.44735e+07 6.70791e+06 2.4212e+06
-1.95613e+07 8.47769e+06 167904
2.28774e+07 5.90007e+06 -1.7666e+06
-2.03551e+07 6.38458e+06 3.37203e+06
2.49914e+07 4.56848e+06 431013
-1.98983e+07 -6.64758e+06 3.03476e+06
1.62202e+07 -1.21989e+07 3.10532e+06
-2.05292e+07 -1.00553e+07 7.83732e+06
1.95779e+07 -1.299e+07 6.9188e+06
-2.60023e+07 -1.38793e+07 1.67928e+06
2.46251e+07 -5.83769e+06 9.54811e+06
-2.58773e+07 -7.22348e+06 -2.28789e+06
2.01429e+07 -3.49881e+06 3.81455e+06
-1.89095e+07 6.08722e+06 -1.88776e+06
1.83295e+07 5.96548e+06 9.78044e+06
-2.22028e+07 1.92211e+06 3.78022e+06
2.51005e+07 4.46377e+06 8.99036e+06
-1.74796e+07 1.39335e+06 464190
1.16126e+07 2.24213e+06 4.29362e+06
-8.16116e+06 1.36302e+06 -7.85138e+06
1.05394e+07 3.48361e+06 -5.05805e+06
559902 7.0481e+06 -1.07335e+07
-8.1355e+06 3.20791e+06 -2.25366e+06
1.40484e+07 3.52387e+06 -860300
-1.43129e+07 -118619 -2.09903e+06
1.77418e+07 -3.56756e+06 3.48572e+06
-1.28677e+07 -2.69634e+06 396945
2.6715e+07 -1.05255e+06 7.72377e+06
-2.4007e+07 1.20103e+06 6.66424e+06
2.09793e+07 -509297 -1.29964e+06
-2.35778e+07 2.68524e+06 3.35989e+06
1.5302e+07 4.14948e+06 3.75822e+06
-5.41116e+06 4.17617e+06 6.34574e+06
-1.92246e+06 2.44856e+06 1.07217e+06
8.40126e+06 -3.44788e+06 4.68426e+06
-2.12685e+06 1.16587e+07 -8.99301e+06
-6.06047e+06 -2.01298e+06 2.71983e+06
0 0 0
0 0 0
1.00165e+07 31567.5 6.62692e+06
9.26517e+06 -7.93391e+06 -3.75e+06
1.46726e+07 2.15066e+07 -7.35706e+06
1.54008e+07 -9.48549e+06 5.85221e+06
1.19956e+07 2.95664e+06 1.01382e+07
6.85194e+06 -8.52768e+06 3.94012e+06
2.70688e+06 -1.54418e+06 7.13211e+06
5.4673e+06 1.60713e+06 7.20135e+06
5.35363e+06 2.06259e+06 5.35646e+06
-4.77975e+06 -1.06556e+07 1.27228e+07
-2.98566e+06 6.0756e+06 2.403e+06
-8.02977e+06 -4.07144e+06 -1.02775e+07
-1.28119e+06 1.05726e+06 9.05316e+06
944104 -827948 1.05229e+06
-927745 -839961 4.61683e+06
-9.8996e+06 1.6442e+06 -6.11581e+06
-4.61758e+06 -9.33614e+06 -2.68431e+06
3.22168e+06 2.07518e+07 1.26045e+07
-4.71375e+06 -2.1217e+07 1.09871e+07
-1.07312e+07 2.00191e+07 7.5715e+06
-681431 -2.49128e+07 2.63386e+06
-5.24759e+06 3.0737e+07 -2.2545e+06
-7.27764e+06 -1.84827e+07 2.19128e+06
6.50675e+06 8.46956e+06 4.40393e+06
3.24529e+06 -5.66244e+06 580312
-2.95991e+06 6.95089e+06 -6.77454e+06
4.91156e+06 -5.82141e+06 -1.22445e+07
1.36457e+07 6.0605e+06 -5.03068e+06
1.48722e+07 -1.38928e+07 -521246
1.30723e+07 1.1353e+07 -7.80663e+06
1.55409e+07 -8.94339e+06 2.34336e+06
4.55488e+06 2.33163e+06 -7.91597e+06
3.65556e+06 1.24879e+07 3.41299e+06
-241202 -1.42261e+07 -1.92314e+07
1.42595e+07 1.42172e+07 -6.50609e+06
1.76935e+07 -1.25474e+07 -1.45659e+07
1.77199e+07 9.88088e+06 -3.46326e+06
2.03245e+07 -1.9039e+07 -1.02815e+07
8.44419e+06 1.27382e+07 4.6728e+06
-3.77926e+06 -8.90987e+06 -1.31688e+07
-1.50623e+06 1.0662e+06 1.04355e+07
-1.11498e+07 3.9235e+06 3.78869e+06
-1.85989e+07 1.22237e+07 1.07473e+07
-1.84566e+07 -1.08449e+07 -6.61977e+06
-1.62566e+07 1.28528e+07 -1.01061e+06
1.10449e+06 -1.13032e+07 6.24504e+06
1.68592e+06 1.18222e+07 -8.56304e+06
-9.52477e+06 -1.32945e+07 2.04942e+06
-1.79688e+07 1.22969e+07 -1.13396e+07
-1.7499e+07 694612 -3.36059e+06
-1.78142e+07 -7.22992e+06 -8.39593e+06
-5.50887e+06 5.96444e+06 -8.84209e+06
-6.1662e+06 -1.72245e+07 -7.72136e+06
-2.20205e+07 6.89231e+06 -1.59591e+06
-2.65022e+07 -1.16006e+07 3.2005e+06
-2.05893e+07 1.54811e+07 2.91009e+06
-8.5662e+06 -9.62275e+06 1.12562e+06
-6.70949e+06 1.20259e+07 622538
-1.73526e+07 -1.22527e+07 -1.12131e+07
-1.69695e+07 1.8162e+07 7.91948e+06
-1.0664e+07 -1.44088e+07 -1.4122e+07
-1.79296e+07 1.77075e+07 8.63838e+06
-9.77263e+06 -1.66046e+07 569019
-7.86164e+06 7.31296e+06 4.28181e+06
-8.54337e+06 -963860 -6.5178e+06
-1.15093e+07 -1.03022e+07 1.34163e+07
-3.33315e+06 2.96669e+06 -810454
0 0 0
0 0 0
-1.34004e+07 9.13077e+06 -9802.1
1.78003e+07 1.19162e+07 -4.76262e+06
-2.24897e+07 1.66371e+07 -2.94724e+06
1.11878e+07 2.22833e+07 -9.17247e+06
-9.5211e+06 1.29722e+07 -1.15153e+07
-194826 1.14224e+07 -8.0627e+06
1.03586e+06 1.59754e+06 -5.12132e+06
726042 4.7111e+06 -1.33414e+06
4.88048e+06 6.96513e+06 1.87251e+06
-7.63106e+06 6.82284e+06 -1.65326e+06
1.33446e+07 7.45687e+06 1.7951e+06
-1.57095e+07 -718667 -9.88304e+06
1.60536e+07 907428 7.49737e+06
-8.03502e+06 -7.38852e+06 -5.19169e+06
5.79014e+06 -1.41734e+07 5.2803e+06
-4.55308e+06 -9.46258e+06 -5.56183e+06
3.81974e+06 -9.46956e+06 -3.88056e+06
-1.02027e+07 -1.45932e+06 -6.72738e+06
6.93042e+06 -4.35781e+06 -1.50052e+06
-3.63938e+06 -3.08937e+06 2.58178e+06
-7.0646e+06 -7.34848e+06 1.21764e+06
1.13346e+07 -1.22513e+07 2.16352e+06
-1.03797e+07 -7.1993e+06 -3.82416e+06
2.1131e+07 -1.84027e+06 2.96468e+06
-1.45394e+07 -730923 -2.50398e+06
9.99501e+06 -9.61243e+06 5.02479e+06
-1.50601e+07 -2.7388e+06 1.3041e+06
1.47134e+07 -7.44142e+06 2.91515e+06
-1.10023e+07 -9.89011e+06 -2.39505e+06
1.52958e+07 -8.35146e+06 1.12565e+06
-1.68676e+07 -9.91451e+06 1.11929e+06
1.16916e+07 -8.62184e+06 2.97242e+06
-1.58058e+07 -9.08258e+06 -369861
1.75843e+07 -4.6358e+06 4.03165e+06
-1.85049e+07 -793408 862163
1.98092e+07 1.8386e+06 99121.4
-2.2387e+07 5.99893e+06 -1.99957e+06
1.52909e+07 2.84211e+06 -3.08276e+06
-1.66524e+07 1.98386e+06 -5.15296e+06
2.3145e+07 4.39809e+06 -4.37874e+06
-2.01314e+07 8.89583e+06 -5.26763e+06
3.14821e+07 1.16576e+07 -202727
-2.99565e+07 6.50185e+06 -7.42101e+06
2.06409e+07 -5.14924e+06 -1.88134e+06
-2.00644e+07 -8.1286e+06 -8.80559e+06
2.51566e+07 -7.52667e+06 -7.17512e+06
-2.38783e+07 627065 -8.81643e+06
2.6613e+07 -127797 -7.15812e+06
-2.09279e+07 3.07675e+06 -2.85126e+06
1.08329e+07 1.09725e+06 -211740
-1.74351e+07 1.77346e+06 832326
9.41661e+06 -1.79555e+06 4.98093e+06
-1.04933e+07 -3.50554e+06 5.09394e+06
-933344 913518 1.28116e+06
7.58804e+06 -4.13508e+06 1.31592e+06
-1.3523e+07 2.60036e+06 -1.91952e+06
6.11914e+06 2.91757e+06 6.97105e+06
-1.46663e+07 2.85999e+06 -5.26697e+06
1.86515e+07 4.72769e+06 2.57012e+06
-2.34333e+07 3.32462e+06 -246790
2.44605e+07 -4.63357e+06 2.53179e+06
-2.56824e+07 -763765 1.11434e+06
1.80792e+07 -382040 2.54372e+06
-7.98054e+06 -960579 -3.01983e+06
2.39232e+06 -4.15294e+06 377086
-738174 7.7909e+06 -394585
-1.18188e+06 1.5837e+06 670408
2.84822e+06 -5.44883e+06 8.08964e+06
948464 1.16997e+07 3.37928e+06
0 0 0
0 0 0
-1.0218e+07 -1.53616e+06 -1.63227e+06
-9.19214e+06 -1.28263e+07 3.73671e+06
-9.19885e+06 2.09935e+07 509579
-1.2364e+07 -1.64563e+07 470653
-9.17287e+06 3.27033e+06 -8.66738e+06
-510409 -1.06566e+07 -1.07405e+07
129356 1.87073e+06 -4.26212e+06
-3.32811e+06 -1.51772e+06 -1.3051e+06
-2.07443e+06 4.28198e+06 -7.96153e+06
7.2583e+06 -1.04077e+07 -1.27404e+07
1.15062e+07 3.33065e+06 -9.7462e+06
1.93062e+06 -2.14242e+06 -1.31384e+07
393045 8.0606e+06 -877003
-4.28996e+06 -3.29506e+06 -8.99483e+06
2.93711e+06 -960314 -1.40986e+06
1.44055e+07 2.20306e+06 -6.71331e+06
1.15622e+07 -8.47916e+06 -6.66016e+06
8.41247e+06 1.48367e+07 -5.21139e+06
1.3224e+07 -1.80712e+07 -1.55884e+07
1.74986e+07 2.30308e+07 -3.20223e+06
9.56697e+06 -2.79373e+07 -6.1021e+06
4.75943e+06 2.85128e+07 -7.15221e+06
1.30359e+06 -2.98203e+07 -1.27423e+06
260900 1.88765e+07 -8.53163e+06
1.5036e+06 -1.78704e+07 4.08118e+06
-7.81462e+06 1.40135e+07 3.28448e+06
-2.52645e+06 -6.98336e+06 1.27825e+07
-1.54827e+07 2.46687e+06 5.22621e+06
-1.11551e+07 -1.56448e+07 8.9935e+06
-1.37981e+07 1.23599e+07 2.71801e+06
-6.94734e+06 -1.1423e+07 1.12754e+07
-5.70979e+06 -2.08897e+06 -4.87899e+06
-6.25296e+06 4.46367e+06 2.12525e+07
-1.22256e+07 -1.30688e+07 -1.8882e+06
-1.23982e+07 1.44394e+07 8.9002e+06
-1.92789e+07 -1.88874e+07 -2.40852e+06
-2.11784e+07 2.35467e+07 9.60546e+06
-6.7906e+06 -9.57313e+06 -967498
-3.131e+06 9.87925e+06 9.99146e+06
3.11159e+06 -4.53304e+06 -1.14655e+07
1.166e+07 4.14124e+06 3.81584e+06
1.16811e+07 -4.95913e+06 -3.01563e+06
1.99851e+07 1.00356e+07 2.54222e+06
2.08729e+07 -2.20407e+07 -7.75584e+06
7.19928e+06 2.44251e+07 428686
3.33472e+06 -2.07957e+07 1.10851e+07
-9.21163e+06 7.36504e+06 -2.26786e+06
1.21204e+06 -6.79487e+06 7.12409e+06
1.69161e+07 1.40614e+07 -1.18727e+06
1.46239e+07 -1.05554e+06 1.38272e+07
8.11667e+06 -2.14605e+06 4.61782e+06
2.7613e+06 8.29422e+06 1.1852e+07
1.0149e+07 -1.09225e+07 8.28581e+06
2.65605e+07 7.56642e+06 2.41362e+06
3.00969e+07 -6.32966e+06 1.10588e+06
2.22781e+07 8.52767e+06 -806971
1.30064e+07 -6.63029e+06 -3.2962e+06
2.41205e+06 7.16762e+06 3.37158e+06
1.15185e+07 -1.26109e+07 4.9891e+06
2.06278e+07 8.30594e+06 1.53582e+07
1.56677e+07 -1.51761e+07 -7.3385e+06
1.0309e+07 1.89811e+07 -1.39936e+06
9.71378e+06 -1.91297e+07 -9.74082e+06
3.404e+06 1.47419e+07 6.5625e+06
5.57608e+06 -1.01035e+06 -1.24663e+07
1.20983e+07 -2.54383e+06 -4.86603e+06
6.27513e+06 -53456.4 -1.56738e+07
1.37723e+06 -5.86989e+06 -3.8854e+06
0 0 0
0 0 0
-3.22622e+06 -5.94084e+06 2.09935e+06
1.36478e+07 -9.72176e+06 1.6198e+06
-1.13695e+07 -1.39396e+07 5.56913e+06
1.85548e+07 -1.43271e+07 2.58295e+06
-1.18842e+07 -1.35003e+07 4.77257e+06
1.06046e+07 -3.25626e+06 3.82442e+06
-3.17602e+06 -976327 3.28269e+06
4.75465e+06 3.06538e+06 -3.5972e+06
-1.32695e+06 -1.82162e+06 -1.49883e+06
-6.41193e+06 -7.26797e+06 -7.212e+06
6.56634e+06 -6.11898e+06 3.03466e+06
-1.24896e+07 -7.92172e+06 -5.05756e+06
1.4636e+07 3.92135e+06 1.05232e+07
-1.79371e+07 5.12985e+06 672881
6.14646e+06 1.40216e+06 9.57874e+06
-7.36304e+06 9.86935e+06 -1.78996e+06
5.59142e+06 7.18187e+06 8.46822e+06
4.83458e+06 9.02385e+06 5.36754e+06
8.47862e+06 7.61977e+06 5.31798e+06
-3.1e+06 1.034e+07 539922
-9.49667e+06 1.50318e+07 -2.41168e+06
6.6623e+06 2.06399e+07 -5.09832e+06
-1.47189e+07 1.32254e+07 -2.03719e+06
1.90908e+07 1.08651e+07 -575170
-2.01884e+07 1.04433e+07 -2.22614e+06
1.25161e+07 6.58848e+06 -2.24483e+06
-1.00975e+07 6.81072e+06 -4.7311e+06
8.52069e+06 1.07597e+07 -3.83374e+06
-1.16543e+07 4.96262e+06 -4.6131e+06
1.2585e+07 885535 271205
-1.292e+07 2.09122e+06 -587036
9.42263e+06 6.85954e+06 291967
-1.15481e+07 4.25834e+06 -5.88577e+06
1.9646e+07 3.91086e+06 -2.67866e+06
-1.65692e+07 7.73628e+06 -969628
2.44218e+07 -5.48568e+06 -5.72349e+06
-1.59305e+07 -2.73887e+06 -425257
1.16365e+07 -3499.45 -175373
-1.23059e+07 1.62995e+06 4.39855e+06
2.25594e+07 2.16459e+06 5.04585e+06
-2.01715e+07 -3.82789e+06 920930
2.24246e+07 -7.97248e+06 8.68655e+06
-2.91827e+07 -5.20261e+06 1.07398e+06
1.81193e+07 -1.75101e+06 6.81472e+06
-1.62781e+07 3.5972e+06 5.37705e+06
2.66832e+07 -1.84801e+06 8.21829e+06
-2.27935e+07 2.50897e+06 8.62998e+06
2.12087e+07 -358340 8.03919e+06
-1.15498e+07 21584.4 1.11346e+07
1.51302e+07 -698683 6.88193e+06
-5.30407e+06 1.05063e+06 4.64557e+06
3.03625e+06 7.02624e+06 -1.36196e+06
-9.88326e+06 1.41333e+06 -585176
-1.67445e+06 2.12418e+06 -4.2022e+06
9.83596e+06 1.64476e+06 2.80282e+06
-4.23346e+06 -2.94734e+06 -5.23401e+06
8.34809e+06 -2.79677e+06 593572
-1.25291e+07 -581351 -7.26639e+06
1.47069e+07 -4.1726e+06 2.36864e+06
-2.61259e+07 -7.04239e+06 -3.89849e+06
2.21885e+07 -5.69981e+06 -7.87936e+06
-2.12629e+07 762996 -4.73709e+06
9.86554e+06 -1.94218e+06 -2.47728e+06
-1.19858e+07 -2.30979e+06 2.15394e+06
8.77276e+06 -2.98834e+06 1.48438e+06
-1.0444e+07 -93489.1 2.31297e+06
9.7736e+06 -9.86266e+06 4.35527e+06
4.78377e+06 -1.34389e+07 5.83613e+06
-4.3691e+06 1.4223e+07 -831077
-5.58592e+06 -1.84164e+07 589224
0 0 0
0 0 0
4.39148e+06 7.09309e+06 9.08072e+06
1.60297e+07 -4.92044e+06 146075
4.1258e+06 1.10858e+07 -9.32159e+06
1.24505e+06 -1.10409e+07 7.55946e+06
3.35561e+06 3.79606e+06 6.93729e+06
-811957 -3.19533e+06 5.91288e+06
473248 1.61117e+07 2.71266e+06
-7.12859e+06 -4.24519e+06 5.23816e+06
-3.7653e+06 9.03076e+06 3.22913e+06
-9.85301e+06 -6.08069e+06 1.05704e+07
-2.46935e+06 5.03285e+06 6.83599e+06
-3.34801e+06 -7.25478e+06 -5.48017e+06
-3.98694e+06 3.83145e+06 8.93154e+06
-6.17751e+06 -3.7047e+06 5.92269e+06
-9.28245e+06 6.79671e+06 7.15588e+06
-1.63305e+07 1.7626e+06 -1.13741e+06
-1.66298e+07 -2.73512e+06 -1.44805e+06
-9.74169e+06 7.89786e+06 1.12289e+07
-2.02335e+07 -1.04447e+07 6.5018e+06
-2.92515e+07 2.77368e+07 8.99381e+06
-1.39897e+07 -2.16535e+07 2.33434e+06
-1.50216e+07 2.49613e+07 6.15297e+06
-4.97055e+06 -2.17295e+07 992251
-6.01109e+06 1.84669e+07 1.00078e+07
5.39362e+06 -9.89721e+06 1.90447e+06
1.46345e+06 5.92907e+06 -2.52466e+06
1.02751e+07 -337953 -1.32337e+07
8.90334e+06 4.91081e+06 -2.37141e+06
1.4255e+07 -7.85589e+06 -3.9383e+06
7.42044e+06 1.16965e+07 -4.52415e+06
6.38516e+06 1.03754e+06 -3.89576e+06
1.89413e+06 2.53392e+06 -5.17362e+06
4.12411e+06 8.2834e+06 374976
2.82677e+06 -7.72933e+06 -3.59432e+06
1.20392e+07 1.65212e+07 -5.75007e+06
1.20987e+07 -1.97578e+07 -3.1301e+06
1.53129e+07 1.57912e+07 -2.75626e+06
4.15769e+06 -5.25378e+06 -3.58452e+06
6.65219e+06 6.59823e+06 35422.6
-5.3144e+06 -8.98128e+06 -1.23333e+07
-9.22802e+06 1.12313e+07 2.6678e+06
-8.53488e+06 -1.70557e+07 -1.1653e+06
-1.82002e+07 1.49478e+07 1.37377e+07
-1.37667e+07 -2.30183e+07 -7.85675e+06
-1.11307e+07 2.22059e+07 -423110
-2.80333e+06 -2.31593e+07 4.22161e+06
3.9129e+06 1.40399e+07 -3.91e+06
7.37231e+06 -7.37416e+06 3.84851e+06
-4.43759e+06 9.80303e+06 -8.68843e+06
-1.47613e+07 -7.24386e+06 -2.23678e+06
-7.42986e+06 3.39256e+06 -8.88952e+06
-3.44188e+06 -1.41262e+06 -7.70338e+06
-1.64718e+07 -7.20754e+06 -1.47489e+06
-1.96261e+07 1.14163e+07 -3.78395e+06
-2.13475e+07 -6.57268e+06 4.77657e+06
-1.99839e+07 2.42897e+06 -5.17819e+06
-1.50934e+07 -1.18188e+07 6.04073e+06
-1.40113e+07 1.17741e+07 -1.78377e+06
-1.55464e+07 -8.08782e+06 -8.53957e+06
-1.78391e+07 9.03897e+06 2.89769e+06
-2.27512e+07 -9.81793e+06 -1.32821e+07
-1.59915e+07 1.54212e+07 6.86611e+06
-9.0155e+06 -1.64164e+07 4.64844e+06
-5.06022e+06 1.87374e+07 5.69263e+06
-3.37448e+06 -1.1546e+07 -1.63241e+06
-8.82003e+06 4.93694e+06 1.34866e+07
-6.56839e+06 -8.1117e+06 -470738
8.3815e+06 960628 4.84547e+06
1.60746e+07 1.30842e+07 3.64233e+06
0 0 0
0 0 0
-5.27241e+06 5.686e+06 -754688
3.52364e+06 7.34684e+06 -6.19101e+06
-4.45932e+06 1.24684e+07 -102113
1.2343e+07 1.77171e+07 -1.09819e+07
-1.93473e+07 4.95754e+06 -6.94972e+06
1.47627e+07 1.05553e+06 -7.59455e+06
-1.57036e+07 3.5303e+06 954563
9.56619e+06 -705426 -812501
-4.69396e+06 357958 6.30794e+06
51860.3 1.75389e+06 2.86524e+06
3.30773e+06 2.02915e+06 2.19612e+06
-1.49109e+07 2.443e+06 -9.01406e+06
2.16646e+07 -3.17956e+06 1.74606e+06
-1.8265e+07 -2.49603e+06 -5.03928e+06
1.11486e+07 -7.53389e+06 1.83012e+06
-5.77685e+06 -9.45032e+06 -5.30721e+06
4.82078e+06 -6.98632e+06 -2.6385e+06
-6.48904e+06 -1.27007e+07 -6.82179e+06
-2.37561e+06 -1.78153e+07 -1.1717e+06
-1.9126e+06 -1.68098e+07 1.13443e+06
935498 -2.0975e+07 5.15412e+06
1.15789e+07 -1.67343e+07 -452366
-1.55469e+07 -1.11743e+07 3.02539e+06
1.97889e+07 -1.60621e+07 -1.13027e+06
-1.49323e+07 -9.65362e+06 -8114.01
1.09873e+07 -6.94784e+06 -2.03469e+06
-7.88362e+06 -8.91118e+06 -1.70647e+06
1.06696e+07 -8.02745e+06 -530243
-9.58637e+06 -1.23973e+07 -3.22703e+06
8.19588e+06 -1.41441e+07 -5.34179e+06
-3.21196e+06 -1.06139e+07 2.69067e+06
8.31728e+06 -2.12372e+06 -2.17852e+06
-1.40944e+07 -497732 -2.71479e+06
1.30735e+07 -8.63435e+06 1.46885e+06
-1.59368e+07 -605435 2.6634e+06
1.25112e+07 -1.21375e+07 -2.58395e+06
-1.37173e+07 -1.00985e+07 1.56442e+06
1.11539e+07 -3.68717e+06 -1.72289e+06
-1.01264e+07 -4.1798e+06 -4.58545e+06
1.64862e+07 -5.8141e+06 -3.57843e+06
-1.60382e+07 -790335 -3.74908e+06
1.90293e+07 -49122.7 -153182
-2.07609e+07 3.55304e+06 -5.21208e+06
1.69749e+07 2.74067e+06 -3.96815e+06
-1.78628e+07 2.84735e+06 -6.41653e+06
1.79197e+07 -5.7201e+06 -1.53326e+07
-1.61823e+07 3.85749e+06 -1.12559e+07
9.88271e+06 7.11303e+06 -1.84438e+07
-4.44217e+06 7.10023e+06 -3.74428e+06
7.13624e+06 2.7583e+06 -1.05077e+07
-2.02217e+06 -5.70797e+06 3.36047e+06
500695 -9.01195e+06 -556204
-2.31365e+06 -5.86668e+06 1.11617e+07
-5.55472e+06 -4.30104e+06 -4.84039e+06
1.18398e+07 -6.23818e+06 4.10093e+06
-8.48637e+06 -2.78958e+06 -3.61467e+06
2.03966e+07 6.41546e+06 7.65052e+06
-2.1925e+07 4.84281e+06 -6.8271e+06
1.74246e+07 -4.10663e+06 6.08634e+06
-1.8076e+07 2.70084e+06 271799
1.82465e+07 4.4476e+06 5.77824e+06
-4.55619e+06 3.61723e+06 -632514
9.02698e+06 1.00343e+07 147205
-8.51011e+06 9.70413e+06 -7.11582e+06
9.68639e+06 6.24087e+06 -1.50098e+06
-9.85201e+06 6.40989e+06 -8.22416e+06
9.03749e+06 2.06651e+07 -2.34134e+06
-5.26506e+06 1.97343e+07 -6.08648e+06
-9.8752e+06 2.14569e+07 -4.91607e+06
2.20894e+07 -2.05847e+07 4.58542e+06
1.66025e+07 1.9252e+07 -7.90796e+06
0 0 0
0 0 0
-8.18282e+06 4.61489e+06 -2.17625e+06
-3.52954e+06 -2.4809e+06 4.39729e+06
-5.88226e+06 -4.45124e+06 1.7083e+06
-6.55348e+06 5.23824e+06 6.18271e+06
-3.25911e+06 -2.85318e+06 -6.14366e+06
-3.88967e+06 -1.74916e+07 -1.78877e+06
9.78645e+06 1.764e+07 1.43673e+06
2.82647e+06 -1.48304e+07 1.01154e+07
7.09863e+06 5.48961e+06 2.24825e+06
5.54676e+06 -693091 -4.56624e+06
4.46757e+06 1.21415e+07 3.53331e+06
8.71577e+06 -1.08011e+07 -4.94746e+06
1.2136e+07 1.09853e+07 9.67609e+06
1.11175e+07 -1.2111e+07 245609
1.58751e+07 1.84761e+06 9.25002e+06
2.10411e+07 -822682 1.76261e+06
1.70339e+07 -2.03827e+06 2.304e+06
1.13522e+07 1.07468e+07 -1.78448e+06
1.91468e+07 -2.2425e+07 -7.62757e+06
7.48249e+06 1.25699e+07 2.14222e+06
1.73212e+07 -1.2943e+07 8.39947e+06
1.32993e+07 1.61687e+07 2.85285e+06
1.08632e+07 -1.39929e+07 5.95666e+06
2.24595e+06 4.61772e+06 -6.52697e+06
-1.15714e+07 -5.87131e+06 7.15111e+06
-1.15086e+07 715237 5.24329e+06
-1.16229e+07 3.06169e+06 9.89158e+06
-1.02187e+07 5.19333e+06 7.42169e+06
-5.93006e+06 -583825 4.47685e+06
-3.01313e+06 1.11602e+07 1.06573e+07
133065 -4.65036e+06 7.93976e+06
342332 -1.12936e+06 747796
1.09393e+07 1.80198e+06 1.52333e+07
2.53476e+06 2.61234e+06 6.27586e+06
-3.26227e+06 6.25526e+06 6.70496e+06
-9.0053e+06 -1.16295e+07 1.8181e+06
-2.19923e+06 1.90373e+06 1.36691e+07
-5.81631e+06 -8.32539e+06 1.51893e+06
-6.90725e+06 1.01791e+06 1.36879e+07
-2.1994e+06 -4.49153e+06 -9.98003e+06
3.08779e+06 2.36937e+07 1.52259e+06
1.00732e+07 -1.93345e+07 -7.23389e+06
9.13812e+06 1.94779e+07 3.55107e+06
1.04043e+07 -1.76992e+07 -8.90192e+06
1.17508e+07 2.32277e+07 -111987
6.06333e+06 -1.78611e+07 3.02242e+06
2.31871e+06 1.61753e+07 -3.54817e+06
-1.56668e+06 -7.51215e+06 2.50362e+06
717731 7.59292e+06 -4.72207e+06
4.20944e+06 -1.211e+07 1.14705e+07
1.64838e+06 8.50522e+06 -1.41799e+06
1.49236e+06 -7.27602e+06 5.17016e+06
1.60443e+07 -1.40688e+06 5.75353e+06
1.7729e+07 8.12714e+06 -3.6151e+06
5.49304e+06 -1.26288e+07 -255663
1.64991e+07 1.1221e+07 -1.23273e+07
1.63815e+07 -1.00766e+07 -5.74712e+06
1.64516e+07 1.71743e+07 -816553
2.1767e+07 -1.37039e+07 3.16234e+06
2.13351e+07 -3.0247e+06 1.07112e+07
2.34657e+07 4.57776e+06 -5.58955e+06
1.94241e+07 6.65692e+06 2.67049e+06
1.28489e+07 -1.46265e+07 -8.13727e+06
6.12376e+06 1.85155e+07 1.18539e+07
6.27112e+06 -1.59057e+07 -7.34921e+06
5.29978e+06 1.09243e+07 4.83302e+06
-2.91596e+06 -4.05542e+06 -9.05802e+06
-1.04671e+07 8.56157e+06 3.62468e+06
-2.09569e+07 8.73213e+06 2.37469e+06
-2.76271e+07 -2.20882e+07 9.69986e+06
0 0 0
0 0 0
-1.29965e+06 -8.3618e+06 2.8918e+06
7.30921e+06 210059 2.01467e+06
-3.72887e+06 -8.78171e+06 8.99587e+06
1.11704e+07 -5.55355e+06 4.20076e+06
-2.50196e+07 -1.0308e+07 8.72693e+06
2.86261e+07 -2.09247e+06 4.81345e+06
-2.38394e+07 2.5104e+06 5.07831e+06
2.13435e+07 -6.23827e+06 -5.08404e+06
-5.50925e+06 -2.76732e+06 -3.82621e+06
2.20959e+06 -3.81137e+06 -4.35662e+06
7.39274e+06 -3.12992e+06 1.97328e+06
-1.67e+07 8.1094e+06 169814
1.41794e+07 4.07979e+06 5.20868e+06
-1.5893e+07 3.87001e+06 1.81212e+06
1.39821e+07 8.4324e+06 1.64089e+06
-8.96339e+06 1.03791e+07 -3.30487e+06
8.70644e+06 1.5147e+07 3.72883e+06
-7.56596e+06 1.69161e+07 1.85573e+06
4.73937e+06 1.99986e+07 289974
3.85287e+06 2.40028e+07 -3.39114e+06
-2.55753e+06 2.23867e+07 -2.52152e+06
2.53117e+06 1.1649e+07 -7.9905e+06
-1.02727e+07 1.23753e+06 4.14433e+06
1.73298e+07 3.64188e+06 -1.79965e+06
-1.76558e+07 2.60523e+06 3.34805e+06
1.62493e+07 3.25277e+06 -1.84926e+06
-1.56084e+07 1.36588e+07 -46399.9
1.20322e+07 9.51791e+06 1.36196e+06
-1.0463e+07 1.71746e+07 474055
6.08453e+06 1.95271e+07 1.26464e+06
-7.70629e+06 1.00681e+07 6.0482e+06
7.18604e+06 3.76389e+06 2.32782e+06
-1.07677e+07 1.73308e+06 -178939
1.21884e+07 3.20707e+06 852867
-1.13464e+07 5.40747e+06 6.27623e+06
3.98881e+06 1.3713e+07 -3.23921e+06
-3.91773e+06 1.80276e+07 7.9962e+06
1.52206e+07 2.02733e+07 1.67976e+06
-1.60697e+07 1.71295e+07 6.32516e+06
1.12465e+07 7.37306e+06 4.82131e+06
-2.0431e+07 659810 3.2527e+06
1.62993e+07 1.49076e+06 6.3389e+06
-1.60835e+07 -524497 4.73723e+06
1.62279e+07 2.2561e+06 7.24761e+06
-1.89998e+07 4.33281e+06 1.41533e+07
1.25559e+07 909648 9.36079e+06
-6.33282e+06 2.97935e+06 1.43547e+07
6.07301e+06 -6.38849e+06 3.12718e+06
-5.71706e+06 -8.14214e+06 9.61053e+06
5.44108e+06 -8.91166e+06 -3.57813e+06
-8.73022e+06 -2.55237e+06 1.82363e+06
-2.18037e+06 1.18859e+07 -8.61268e+06
5.80574e+06 1.44875e+07 -958697
-1.34779e+07 6.80987e+06 -1.17408e+07
1.03466e+07 6.76323e+06 2.20477e+06
-1.54326e+07 -424639 -6.1154e+06
1.84506e+07 -6.43843e+06 -78384
-2.91577e+07 1.68457e+06 -9.06522e+06
1.68135e+07 -1.73307e+06 3.51992e+06
-1.42442e+07 -1.76158e+06 -5.54009e+06
9.3965e+06 -2.12803e+06 -2.57686e+06
-5.72285e+06 -6.20826e+06 -3.68651e+06
3.81249e+06 -7.5221e+06 633406
-2.40806e+06 -3.53326e+06 3.1967e+06
-1.2223e+06 -3.42206e+06 4.03015e+06
-3.85954e+06 -1.15826e+07 -221349
2.41054e+06 -9.83659e+06 4.3806e+06
-2.18662e+06 -2.04965e+07 1.13281e+06
-5.48714e+06 -1.99514e+07 -2.45372e+06
5.36384e+06 -1.62124e+07 208908
-2.96932e+07 8.80488e+06 -3.27006e+06
-1.95468e+07 -1.35967e+07 7.14783e+06
0 0 0
0 0 0
6.31968e+06 5.85068e+06 8.58122e+06
1.15882e+07 1.37238e+06 -6.55231e+06
1.26751e+07 -5.71323e+06 -1.18127e+07
3.30657e+06 9.4263e+06 3.89721e+06
4.47968e+06 2.384e+06 974082
7.28127e+06 -8.14532e+06 -3.98887e+06
-739701 1.52346e+07 -1.1792e+07
-345515 -1.23809e+07 -4.67515e+06
1.57744e+06 3.31993e+06 -6.57923e+06
-1.35927e+06 -1.08424e+07 314981
729349 3.94293e+06 1.42391e+06
-3.63636e+06 -1.49472e+07 -2.03158e+07
-1.50056e+07 1.86959e+07 219010
-1.52672e+07 -1.37462e+07 -5.95354e+06
-1.40767e+07 1.0426e+07 -1.31331e+06
-1.66893e+07 985766 -1.39791e+07
-8.28431e+06 -5.52457e+06 -5.35969e+06
-7.68936e+06 8.6958e+06 4.97235e+06
-4.15932e+06 -8.18462e+06 -309448
-8.07789e+06 8.10898e+06 -559812
-1.46703e+07 -6.37712e+06 -3.09856e+06
-1.96255e+07 -2.91913e+06 -8.00373e+06
-7.47641e+06 341249 -3.47227e+06
3.53672e+06 3.60267e+06 -7.69933e+06
4.00903e+06 465129 4.13965e+06
1.73897e+07 3.93755e+06 -1.74732e+07
1.57035e+07 -1.76557e+06 -9.44214e+06
1.15469e+07 -964181 -1.50444e+07
4.56468e+06 474943 -4.675e+06
3.11996e+06 239861 -1.53191e+07
2.68272e+06 -1.48405e+07 -4.6436e+06
-2.13283e+06 8.55537e+06 -1.69472e+07
-1.46929e+06 -7.38647e+06 -4.69636e+06
-6.06375e+06 3.82118e+06 -1.37511e+07
-331837 -3.6135e+06 -1.09081e+07
125933 6.93623e+06 -9.0825e+06
-487051 2.92678e+06 -788482
2.54308e+06 -2.24284e+06 -843866
8.89296e+06 1.33551e+06 1.23275e+06
6.33041e+06 -3.90347e+06 1.10911e+06
-4.99087e+06 1.42186e+07 -1.33623e+06
-3.12273e+06 -1.82049e+07 4.46496e+06
-1.29481e+06 1.36249e+07 1.00621e+07
-1.24917e+07 -2.24103e+07 -3.17205e+06
-1.29661e+07 8.77022e+06 642999
-9.03796e+06 -9.19091e+06 6.41144e+06
-1.50822e+06 1.79548e+07 -982771
3.6974e+06 -1.28863e+07 1.25785e+07
-953281 9.56596e+06 -1.19044e+07
2.10894e+06 -7.54064e+06 7.92375e+06
1.84951e+06 1.07604e+07 -1.01315e+07
-7.61344e+06 -7.27966e+06 1.49705e+06
-1.09521e+07 8.49711e+06 -170566
-6.31536e+06 -2.27296e+06 5.09091e+06
-8.10558e+06 -8.33673e+06 7.45075e+06
-7.44417e+06 9.8489e+06 -462177
-1.70188e+07 -1.50913e+07 6.21926e+06
-2.20703e+07 1.93102e+07 5.956e+06
-2.15251e+07 -1.26971e+07 -9.00572e+06
-1.82317e+07 2.12672e+06 1.00065e+07
-1.38195e+07 9.68334e+06 -1.52095e+07
-1.35209e+07 874600 1.609e+07
-4.47031e+06 -1.07206e+07 -2.80649e+06
-4.5926e+06 1.43759e+07 4.53187e+06
-8.26938e+06 -1.74532e+07 -1.2501e+07
-5.421e+06 7.2259e+06 1.30699e+07
2.61905e+06 -3.90363e+06 -6.42165e+06
1.31452e+07 -5.81993e+06 1.45094e+06
2.36961e+07 8.52878e+06 -6.60955e+06
3.28793e+07 -1.01931e+07 -114352
3.31151e+07 9.285e+06 -1.51767e+07
0 0 0
0 0 0
-2.94577e+06 5.64298e+06 -2.91025e+06
1.25085e+07 1.0994e+07 -7.52512e+06
-1.08197e+07 5.67611e+06 -1.49534e+06
1.72738e+07 9.16923e+06 -7.11265e+06
-2.80621e+07 7.7363e+06 -5.84666e+06
3.15277e+07 6.79344e+06 -2.96173e+06
-2.67189e+07 5.53744e+06 170120
1.49408e+07 4.70284e+06 5.18912e+06
-6.0018e+06 1.17182e+06 6.03285e+06
-26723 -399830 1.08501e+07
1.57036e+06 -4.81273e+06 -2.50496e+06
-6.35125e+06 -7.14957e+06 -1.56003e+06
1.23508e+07 -1.08604e+07 -1.11894e+07
-1.53015e+07 -9.73312e+06 67028.4
1.74512e+07 -6.34481e+06 -5.45647e+06
-1.15496e+07 -1.28611e+07 1.81854e+06
1.39725e+07 -1.14191e+07 -4.38139e+06
-8.52345e+06 -1.42318e+07 -2.03753e+06
7.05015e+06 -1.61654e+07 -3.89821e+06
-1.82207e+06 -1.3299e+07 3.88417e+06
-5.01509e+06 -1.16942e+07 2.24035e+06
162553 -8.19578e+06 -164522
-3.362e+06 4.21297e+06 3.96413e+06
1.15801e+07 9.6698e+06 952010
-1.61478e+07 1.91126e+06 4.27188e+06
2.09148e+07 -3.04018e+06 5.15482e+06
-2.07801e+07 -8.01546e+06 1.03992e+06
1.05478e+07 -1.1173e+07 8.74599e+06
-7.32166e+06 -1.47334e+07 458235
7.90257e+06 -9.80983e+06 45031.5
-1.54955e+07 -1.27709e+07 4.17831e+06
6.59857e+06 -1.29502e+07 -272241
-2.95654e+06 -9.94177e+06 -4.7861e+06
7.43474e+06 -4.92783e+06 2.2726e+06
-6.28143e+06 -1.50538e+07 -2.47339e+06
4.84689e+06 -2.19759e+07 -5.70255e+06
-3.18539e+06 -2.41198e+07 -2.86693e+06
1.19298e+07 -2.98046e+07 -4.14585e+06
-1.6785e+07 -1.72368e+07 -1.18954e+07
1.08265e+07 -1.36361e+07 -5.6277e+06
-1.29798e+07 -2.87365e+06 -6.88021e+06
1.24173e+07 -2.80536e+06 -2.816e+06
-8.53617e+06 -4.46886e+06 -6.55744e+06
1.5355e+07 -1.35594e+06 -5.77612e+06
-1.30513e+07 -1.05969e+07 -2.34182e+06
1.42061e+07 -8.03989e+06 -8.04437e+06
446462 -442744 -1.04505e+06
5.0732e+06 3.02353e+06 -8.15109e+06
-5.73826e+06 115726 3.40089e+06
7.83963e+06 2.01817e+06 -5.04978e+06
165390 -8.16253e+06 6.04581e+06
7.04791e+06 -1.26263e+07 3.76224e+06
6.43618e+06 -1.04974e+07 1.46353e+07
-5.84437e+06 -1.2517e+07 -1.73919e+06
1.72578e+07 -1.65061e+06 5.50975e+06
-2.01231e+07 286549 4.68864e+06
2.21561e+07 -1.27732e+06 8.4268e+06
-1.94668e+07 2.39678e+06 3.3212e+06
2.1196e+07 -1.20495e+06 4.72863e+06
-1.33225e+07 1.66072e+06 4.81349e+06
8.6756e+06 4.05582e+06 1.02748e+06
-7.95113e+06 3.56441e+06 4.39436e+06
2.82365e+06 349398 -5.08565e+06
-519270 -751302 416230
967377 -2.01635e+06 -5.96263e+06
2.31898e+06 -6.66358e+06 -1.89641e+06
-118034 4.32862e+06 -5.32941e+06
-2.85694e+06 7.36877e+06 1.51245e+06
4.16072e+06 1.08169e+07 -4.7042e+06
5.7196e+06 9.9064e+06 -92919.7
-9.42347e+06 9.15505e+06 -3.5274e+06
2.60516e+07 3.55575e+06 349695
1.95094e+07 -1.44354e+06 -6.66325e+06
0 0 0
0 0 0
-1.56512e+07 3.01704e+06 -3.64088e+06
-1.8462e+07 2.34018e+06 -770328
-1.35828e+07 -7.18483e+06 3.14336e+06
-1.67428e+07 -1.35221e+06 5.74683e+06
-1.6062e+07 3.7178e+06 -3.97613e+06
-9.97904e+06 -6.09121e+06 -4.07723e+06
-8.57503e+06 9.37111e+06 3.10031e+06
-9.89618e+06 -6.1608e+06 1.30626e+07
-6.29486e+06 7.04187e+06 4.5448e+06
-740889 3.13665e+06 -5.23003e+06
-5.81924e+06 77747.5 5.73634e+06
-1.80991e+06 -5.24517e+06 -9.11937e+06
1.03323e+07 1.15323e+07 1.35686e+07
1.49284e+07 -4.10108e+06 1.06606e+06
1.91309e+07 -2.26537e+06 8.11105e+06
1.50423e+07 3.78034e+06 1.55885e+06
1.52829e+07 -3.3231e+06 8.09328e+06
3.9178e+06 3.72898e+06 4.38143e+06
1.07098e+07 -1.37804e+07 -7.65879e+06
8.39562e+06 6.1529e+06 3.47816e+06
1.37063e+07 -1.8078e+06 -1.4431e+06
1.44436e+07 1.83557e+06 5.67347e+06
1.57093e+07 2.75641e+06 -3.74197e+06
3.71471e+06 -1.19747e+06 -4.14884e+06
-7.97919e+06 -3.22282e+06 3.66023e+06
-1.99027e+07 559359 7.40812e+06
-1.88885e+07 1.13911e+06 9.56779e+06
-1.71622e+07 -7.00848e+06 7.15962e+06
-1.62474e+07 9.37964e+06 -1.00278e+06
-1.79786e+07 440612 6.86435e+06
-1.12888e+07 -7.92167e+06 969909
-2.19802e+06 1.55843e+07 -1.60064e+06
-1.97982e+06 -1.7246e+07 6.18562e+06
-1.76867e+06 1.40763e+07 5.27534e+06
-2.23441e+06 -1.17256e+07 -5.40761e+06
-7.67742e+06 9.1856e+06 1.18527e+06
-8.716e+06 -8.46492e+06 1.78438e+06
-5.35887e+06 5.79802e+06 3.07087e+06
1.83651e+06 -1.51896e+06 2.90484e+06
-2.0298e+06 -2.33535e+06 -804684
-7.00917e+06 875612 -2.28749e+06
-4.61018e+06 -2.89867e+06 -4.28574e+06
-5.65397e+06 3.21818e+06 1.84151e+06
4.48763e+06 -9.88122e+06 -7.8133e+06
1.37061e+07 1.33816e+07 -2.5307e+06
1.37909e+07 -1.07853e+07 -3.88114e+06
7.31973e+06 1.52378e+07 -6.67471e+06
2.04367e+06 -1.33945e+07 5.00639e+06
92100.1 7.47164e+06 -1.1633e+07
1.22303e+06 -8.03142e+06 1.4353e+07
-162353 1.52512e+06 -7.64601e+06
1.01132e+06 -9.59946e+06 5.36005e+06
6.03314e+06 7.38389e+06 -1.62239e+06
-868567 -4.01391e+06 -1.3229e+06
2.0942e+06 -1.85321e+06 341620
4.63522e+06 9.05802e+06 -8.54173e+06
1.36917e+07 -7.53415e+06 -9.98615e+06
2.3791e+07 1.3464e+07 -109002
1.8607e+07 -8.88767e+06 -1.88616e+06
1.44513e+07 3.55066e+06 1.04246e+07
7.08583e+06 -400434 -6.71294e+06
4.53895e+06 -1.95793e+06 3.91021e+06
-5.10052e+06 -4.26472e+06 -1.27405e+07
-5.97126e+06 1.56237e+07 9.26425e+06
588974 -8.18545e+06 -1.12129e+07
5.07786e+06 -1.72247e+06 2.01083e+06
-2.6521e+06 1.05835e+06 -3.98791e+06
-2.22899e+07 -8.53893e+06 1.31515e+06
-2.79162e+07 1.84341e+07 4.84e+06
-3.17243e+07 -8.79576e+06 5.86589e+06
-2.68676e+07 -5.48305e+06 228509
-2.5297e+07 1.71263e+06 5.2038e+06
0 0 0
0 0 0
-1.64474e+06 3.85407e+06 1.40462e+06
3.7793e+06 2.18997e+06 1.13135e+06
-1.89482e+07 -7.65839e+06 5.35896e+06
1.86396e+07 -1.27561e+07 3.29789e+06
-2.06578e+07 -8.38686e+06 1.6486e+06
2.6268e+07 -6.82604e+06 1.81904e+06
-1.73613e+07 -6.50064e+06 -4.82099e+06
1.0243e+07 -4.77006e+06 -7.85553e+06
-7.00978e+06 -2.68613e+06 -1.25127e+07
4.7656e+06 1.1971e+06 -4.07523e+06
4.9817e+06 1.02097e+07 -3.21984e+06
-7.58755e+06 1.44388e+07 9.07925e+06
7.42866e+06 1.10235e+07 1.86257e+06
-1.58189e+07 9.38809e+06 1.04466e+07
1.06264e+07 1.35275e+07 470954
-1.07726e+07 7.7451e+06 1.47568e+06
1.23476e+07 9.52744e+06 3.97312e+06
-1.82741e+07 1.10127e+07 5.95775e+06
2.50263e+06 1.44433e+07 426368
-1.10595e+06 3.55277e+06 1.21417e+06
-3.96356e+06 234525 -1.15184e+06
1.14105e+07 -2.09667e+06 -2.37999e+06
-3.02498e+06 -9.19085e+06 5.18686e+06
7.03555e+06 -7.62882e+06 -103848
-8.85314e+06 -8.15545e+06 420286
1.27784e+07 -832101 1.22779e+06
-9.01858e+06 149252 -5.32947e+06
1.14636e+07 6.94283e+06 2.44276e+06
-5.27093e+06 1.0341e+07 -5.8103e+06
7.3765e+06 9.80428e+06 -988466
-9.07353e+06 1.35031e+07 -1.64453e+06
3.88095e+06 1.65235e+07 -104757
-4.15597e+06 1.53135e+07 -4.32312e+06
4.56256e+06 1.27824e+07 3.50236e+06
-2.36234e+06 1.88761e+07 3.86557e+06
1.39122e+06 2.66907e+07 -1.25784e+06
-9.77889e+06 2.65305e+07 7.55728e+06
1.43349e+07 1.93644e+07 5.23421e+06
-9.87984e+06 1.98663e+07 7.30563e+06
9.13299e+06 8.91286e+06 9.83954e+06
-3.66155e+06 1.01998e+07 4.2941e+06
2.6699e+06 1.07254e+07 6.27233e+06
-4.76702e+06 8.88212e+06 152684
1.20055e+06 8.29888e+06 5.60235e+06
-9.31729e+06 7.86195e+06 5.55088e+06
1.08256e+07 1.16097e+07 1.07428e+07
-5.10573e+06 5.95104e+06 6.98563e+06
5.04408e+06 767828 6.42263e+06
-3.8397e+06 1.98428e+06 2.41982e+06
-206702 1.31723e+06 296712
-1.84865e+06 7.22044e+06 -2.04603e+06
4.98143e+06 7.0933e+06 -500589
-1.02282e+06 5.51317e+06 -2.601e+06
-7.04284e+06 4.06064e+06 -3.2094e+06
1.37598e+07 -2.92241e+06 -1.79737e+06
-9.56393e+06 1.98291e+06 5.1501e+06
2.06208e+07 8.07827e+06 -8.30882e+06
-1.83534e+07 2.85921e+06 4.43294e+06
2.11546e+07 4.12047e+06 -4.51736e+06
-1.20205e+07 450512 5.24092e+06
1.03209e+07 2.62751e+06 -8.76936e+06
-5.95606e+06 1.48204e+06 6.3339e+06
190968 222683 -3.02549e+06
-6.3908e+06 3.03808e+06 1.41917e+07
4.02458e+06 4.64349e+06 2.22914e+06
-3.39567e+06 977167 8.7172e+06
2.30948e+06 2.1486e+06 3.89287e+06
-741880 -2.58279e+06 9.33006e+06
2.93224e+06 -8.11336e+06 645338
5.84166e+06 -5.77414e+06 8.25875e+06
-1.51954e+07 -4.15063e+06 1.03215e+07
1.59673e+07 -1.70312e+06 5.88073e+06
-2.07846e+07 -1.03841e+06 -946014
-1.04827e+07 1.09042e+06 6.07162e+06
0 0 0
0 0 0
1.67478e+07 -1.29644e+06 8.05099e+06
1.62044e+07 -3.9693e+06 -5.10397e+06
1.69344e+07 4.02855e+06 -8.09753e+06
1.6756e+07 1.37682e+06 5.2673e+06
8.01241e+06 2.98472e+06 1.95065e+06
6.76036e+06 -1.96647e+07 -2.00362e+06
3.12285e+06 6.84336e+06 -1.38268e+07
1.17102e+06 -3.61657e+06 -470243
4.15309e+06 5.47239e+06 -9.65055e+06
5.60663e+06 -1.55199e+06 3.94633e+06
4.84643e+06 -1.15847e+07 2.49861e+06
-478559 1.25919e+07 -1.84762e+07
-6.85124e+06 -3.37596e+06 3.83739e+06
-1.87333e+07 5.68542e+06 -5.07934e+06
-2.15001e+07 -1.20831e+07 -5.76613e+06
-2.14446e+07 1.29117e+07 -1.30584e+07
-1.2351e+07 -3.83862e+06 -7.08876e+06
-4.96408e+06 9.829e+06 8.43161e+06
-7.5664e+06 -1.25108e+07 -6.40536e+06
-2.37969e+07 1.07401e+07 -3.61055e+06
-2.26404e+07 -4.15326e+06 -1.35779e+07
-1.54395e+07 4.44023e+06 564918
-1.06024e+07 3.21886e+06 -9.04672e+06
-433714 -1.03003e+06 8.68914e+06
9.591e+06 -9.65797e+06 -304800
1.43752e+07 -1.10374e+06 2.72627e+06
2.23807e+07 3.71484e+06 -6.92931e+06
2.67818e+07 -6.51368e+06 7.81675e+06
1.27444e+07 1.19936e+06 -3.51286e+06
7.29167e+06 6.75528e+06 8.64994e+06
6.53428e+06 -7.94008e+06 607033
4.4973e+06 1.91678e+07 6.81483e+06
1.55776e+06 -1.97114e+07 -1.64006e+06
6.15793e+06 9.22869e+06 5.96121e+06
1.12518e+07 -1.20563e+07 -8.16571e+06
5.7913e+06 1.20597e+07 5.65631e+06
1.03481e+07 -1.23984e+07 -1.8415e+06
7.41985e+06 1.11375e+07 -164355
5.66177e+06 -9.25775e+06 -3.49209e+06
-2.04429e+06 5.9336e+06 3.02792e+06
-562927 -3.98663e+06 3.01883e+06
5.10175e+06 8.35405e+06 5.11197e+06
3.16217e+06 1.61705e+06 1.12957e+07
9.89499e+06 2.27619e+06 -920463
-1.32697e+07 -4.91783e+06 8.34764e+06
-2.06002e+07 -1.0132e+07 -163388
-8.67409e+06 1.68592e+07 2.36982e+06
-8.12108e+06 -6.52143e+06 1.39723e+07
-9.42329e+06 7.04537e+06 -1.28715e+07
-3.6916e+06 342805 7.34221e+06
-2.55804e+06 -354173 -8.76598e+06
-4.27864e+06 -2.19403e+06 919895
4.64362e+06 3.78436e+06 -1.38896e+06
2.68105e+06 -7.06398e+06 -698367
1.47775e+07 6.29074e+06 8.56335e+06
1.18965e+07 -5.30872e+06 -2.4626e+06
-1.0099e+07 4.70077e+06 7.56726e+06
-1.96275e+07 742617 -868146
-1.62334e+07 -8.31407e+06 -6.02597e+06
-2.39937e+06 -1.03694e+06 5.56614e+06
705743 1.82357e+06 -1.13497e+07
1.6531e+06 2.394e+06 1.24137e+07
6.37758e+06 -130373 2.12506e+06
1.36552e+07 1.03642e+07 1.69809e+06
3.52784e+06 -1.64045e+06 -5.4129e+06
-2.28295e+06 -3.68534e+06 7.8165e+06
1.10828e+07 3.23215e+06 3.53611e+06
1.83228e+07 -1.73931e+07 -2.90825e+06
2.11313e+07 1.65884e+07 509261
2.18681e+07 -4.34445e+06 -4.23998e+06
2.24111e+07 -779286 -7.68128e+06
1.88085e+07 2.86226e+06 -234836
1.95036e+07 -5.54748e+06 -2.87001e+06
0 0 0
0 0 0
933522 -6.04552e+06 -3.17396e+06
1.72192e+06 -9.46958e+06 -5.25925e+06
-8.14819e+06 3.38212e+06 -154414
1.39272e+07 1.05886e+07 -1.57184e+06
-1.65976e+07 1.20402e+07 -2.35418e+06
1.04501e+07 8.70113e+06 1.80909e+06
-1.15865e+07 2.86087e+06 5.2337e+06
6.16259e+06 3.91466e+06 8.05248e+06
-2.12395e+06 4.15007e+06 1.10153e+07
3.51607e+06 -639782 9.35696e+06
6.49692e+06 -6.53982e+06 -892544
-1.03287e+07 -1.40001e+07 -731045
1.29697e+07 -1.7964e+07 -1.11494e+07
-1.14284e+07 -1.51365e+07 -283911
1.93723e+07 -1.35025e+07 -2.93926e+06
-1.41385e+07 -1.15178e+07 1.57727e+06
1.13748e+07 -1.06852e+07 382573
2.06976e+06 -5.92021e+06 -3.21284e+06
518490 2.68242e+06 -3.81585e+06
2.68303e+06 1.0335e+06 2.93309e+06
-5.61096e+06 8.35289e+06 -2.06985e+06
3.48171e+06 1.13815e+07 -941203
-6.97978e+06 8.30161e+06 -5.65043e+06
7.84152e+06 4.85534e+06 -3.00793e+06
-9.20914e+06 6.06681e+06 -7.03858e+06
6.14256e+06 3.89193e+06 1.77232e+06
-7.10241e+06 1.87659e+06 -9.51653e+06
1.06228e+07 -658207 6.28602e+06
-1.186e+07 -5.55592e+06 -5.77375e+06
5.66677e+06 -1.06793e+07 -1.95866e+06
-8.1871e+06 -1.27457e+07 -2.85611e+06
1.87391e+06 -1.20781e+07 -3.12968e+06
-176761 -9.7775e+06 -7.0784e+06
1.5584e+06 -9.69002e+06 1.6842e+06
-762842 -1.41234e+07 -4.23612e+06
782586 -1.64969e+07 -6.62267e+06
-1.06187e+07 -2.2416e+07 -2.84256e+06
5.92576e+06 -1.89161e+07 -4.6208e+06
-4.27343e+06 -1.72785e+07 -1.00809e+07
-861558 -1.25287e+07 -4.03275e+06
5.08608e+06 -8.56091e+06 -8.55262e+06
-7.37586e+06 -9.19218e+06 -3.9902e+06
2.14157e+06 -1.37551e+07 -1.39966e+07
1.86585e+06 -1.22355e+07 -9.07369e+06
-8.94368e+06 -8.66953e+06 -1.86234e+07
1.03169e+07 -5.67567e+06 -1.21306e+07
-1.75552e+07 -6.18768e+06 -1.72426e+07
1.04801e+07 -7.13154e+06 -7.584e+06
-1.18913e+06 185944 -1.07173e+07
-3.52982e+06 5.55525e+06 -3.3022e+06
2.32637e+06 431923 -8.8011e+06
-4.02924e+06 246809 7.21344e+06
-918530 -2.19319e+06 1.5797e+06
-4.172e+06 -1.27072e+06 2.62873e+06
3.82056e+06 1.83941e+06 -9.6114e+06
-1.25566e+07 -3.7188e+06 6.4026e+06
1.0809e+07 -1.12151e+07 -8.31882e+06
-1.14707e+07 -1.36912e+07 8.21623e+06
1.40645e+07 1.09405e+06 -6.73895e+06
-1.78912e+07 -105426 5.91883e+06
1.22151e+07 4.31852e+06 -6.4556e+06
-1.47957e+07 2.69314e+06 1.50914e+06
6.7134e+06 -1.47474e+06 -1.0237e+07
-8.20126e+06 -3.56632e+06 -2.96978e+06
2.21964e+06 -4.87062e+06 -1.02427e+07
-1.76181e+06 -3.17718e+06 -4.12627e+06
3.90055e+06 -1.2244e+06 -8.16726e+06
-2.727e+06 5.51277e+06 1.34134e+06
-1.88333e+06 -1.09181e+06 -6.04208e+06
6.21278e+06 -1.29996e+06 -4.67098e+06
-1.24045e+07 340181 -9.44878e+06
9.53642e+06 -842615 -1.03266e+07
-1.09943e+07 -1.04235e+06 -2.13382e+06
9.46241e+06 7.22393e+06 1.33695e+06
1.96009e+06 -5.33457e+06 -1.92966e+06
0 0 0
0 0 0
-1.04966e+07 2.60418e+06 -5.10778e+06
-1.42202e+07 -3.59317e+06 -2.45864e+06
-1.28213e+07 3.76316e+06 966979
-1.13831e+07 -8.37798e+06 3.75318e+06
-1.29931e+07 3.26805e+06 -4.40503e+06
4.32772e+06 -1.8674e+06 1.86442e+06
1.30963e+07 7.99619e+06 5.31793e+06
2.92493e+06 -7.75204e+06 2.05887e+07
2.19814e+06 2.20651e+06 605111
-1.54413e+06 452122 1.66593e+06
-631155 -1.2141e+07 612571
2.53258e+06 3.77562e+06 -3.88405e+06
7.25336e+06 -9.24322e+06 1.09347e+07
1.48048e+07 1.60187e+07 5.08738e+06
2.13478e+07 -1.66832e+07 5.80562e+06
2.26964e+07 1.02071e+07 7.46274e+06
2.48159e+07 -1.01229e+07 1.10438e+07
7.98579e+06 6.32218e+06 8.37855e+06
1.94392e+07 -9.06839e+06 -1.12339e+07
2.19234e+07 444796 4.27533e+06
2.21141e+07 -6.29153e+06 3.19695e+06
1.22259e+07 3.81138e+06 1.51214e+07
1.21989e+07 6.92328e+06 -321131
-2.58984e+06 976003 633053
-5.98431e+06 1.06059e+06 -7.67985e+06
-1.15246e+07 -621076 5.27758e+06
-1.91126e+07 6.8603e+06 -3.78054e+06
-1.17737e+07 -8.09564e+06 4.59732e+06
-127414 -1.70341e+06 -1.19349e+07
-4.07063e+06 1.2009e+07 8.10788e+06
-6.38934e+06 -1.19248e+07 -6.13608e+06
-1.26489e+07 1.12903e+07 -91040.8
-3.1889e+06 -3.91548e+06 -1.54885e+06
-1.25703e+07 1.22383e+07 1.95008e+06
-8.58981e+06 -6.80668e+06 -9.77517e+06
-5.43088e+06 9.42362e+06 -191719
-9.12852e+06 -1.54958e+07 209853
-3.53746e+06 1.39509e+07 -7.94217e+06
-3.04296e+06 -7.74869e+06 -3.47519e+06
2.36117e+06 7.80314e+06 -1.13296e+07
7.95253e+06 -1.45345e+07 -4.50009e+06
2.91584e+06 23841.4 -9.29691e+06
-1.09632e+07 -1.1001e+07 1.40898e+06
-7.19872e+06 6.2523e+06 -1.297e+07
3.79742e+06 48237.4 4.17548e+06
1.24626e+07 -6.94321e+06 -1.13412e+07
1.22557e+07 7.89086e+06 -7.37231e+06
1.45486e+07 -9.45392e+06 2.51316e+06
9.48288e+06 7.14585e+06 -7.48e+06
1.0684e+07 4.10008e+06 9.99782e+06
4.88284e+06 235990 -3.51365e+06
1.82454e+06 743107 562434
-2.00541e+06 4.3551e+06 5.34605e+06
-1.14659e+07 -8.69085e+06 -5.43052e+06
-1.6389e+07 1.26528e+07 9.5913e+06
-1.5386e+07 -9.81819e+06 -8.12316e+06
-5.97714e+06 5.77548e+06 664069
1.06199e+07 -3.33015e+06 -5.52761e+06
1.21898e+07 520308 5.12909e+06
-335421 -1.74041e+06 4.30467e+06
-7.15839e+06 716159 1.95002e+06
-1.63194e+06 503810 -2.79313e+06
-7.65055e+06 -974981 -4.6222e+06
-1.64285e+07 156405 6.18138e+06
-1.46685e+07 -4.17432e+06 -2.38347e+06
-3.98194e+06 3.38746e+06 -3.81605e+06
-4.81318e+06 2.3023e+06 1.88233e+06
-1.71834e+07 -1.3293e+07 -3.10801e+06
-1.7916e+07 2.04247e+07 1.08174e+07
-1.90925e+07 1.78981e+06 3.74155e+06
-1.36316e+07 -1.55667e+07 1.60292e+06
-1.64153e+07 7.54888e+06 2.8162e+06
-1.13026e+07 -7.6636e+06 -4.2341e+06
-6.53222e+06 6.11295e+06 2.1754e+06
0 0 0
0 0 0
-5.46672e+06 5.23091e+06 1.08049e+06
-4.45843e+06 -1.47105e+06 3.2263e+06
-2.64806e+06 -3.51582e+06 2.89102e+06
6.25064e+06 -1.32465e+07 4.2391e+06
-5.31933e+06 -1.08303e+07 1.18196e+06
-1.58524e+06 -9.67917e+06 1.84346e+06
-922646 -8.31556e+06 -2.13041e+06
-2.17935e+06 2.80778e+06 -8.94318e+06
3.58811e+06 -770338 -1.05729e+07
-5.68798e+06 5.78709e+06 -8.96554e+06
8.44716e+06 9.31634e+06 -1.59088e+06
-1.64142e+07 1.39761e+07 6.33132e+06
2.11439e+07 1.62953e+07 2.21535e+06
-2.16194e+07 1.87768e+07 4.05918e+06
1.99394e+07 1.43584e+07 -3.69677e+06
-1.32606e+07 8.82113e+06 -8.30829e+06
866733 8.44392e+06 -561885
5.76583e+06 3.70306e+06 -987752
-1.04366e+07 1.14931e+06 -2.97698e+06
-1.56506e+06 -7.82435e+06 1.38644e+06
-1.56148e+06 -9.83677e+06 -3.03132e+06
7.21237e+06 -3.63068e+06 4.66721e+06
-5.41179e+06 -2.86335e+06 2.82755e+06
1.68771e+07 -6.76701e+06 5.85347e+06
-8.63643e+06 -4.12914e+06 -2.00099e+06
5.00257e+06 -2.64002e+06 8.98531e+06
-8.35807e+06 -3.68892e+06 -840292
7.6869e+06 -1.33573e+06 1.29074e+07
-5.48221e+06 -1.18357e+06 1.37921e+06
4.61515e+06 4.746e+06 9.75e+06
-1.2781e+06 1.06451e+07 2.79181e+06
5.47483e+06 7.55231e+06 5.51532e+06
53820.6 7.37819e+06 1.33621e+06
-2.22007e+06 3.54659e+06 8.15681e+06
-178543 5.46811e+06 5.25408e+06
-577285 8.46738e+06 -2.23152e+06
250082 1.0607e+07 6.01412e+06
-2.40249e+06 1.96576e+07 810286
-2.63025e+06 1.37198e+07 8.06878e+06
-3.33121e+06 1.07798e+07 9.12672e+06
7.29316e+06 4.09207e+06 5.78984e+06
-1.43868e+07 2.6091e+06 6.95156e+06
1.15807e+07 6.3161e+06 4.45979e+06
1.79152e+06 1.05138e+07 1.15252e+07
-6.61075e+06 1.28497e+07 6.65922e+06
1.61476e+07 9.5091e+06 1.56483e+07
-1.86514e+07 2.47512e+06 5.3433e+06
1.1267e+07 5.66665e+06 1.14236e+07
-1.8522e+06 -1.55428e+06 1.75442e+06
-1.52446e+06 -5.02817e+06 4.82973e+06
3.07948e+06 -5.29717e+06 -5.00145e+06
-3.57017e+06 -7.20061e+06 -1.03412e+06
8.60952e+06 -963891 -6.6892e+06
3.53651e+06 5.12637e+06 -4.94416e+06
4.20644e+06 2.99104e+06 -4.2523e+06
-1.33927e+07 3.36232e+06 1.17067e+06
1.37139e+07 4.14998e+06 -1.17294e+07
-1.23784e+07 5.07589e+06 3.09775e+06
1.56065e+07 4.05793e+06 -5.52585e+06
-1.41633e+07 -2.69924e+06 3.75858e+06
1.49024e+07 -7.53669e+06 -3.26012e+06
-1.70202e+07 -5.70649e+06 3.78872e+06
2.18753e+07 953691 426247
-7.86326e+06 1.42618e+06 8.61863e+06
1.01564e+07 -1.37154e+06 2.22493e+06
-3.52594e+06 -1.6118e+06 4.20843e+06
1.46047e+07 2.49303e+06 -729361
-3.82264e+06 400086 3.86407e+06
-3.80427e+06 4.73661e+06 -3.35392e+06
9.23418e+06 8.80474e+06 3.68389e+06
-1.12251e+07 5.64092e+06 4.4845e+06
1.30648e+07 2.29257e+06 -410816
-9.8274e+06 5.25107e+06 -48748.2
1.70556e+07 2.51552e+06 -1.99007e+06
-9.88541e+06 -4.685e+06 -1.16617e+06
-8.32241e+06 7.08305e+06 1.68732e+06
0 0 0
0 0 0
7.88647e+06 3.25269e+06 8.18593e+06
6.7891e+06 -4.94871e+06 -2.18306e+06
5.44073e+06 6.6107e+06 -4.9187e+06
6.3584e+06 3.36188e+06 5.28554e+06
3.19169e+06 5.5403e+06 5.9182e+06
-1.83627e+06 -6.0942e+06 869486
-1.32837e+07 3.20034e+06 -8.511e+06
-1.82344e+07 -8.36123e+06 -577959
-4.8839e+06 9.68904e+06 -1.25759e+07
-1.65016e+06 9.28485e+06 8.55194e+06
-5.9042e+06 -1.28171e+07 2.64599e+06
-4.18726e+06 1.13249e+07 -1.49043e+07
-3.67356e+06 -6.49103e+06 4.69529e+06
-1.58518e+07 1.01344e+07 -3.49795e+06
-1.23321e+07 -4.12252e+06 -1.01399e+06
-2.5814e+07 2.36445e+06 -4.84195e+06
-1.15393e+07 1.01182e+07 -2.54658e+06
-1.75237e+07 -8.6408e+06 5.50242e+06
-1.5248e+07 695127 792154
-1.24345e+07 -83556.8 3.29842e+06
-4.77931e+06 308062 2.40896e+06
-7.81907e+06 -4.05871e+06 -1.91326e+06
-5.50809e+06 -383831 2.08285e+06
-4.62816e+06 -9.14726e+06 3.66391e+06
1.43593e+06 1.30533e+07 5.97675e+06
9.3269e+06 -1.35105e+07 227537
1.23523e+07 2.14481e+07 3.22166e+06
8.21052e+06 -1.15376e+07 4.46987e+06
9.39762e+06 5.37966e+06 2.09235e+06
860797 -3.3296e+06 25676.4
1.81956e+07 -1.0044e+07 5.53135e+06
8.52763e+06 504850 4.58383e+06
1.09665e+07 -1.06278e+06 1.20282e+07
7.80055e+06 454486 4.98873e+06
2.76664e+06 -300219 8.73584e+06
-5.88748e+06 4.49842e+06 3.71512e+06
-2.48076e+06 -3.94582e+06 1.53555e+07
6.58301e+06 9.64263e+06 -6.68941e+06
-3.27914e+06 -1.90539e+07 1.08433e+07
-3.81975e+06 1.76357e+07 2.69355e+06
-5.60926e+06 -9.61962e+06 1.38494e+07
-6.50172e+06 2.39149e+06 -2.05766e+06
2.88063e+06 -2.39593e+06 1.35622e+07
1.62456e+06 6.67584e+06 -6.72391e+06
-9.96388e+06 -1.98826e+06 1.84253e+07
-6.11224e+06 -4.08493e+06 -4.66754e+06
-1.05054e+07 9.81976e+06 7.27864e+06
-1.16574e+07 -1.69192e+07 7.06601e+06
798887 7.82442e+06 -3.42858e+06
-1.87672e+06 -6.44232e+06 -72768.2
-5.64107e+06 200220 -632336
882481 -3.66334e+06 -6.46106e+06
-13437.1 7.56434e+06 7.62875e+06
8.98476e+06 -1.16636e+07 -1.02223e+07
1.06065e+07 1.45901e+07 1.13274e+07
1.30751e+07 -1.6648e+07 -9.3853e+06
1.1073e+07 1.36894e+07 1.37099e+07
-2.21476e+06 -4.56699e+06 -8.40137e+06
-6.01041e+06 3.22127e+06 2.47248e+06
-4.07927e+06 171416 -2.44263e+06
2.57305e+06 -1.39366e+06 -6.55353e+06
5.36997e+06 -553095 2.30656e+06
6.59736e+06 1.01526e+06 6.50806e+06
1.43915e+07 1.59457e+06 -5.75354e+06
9.91628e+06 -1.12735e+06 -252083
5.95389e+06 3.44898e+06 1.32471e+06
4.48806e+06 -7.18934e+06 5.34349e+06
8.70374e+06 -3.5438e+06 -8.56417e+06
1.42322e+07 9.95377e+06 4.31075e+06
1.15103e+07 5.8663e+06 -5.92232e+06
1.11867e+07 -1.83279e+07 -3.67562e+06
2.74212e+06 9.36554e+06 2.20329e+06
5.78978e+06 -7.15887e+06 -1.66304e+06
5.03349e+06 1.07736e+07 73.7518
-3.58759e+06 -1.08072e+07 242149
0 0 0
0 0 0
4.01326e+06 -2.66211e+06 -1.80729e+06
-4.5104e+06 2.02841e+06 -2.69668e+06
-4.33784e+06 9.574e+06 -1.64164e+06
-2.55033e+06 6.20319e+06 -2.04666e+06
7.24879e+06 1.29319e+07 -1.44045e+06
-8.02933e+06 1.42727e+07 -3.10217e+06
1.63335e+07 8.59406e+06 6.09423e+06
-1.16409e+07 4.80097e+06 1.84168e+06
1.02201e+06 -3.84935e+06 1.57472e+07
-1.26755e+07 -1.42062e+07 2.72394e+06
1.44751e+07 -1.44575e+07 5.14117e+06
-1.8219e+07 -1.76038e+07 -3.88083e+06
2.72804e+07 -2.11225e+07 -4.58344e+06
-2.24404e+07 -1.57135e+07 -2.65352e+06
2.08966e+07 -1.31804e+07 5.00538e+06
-9.02926e+06 -1.20204e+07 1.47421e+06
986993 -6.83494e+06 7.00867e+06
-267599 -2.29393e+06 -2.32726e+06
-2.86402e+06 -3.83616e+06 2.21098e+06
4.73771e+06 5.79915e+06 6.49744e+06
74936.5 2.73306e+06 298706
7.14082e+06 2.75326e+06 4.15846e+06
-1.39804e+07 2.82377e+06 -4.7278e+06
1.06408e+07 -2.6886e+06 -807147
-1.69218e+07 2.45178e+06 -7.15561e+06
1.07816e+07 3.66203e+06 -2.27234e+06
-9.01752e+06 2.89334e+06 -7.22471e+06
9.55141e+06 -1.18322e+06 2.03416e+06
-1.20102e+07 -7.50798e+06 -2.22601e+06
8.71135e+06 -8.57079e+06 -2.59068e+06
-2.26929e+06 -4.03584e+06 -628903
5.20271e+06 1.92187e+06 -6.53725e+06
-261455 1.30234e+06 -4.26302e+06
1.40108e+06 -2.799e+06 -1.41991e+06
-446880 -3.27928e+06 817904
2.46142e+06 1.48203e+06 -6.01924e+06
-4.13462e+06 -2.40897e+06 2.77598e+06
5.75569e+06 -6.37334e+06 -7.24041e+06
-1.07657e+06 -9.1022e+06 -3.78149e+06
-5.74033e+06 -6.539e+06 -4.41619e+06
6.48053e+06 -4.59036e+06 -1.38279e+06
-1.24655e+07 5.21567e+06 -1.3812e+06
4.97643e+06 2.0811e+06 -675370
3.52546e+06 -6.51336e+06 -1.54943e+06
-885400 -5.26993e+06 -8.6428e+06
618808 -9.12014e+06 -4.17554e+06
-1.12746e+07 -7.86011e+06 -6.44734e+06
5.55105e+06 -1.86463e+06 3.10172e+06
-1.12276e+07 -4.48783e+06 1.19117e+06
3.51932e+06 1.52659e+06 5.4245e+06
-242548 1.08393e+07 -13125.7
-4.64971e+06 1.36425e+06 1.0685e+07
5.54878e+06 445046 7.5007e+06
-4.60406e+06 -3.43763e+06 7.58872e+06
-1.82438e+06 -8.11891e+06 334402
-8.51778e+06 -1.91495e+06 1.06831e+07
1.50264e+07 -3.80547e+06 -2.47706e+06
-1.10335e+07 1.33124e+06 1.07148e+07
7.32537e+06 -6.2416e+06 -5.4261e+06
-1.39936e+07 -4.03451e+06 4.99708e+06
7.4772e+06 -1.78618e+06 -1.27668e+06
-1.39572e+07 642575 1.89222e+06
1.44592e+07 -1.15884e+06 -4.52884e+06
-1.39496e+07 704276 -2.41804e+06
6.66593e+06 6.51799e+06 -5.72694e+06
-9.69804e+06 4.42187e+06 1.11675e+06
1.23999e+07 -2.324e+06 -4.78907e+06
-9.08514e+06 871163 7.61234e+06
1.04837e+06 -2.26506e+06 680171
5.59391e+06 -6.31901e+06 3.41627e+06
-1.15329e+07 -4.28286e+06 -2.22021e+06
1.73333e+07 -555236 -1.4123e+06
-1.68957e+07 -2.87593e+06 4.31902e+06
1.02597e+07 -1.16128e+07 2.68277e+06
-5.97262e+06 -1.0041e+07 -569816
6.66798e+06 6.50449e+06 3.09973e+06
1.31399e+07 -2.17327e+06 3.63453e+06
0 0 0
0 0 0
1.80181e+06 -2.27585e+06 -2.97984e+06
1.82206e+06 -4.57593e+06 84039.6
-4.04127e+06 -9.04177e+06 3.84606e+06
-2.53634e+06 1.12796e+07 2.4209e+06
-1.82299e+06 -210316 -2.98051e+06
7.40734e+06 -6.62979e+06 423588
1.32511e+07 757447 8.3634e+06
1.52855e+07 -832412 1.59066e+07
1.40106e+07 3.86463e+06 -2.20097e+06
7.13793e+06 1.10389e+07 8.35534e+06
1.00299e+07 -2.94198e+07 3.13645e+06
1.07991e+07 1.98572e+07 1.52361e+06
1.04404e+07 -2.3109e+06 1.21071e+07
7.76715e+06 7.7609e+06 4.88433e+06
1.9655e+07 -1.02627e+07 9.94912e+06
1.35486e+07 -1.34123e+07 5.59593e+06
1.40046e+07 2.12513e+07 2.61243e+06
4.30169e+06 -1.19017e+07 -269075
1.46758e+07 1.46826e+07 -1.26138e+07
4.97426e+06 -3.79014e+06 -1.26376e+06
-8.0556e+06 1.31188e+07 -1.12387e+06
772519 -8.80178e+06 2.73039e+06
7.16103e+06 5.28176e+06 4.698e+06
717049 -1.44825e+07 -7.15752e+06
-4.14943e+06 1.50439e+07 -453105
-9.98521e+06 -1.61937e+07 -1.83696e+06
-1.29273e+07 2.25723e+07 1.85293e+06
-1.62312e+07 -1.78675e+07 -4.30751e+06
-9.81597e+06 1.66112e+07 -5.0835e+06
-1.05907e+07 -1.14078e+06 -3.76617e+06
-1.08932e+07 500461 -4.57048e+06
-1.06119e+07 1.53509e+06 -1.08539e+07
-1.06794e+07 2.05523e+06 768581
-6.60325e+06 -2.60315e+06 -6.77877e+06
5.48462e+06 1.83463e+06 1.33519e+06
5.75925e+06 3.47155e+06 -4.16223e+06
3.27034e+06 -1.365e+07 8.44088e+06
-4.02859e+06 1.74171e+07 -1.09866e+07
6.14413e+06 -1.65319e+07 -3.39961e+06
6.7793e+06 1.94512e+07 -9.36876e+06
9.27386e+06 -1.27052e+07 135183
1.421e+07 5.91006e+06 -2.2356e+06
8.51115e+06 -5.98132e+06 1.03532e+06
-2.08486e+06 -2.4558e+06 -1.54122e+07
-2.86563e+06 707065 5.17048e+06
8.64462e+06 6.23098e+06 -8.76102e+06
9.82184e+06 8.95581e+06 -1.03999e+07
-1.47591e+06 -1.57308e+07 1.83455e+06
-4.26318e+06 1.59172e+07 -3.8903e+06
-21090.1 -9.64213e+06 7.07883e+06
-109983 1.43457e+07 -4.06245e+06
-812660 -9.79365e+06 -4.08402e+06
-6.03308e+06 1.09731e+07 8.64396e+06
716299 -1.66128e+07 -5.69963e+06
-8.77238e+06 1.8813e+07 6.24886e+06
-8.67056e+06 -1.35133e+07 -1.19241e+07
-7.59393e+06 8.22742e+06 -4.39221e+06
-3.91285e+06 -5.11765e+06 -8.76022e+06
3.94036e+06 -5.75361e+06 4.21529e+06
-4.84445e+06 -1.03115e+06 1.60608e+06
-7.25814e+06 1.60591e+06 3.22983e+06
-6.79473e+06 -1.5676e+06 -4.97959e+06
-6.16145e+06 5.64174e+06 -4.24836e+06
-159694 1.41798e+06 2.84122e+06
-2.19576e+06 -6.55246e+06 -5.3636e+06
-1.07914e+06 9.10878e+06 -4.93414e+06
-74700.5 -3.56248e+06 1.50049e+06
-3.8069e+06 4.76151e+06 -4.25778e+06
-5.78759e+06 -3.94767e+06 1.14444e+07
-1.86233e+07 6.91908e+06 2.30537e+06
-1.16151e+07 -1.29829e+07 1.99231e+06
-1.0336e+06 1.09986e+07 959929
2.60767e+06 -1.00226e+07 -2.21239e+06
-2.44891e+06 8.70836e+06 -943192
-4.86756e+06 -2.84124e+06 -727737
-2.74608e+06 8.48599e+06 1.04689e+06
0 0 0
0 0 0
2.80572e+06 2.80235e+06 1.82555e+06
-3.51767e+06 -3.20879e+06 2.55175e+06
2.36708e+06 -2.54167e+06 -568279
-1.50727e+07 -5.51518e+06 1.84263e+06
1.10809e+07 -7.67392e+06 1.66969e+06
-1.97596e+07 -9.73685e+06 783301
1.50012e+07 -5.80295e+06 1.98251e+06
-1.63487e+07 -7.08657e+06 -6.31494e+06
8.14023e+06 6.2235e+06 -5.45454e+06
-9.38902e+06 1.22309e+07 -9.62706e+06
1.70636e+07 2.12658e+07 2.01602e+06
-2.23863e+07 2.28654e+07 5.54224e+06
2.65704e+07 2.19507e+07 7.17888e+06
-2.10645e+07 1.53884e+07 5.00397e+06
1.63706e+07 9.54755e+06 3.32078e+06
-1.0739e+07 7.9172e+06 -7.96476e+06
1.4059e+07 7.21808e+06 782430
-8.0273e+06 7.33372e+06 -3.34307e+06
2.44323e+06 1.28242e+06 -2.80558e+06
-4.88112e+06 -1.29619e+06 -1.81239e+06
-2.32676e+06 -9.91064e+06 -6.17159e+06
6.4386e+06 -2.00981e+06 3.82373e+06
-8.91051e+06 2.58032e+06 300696
1.38718e+07 5.84795e+06 4.26394e+06
-1.55604e+07 -458661 -2.06202e+06
2.25822e+07 -2.88519e+06 3.83866e+06
-1.4488e+07 745235 -428633
2.30696e+07 6.5271e+06 3.97954e+06
-2.15645e+07 7.39205e+06 -2.56175e+06
1.28112e+07 1.04737e+07 3.72947e+06
-1.4357e+07 4.47526e+06 27157
8.04244e+06 -4.19979e+06 2.26878e+06
-1.29699e+07 -83756.2 -270685
6.43628e+06 2.20101e+06 2.7727e+06
-7.80423e+06 -3.74677e+06 2.78367e+06
5.45549e+06 -3.01733e+06 -1.68495e+06
-1.39248e+07 -7.38165e+06 4.0152e+06
5.35774e+06 -2.71706e+06 -2.69589e+06
703393 -3.9988e+06 4.36396e+06
9.81169e+06 1.04763e+07 2.14304e+06
203072 7.34284e+06 3.13815e+06
3.79066e+06 -1.12602e+06 -1.33357e+06
-7.55579e+06 3.44957e+06 7.89328e+06
5.2725e+06 -3.54439e+06 7.04983e+06
5.30811e+06 -527592 8.85601e+06
-3.3624e+06 4.79473e+06 9.70031e+06
3.69135e+06 1.04477e+07 5.2141e+06
6.90238e+06 7.82063e+06 3.81719e+06
-9.79386e+06 5.65749e+06 -626370
7.4929e+06 4.22796e+06 -2.49578e+06
1.20293e+06 -3.33073e+06 -7.817e+06
2.6623e+06 2.03297e+06 -9.05719e+06
799991 7.0259e+06 -1.15944e+07
-1.18271e+06 1.80844e+06 -9.12425e+06
-5.05055e+06 8.93115e+06 -4.1163e+06
-3.31178e+06 3.55881e+06 -265349
8.23729e+06 555291 -1.246e+07
-8.52618e+06 -252088 -371795
1.25456e+06 2.87348e+06 -1.11589e+07
-5.50779e+06 6.03699e+06 -1.38645e+06
1.02216e+07 9.3257e+06 -4.41897e+06
-2.47278e+06 1.15034e+07 1.53193e+06
1.00538e+06 5.27117e+06 -368194
-5.89539e+06 -150480 4.93204e+06
1.48766e+06 -2.20249e+06 -1.8322e+06
-3.77389e+06 -665631 1.323e+06
1.26459e+07 -1.84299e+06 -7.98695e+06
-3.94719e+06 -6.22149e+06 -203907
2.54995e+06 4.30355e+06 -1.03427e+07
5.4805e+06 9.55997e+06 2.33575e+06
-7.35391e+06 1.01384e+07 -921903
1.00457e+07 8.29935e+06 3.01079e+06
-1.19054e+07 7.64019e+06 -4.24783e+06
2.44793e+06 6.57439e+06 512959
-489234 1.12598e+07 -6.47158e+06
9.94152e+06 5.50204e+06 4.70446e+06
-1.15904e+07 -7.62948e+06 3.09313e+06
-2.07588e+07 2.4991e+06 -5.41552e+06
0 0 0
0 0 0
-2.37175e+06 -1.59489e+06 6.86018e+06
-5.44707e+06 6.09897e+06 757823
5.30643e+06 -1.10837e+07 -3.49069e+06
4.33041e+06 4.07807e+06 2.2414e+06
4.57427e+06 3.78439e+06 3.92769e+06
2.37479e+06 858927 29151.6
-1.32841e+07 -4.52235e+06 -8.72529e+06
-1.20402e+07 4.66921e+06 -4.9721e+06
-1.52315e+07 -2.91161e+06 -2.14881e+07
-1.72414e+07 1.29655e+07 9.35036e+06
-1.22217e+07 -2.32607e+07 -7.25022e+06
-1.45811e+07 1.93521e+07 -1.54557e+07
-1.25497e+07 -2.26912e+07 -6.32746e+06
-1.36133e+07 1.07866e+07 -5.73065e+06
-6.49306e+06 -3.08304e+06 -8.88799e+06
-1.47201e+07 -5.84522e+06 -2.53296e+06
-8.00562e+06 1.48151e+07 -1.2525e+07
-1.01605e+07 -1.84113e+07 1.85396e+06
-2.50756e+06 1.39445e+07 -3.95407e+06
2.21078e+06 -1.63797e+07 3.69562e+06
1.23144e+06 1.25355e+07 -6.56987e+06
-538955 -2.30119e+06 -2.32857e+06
7.20401e+06 1.35094e+07 -39801.4
3.89901e+06 -1.446e+07 -168906
1.02651e+07 1.27409e+07 2.37193e+06
1.24745e+07 -2.54497e+07 -7.35186e+06
1.097e+07 1.71589e+07 -339806
1.77928e+07 -1.90002e+07 -621901
2.20693e+07 1.93955e+07 9.5747e+06
1.60329e+07 -1.02976e+07 -1.52943e+06
8.81627e+06 -1.00521e+07 5.61773e+06
1.31386e+07 4.67685e+06 -3.24507e+06
6.76627e+06 -2.93405e+06 -24631
-1.18817e+06 -1.99939e+06 -9.19421e+06
-3.14407e+06 1.59504e+06 -226604
-7.30521e+06 1.47171e+07 -3.31474e+06
791380 -2.79638e+07 4.57864e+06
-9.44113e+06 1.96912e+07 -2.87378e+06
-3.81337e+06 -1.70922e+07 -227053
-1.20337e+07 1.54585e+07 4.24446e+06
-1.07769e+07 -1.40028e+07 -276337
-4.33368e+06 1.44872e+07 567953
-849974 -3.91964e+06 3.25921e+06
-2.0231e+06 -906855 -2.49516e+06
-354009 -5.37029e+06 5.14556e+06
1.43504e+06 -667536 3.78298e+06
-5.78058e+06 6.96722e+06 -2.59184e+06
-4.61282e+06 -1.76399e+07 1.31786e+07
1.64071e+06 2.34368e+07 -5.37439e+06
7.7044e+06 -1.32044e+07 3.39351e+06
6.52591e+06 1.1113e+07 -3.37502e+06
4.37598e+06 -2.26048e+07 -3.21305e+06
2.10423e+06 1.33552e+07 6.22385e+06
1.97503e+06 -1.57422e+07 -1.32134e+06
615868 1.37277e+07 6.12379e+06
-3.89101e+06 -1.20145e+07 1.91667e+06
2.6539e+06 4.5561e+06 1.0096e+07
3.41974e+06 2.41851e+06 3.97069e+06
3.98706e+06 5.58234e+06 5.32642e+06
6.58669e+06 211985 5.23116e+06
6.53725e+06 -1.24247e+06 -6.74466e+06
-379829 -3.24565e+06 8.60538e+06
588679 -381649 7.31545e+06
-3.28825e+06 3.51353e+06 -1.66412e+06
-9.27947e+06 -3.43425e+06 -4.78611e+06
-6.21759e+06 6.40059e+06 4.44928e+06
-5.60855e+06 -3.27297e+06 4.36263e+06
1.51726e+06 5.73185e+06 -8.82856e+06
8.23629e+06 -3.09797e+06 1.42071e+06
1.28987e+07 -222800 -9.7195e+06
1.06845e+07 -1.13525e+07 -2.60416e+06
3.27398e+06 1.19504e+07 -3.39574e+06
-2.01787e+06 -2.71101e+06 1.48832e+06
-662015 8.36452e+06 -4.86835e+06
-1.60129e+06 -8.21592e+06 -1.41284e+06
1.14005e+06 5.56688e+06 -5.33348e+06
1.75466e+07 1.12774e+06 7.12272e+06
0 0 0
0 0 0
3.04139e+06 8.49519e+06 -904886
-6.38087e+06 1.85698e+06 -1.20966e+06
1.26521e+07 -2.63489e+06 -3.46861e+06
-1.26312e+07 -5.0901e+06 -1.45982e+06
2.01632e+07 -1.44533e+06 -3.75496e+06
-1.23554e+07 2.35934e+06 -5.20727e+06
1.53282e+07 268483 1.30379e+06
-1.1985e+07 -6.32821e+06 -42027
1.60145e+07 -1.0008e+07 8.3685e+06
-1.55114e+07 -1.64805e+07 -710839
1.93798e+07 -2.57044e+07 -2.88472e+06
-1.9066e+07 -2.35985e+07 -8.8407e+06
1.89552e+07 -2.34218e+07 -1.08265e+07
-1.75615e+07 -1.85064e+07 -6.14511e+06
1.11535e+07 -8.94071e+06 -617154
-9.74932e+06 -8.49387e+06 -355159
1.52371e+07 -5.65752e+06 402908
-8.9018e+06 -1.94058e+06 -4.54057e+06
7.29426e+06 -70318.1 -3.78256e+06
-8.97653e+06 7.71552e+06 832180
-1.65307e+06 1.23573e+07 -5.87872e+06
4.90963e+06 5.69058e+06 3.26356e+06
-1.62564e+07 -6.06427e+06 -5.94898e+06
1.72145e+07 -5.7783e+06 981737
-2.19266e+07 -2.19497e+06 -2.87346e+06
1.75423e+07 1.7956e+06 -2.58397e+06
-2.29823e+07 -191086 -3.47853e+06
2.0025e+07 -4.08567e+06 -2.24176e+06
-2.60703e+07 -8.7835e+06 -2.93063e+06
2.54831e+07 -5.45031e+06 -1.00647e+06
-1.55907e+07 -873900 372301
1.78007e+07 -225623 2.0986e+06
-1.44662e+07 1.46085e+06 -1.09242e+06
8.5884e+06 -2.66531e+06 5.18746e+06
-2.83828e+06 3.29314e+06 1.67315e+06
6.90857e+06 2.09627e+06 6.11035e+06
-4.06312e+06 3.22753e+06 2.93061e+06
1.20303e+07 1.2912e+07 -477644
-9.59648e+06 1.09295e+07 -4.991e+06
1.11821e+07 -2.66711e+06 -4.18055e+06
-1.16066e+07 -5.4659e+06 -3.26022e+06
1.10149e+07 -6.33182e+06 -6.38703e+06
-4.73299e+06 1.35116e+06 -3.03972e+06
1.68919e+06 9.33657e+06 -1.17893e+07
952269 8.44721e+06 -1.39202e+07
-2.56254e+06 -946187 -1.64019e+07
4.66517e+06 -7.03912e+06 -9.92758e+06
-3.02738e+06 -8.85862e+06 -6.42253e+06
-8.89581e+06 -1.40761e+07 1.70795e+06
1.68809e+06 -1.16591e+07 945932
-2.06043e+06 -6.40526e+06 4.31558e+06
3.98008e+06 -2.69013e+06 8.0216e+06
-2.75246e+06 -1.0167e+07 1.05708e+07
2.98975e+06 -9.30516e+06 9.27474e+06
3.99123e+06 -6.89955e+06 5.5536e+06
-1.01716e+06 -1.94893e+06 1.21626e+07
8.53109e+06 214318 4.01084e+06
-8.66909e+06 -791781 1.31722e+07
5.40537e+06 -2.32075e+06 -707836
-1.17501e+06 -5.47271e+06 6.6392e+06
9.30995e+06 -7.14452e+06 4.07214e+06
-4.50351e+06 -8.40256e+06 5.98206e+06
-8.35982e+06 -1.14059e+07 -88071
1.01649e+07 -9.21135e+06 696744
-5.95732e+06 -5.27336e+06 -4.08031e+06
1.82747e+06 -348126 7.6618e+06
-1.70348e+06 -2.51563e+06 -2.19902e+06
-2.72841e+06 -1.45501e+07 1.42537e+07
204706 -1.4049e+07 1.38881e+06
2.55094e+06 -2.01453e+07 7.70021e+06
-3.77885e+06 -2.27892e+07 -6.92388e+06
5.33442e+06 -1.65834e+07 3.92042e+06
-4.91635e+06 -1.62395e+07 1.11315e+06
6.0481e+06 -1.23495e+07 6.20586e+06
-4.08115e+06 -1.27629e+07 -7.2639e+06
5.71912e+06 -1.42454e+07 4.0463e+06
-1.83732e+07 -4.02948e+06 -4.6112e+06
2.36213e+07 848623 1.42601e+06
2.02193e+07 1.31251e+06 6.01554e+06
0 0 0
0 0 0
-829864 -9.18659e+06 -3.41612e+06
1.57263e+06 3.48489e+06 2.73059e+06
-2.69458e+06 -1.09267e+07 915625
-5.75351e+06 4.39667e+06 -3.14302e+06
-6.72069e+06 -1.84867e+06 -1.12651e+07
-1.73122e+06 -3.01676e+06 -6.85652e+06
1.04167e+07 -4.99533e+06 1.75614e+06
1.66351e+07 4.15807e+06 8.89019e+06
2.11693e+07 -5.98887e+06 -7.10917e+06
2.12544e+07 1.21228e+07 5.65093e+06
2.13117e+07 -2.00613e+07 -5.08461e+06
1.68686e+07 2.81899e+07 315257
1.70772e+07 -2.16894e+07 6.80646e+06
1.71271e+07 2.21309e+07 2.14888e+06
2.14796e+07 -1.29897e+07 9.27997e+06
1.71147e+07 19113 5.94043e+06
1.08073e+07 1.06577e+07 -4.23789e+06
1.10183e+07 -1.66736e+07 2.58496e+06
1.21521e+07 2.2645e+07 -6.65655e+06
1.0766e+06 -1.54542e+07 2.75159e+06
2.03029e+06 8.38155e+06 -5.6892e+06
3.05999e+06 -6.77649e+06 5.6354e+06
-2.83098e+06 8.77021e+06 790846
-7.59947e+06 -1.49044e+07 -8.78786e+06
-7.55883e+06 1.54648e+07 -4.45024e+06
-5.65228e+06 -1.31078e+07 -6.18183e+06
-1.26132e+07 1.10138e+07 -4.92553e+06
-1.7893e+07 -1.35757e+07 -6.56827e+06
-2.22581e+07 2.22176e+07 -1.05653e+06
-8.88671e+06 -3.2432e+06 -3.18022e+06
-4.19642e+06 -8.71603e+06 -746239
-3.15286e+06 3.59958e+06 -2.49981e+06
3.72819e+06 -357897 1.70087e+06
1.12523e+07 1.38605e+07 -4.19532e+06
1.37553e+07 -8.57315e+06 2.9153e+06
8.83954e+06 1.36369e+07 -1.88809e+06
1.85644e+07 -2.10894e+07 2.76695e+06
1.85914e+07 2.07674e+07 418999
1.37557e+07 -1.57912e+07 -6.19536e+06
6.10983e+06 1.51573e+07 272588
7.0818e+06 -1.39218e+07 1.90722e+06
966416 1.58961e+07 1.03966e+07
553034 -629503 2.86535e+06
4.06578e+06 2.27351e+06 -4.98393e+06
-4.31762e+06 -9.89101e+06 2.24592e+06
-768576 83136.5 -3.61779e+06
-3.04844e+06 4.28447e+06 -1.6511e+07
3.22479e+06 -6.64697e+06 5.76475e+06
-1.50262e+06 8.23287e+06 -3.63521e+06
-1.05411e+07 -1.56381e+07 7.71989e+06
-7.41395e+06 2.08077e+07 -6.57868e+06
-4.18414e+06 -2.64128e+07 -4.32336e+06
4.02426e+06 1.42884e+07 3.16893e+06
3.73629e+06 -1.78048e+07 -3.04667e+06
4.01289e+06 1.49737e+07 -3.89836e+06
7.48193e+06 -5.86685e+06 -6.57667e+06
1.01736e+07 9.08049e+06 -1.13144e+07
4.10154e+06 -8.95913e+06 -3.87785e+06
-3.49853e+06 6.14632e+06 1.76336e+06
-8.52035e+06 -5.08994e+06 6.08867e+06
-5.30543e+06 -264956 1.66921e+06
-4.80462e+06 -1.3132e+06 611728
-4.84739e+06 2.62646e+06 -3.38841e+06
3.05374e+06 1.01612e+06 8.6468e+06
8.05256e+06 814581 -9.81934e+06
7.39451e+06 25192 2.25533e+06
7.02006e+06 153994 6.01817e+06
-597980 2.58286e+06 1.17126e+06
-8.58586e+06 1.59638e+06 1.12074e+07
-8.30529e+06 578784 3.91727e+06
-4.46629e+06 -2.16251e+06 6.75284e+06
1.56551e+06 4.74327e+06 -1.50266e+06
8.39728e+06 -7.53179e+06 6.74181e+06
9.22165e+06 9.1926e+06 3.06314e+06
2.53418e+06 -1.0257e+07 3.35532e+06
-2.96403e+06 9.13779e+06 -5.18789e+06
-1.20175e+07 -4.71e+06 7.89426e+06
-2.10033e+07 -50497.4 -7.7042e+06
0 0 0
0 0 0
1.85379e+06 -7.17551e+06 1.30185e+06
-7.8457e+06 -9.31374e+06 2.9381e+06
1.0148e+07 4.40442e+06 -2.90419e+06
-2.25135e+07 6.181e+06 4.05987e+06
1.67008e+07 5.29149e+06 -80847.9
-1.61212e+07 2.53319e+06 4.00936e+06
1.41515e+07 8.80022e+06 3.36817e+06
-1.63724e+07 1.55902e+07 3.02098e+06
9.38518e+06 1.94013e+07 -4.37973e+06
-1.57089e+07 2.33438e+07 -757612
1.50593e+07 2.18231e+07 1.19545e+06
-1.0914e+07 2.36396e+07 9.56272e+06
1.27676e+07 2.55967e+07 9.0145e+06
-1.38584e+07 1.3387e+07 1.16157e+07
8.98543e+06 1.00367e+07 5.19343e+06
-1.29927e+07 9.41538e+06 880612
1.84901e+07 1.92404e+06 5.96156e+06
-1.13952e+07 -909796 6.63113e+06
2.48025e+06 -8.87649e+06 4.77684e+06
6.24612e+06 -9.99012e+06 797130
-552419 -1.07922e+07 -3.17768e+06
8.03944e+06 -1.34392e+07 5.51086e+06
-1.49667e+07 -7.05492e+06 3.44346e+06
1.56524e+07 -2.04703e+06 7.11264e+06
-1.56741e+07 -1.01816e+06 5.03624e+06
2.01673e+07 198927 5.42203e+06
-1.02783e+07 1.99029e+06 6.11515e+06
1.29037e+07 1.974e+06 2.44848e+06
-2.21767e+07 3.34264e+06 -1.56964e+06
2.00258e+07 2.50696e+06 3.85574e+06
-2.56143e+07 -4.83403e+06 -907067
2.4598e+07 979767 5.99473e+06
-1.57762e+07 5.5325e+06 -638120
1.07613e+07 1.57649e+06 978755
-1.01146e+07 1.48549e+06 -3.63962e+06
6.32063e+06 970999 -2.57334e+06
-1.46795e+07 -6.12411e+06 -1.21412e+06
2.31629e+07 -9.94e+06 -3.08002e+06
-1.78895e+07 -7.67777e+06 3.59142e+06
1.47726e+07 -7.74884e+06 857854
-9.41479e+06 3.36829e+06 7.09073e+06
1.73673e+06 3.17172e+06 -3.5268e+06
-910993 -6.48893e+06 1.39586e+07
2.46365e+06 -3.87892e+06 5.51422e+06
-3.3991e+06 -1.1368e+07 1.70327e+07
-4.55696e+06 -3.74251e+06 9.50539e+06
7.41011e+06 3.179e+06 1.16102e+07
-5.01602e+06 3.38436e+06 4.80905e+06
-7.38091e+06 1.05983e+07 5.19285e+06
1.05176e+07 1.84932e+07 2.95154e+06
-5.5525e+06 9.11907e+06 -1.26934e+06
-203302 8.63463e+06 -4.6536e+06
-637334 6.82809e+06 -9.16118e+06
-3.31525e+06 5.63684e+06 -4.0437e+06
3.2812e+06 887939 -1.19501e+06
-6.37234e+06 2.25837e+06 3.56226e+06
8.78746e+06 -3.46033e+06 -4.89651e+06
-1.20969e+07 -6.24758e+06 3.83604e+06
5.76783e+06 817199 -2.74141e+06
-5.53626e+06 1.86403e+06 2.10228e+06
1.83431e+06 1.77414e+06 3.97769e+06
-3.26559e+06 5.92258e+06 5.07622e+06
-1.72191e+06 1.1981e+07 4.9247e+06
9.55411e+06 1.3895e+07 5.03926e+06
-5.12823e+06 8.68897e+06 1.93504e+06
1.11751e+07 1.37375e+07 2.59158e+06
-1.33123e+07 1.29532e+07 -2.15648e+06
2.96337e+06 1.96654e+07 1.12319e+06
-7.47256e+06 2.3776e+07 -3.07882e+06
5.2842e+06 2.26379e+07 6.00113e+06
-5.70996e+06 2.13457e+07 2.47288e+06
8.30067e+06 1.82059e+07 5.59049e+06
-1.11726e+07 2.2142e+07 -928283
9.9772e+06 1.79106e+07 2.93237e+06
-1.30873e+07 1.11715e+07 -919695
8.17284e+06 1.24381e+07 7.4789e+06
-1.60191e+07 2.57991e+06 -66495.7
1.6084e+07 -5.62792e+06 1.22684e+06
-2.13651e+07 7.4449e+06 -6.02694e+06
-2.03127e+07 -5.64355e+06 -9.28575e+06
0 0 0
0 0 0
-2.11913e+06 -5.1553e+06 1.85437e+06
895315 1.45433e+07 701162
6.16042e+06 -1.03797e+07 -5.01598e+06
9.06796e+06 2.83015e+06 2.52022e+06
3.39857e+06 -6.03459e+06 6.18877e+06
-5.8727e+06 8.29668e+06 4.10964e+06
-1.40384e+07 -7.16617e+06 -2.582e+06
-1.91875e+07 6.99325e+06 3.02164e+06
-2.02997e+07 -5.6158e+06 -1.33355e+07
-2.82039e+07 9.08451e+06 1.23914e+07
-2.23523e+07 -2.13325e+07 -6.78479e+06
-2.21364e+07 2.01193e+07 -1.07874e+07
-2.49454e+07 -2.16032e+07 -5.80374e+06
-3.27656e+07 2.29239e+07 -6.66551e+06
-3.80098e+07 -1.2657e+07 -6.54035e+06
-3.00249e+07 8.93554e+06 -3.61191e+06
-1.93842e+07 1.89697e+06 -1.14496e+07
-1.90392e+07 -1.36001e+07 -386717
-1.6057e+07 1.57312e+07 3.42506e+06
-1.10355e+07 -2.00662e+07 3.34874e+06
-6.21157e+06 1.81982e+07 -3.8965e+06
-5.28291e+06 -1.43931e+07 2.54853e+06
-4.49157e+06 1.21463e+07 59585
1.74083e+06 -1.75657e+07 392829
7.53415e+06 8.43893e+06 4.61789e+06
1.07705e+07 -1.15223e+07 -1.53006e+06
1.3939e+07 4.09274e+06 2.02242e+06
2.07269e+07 -1.24614e+07 3.31063e+06
1.4056e+07 1.66087e+07 1.31285e+07
104429 -5.9245e+06 -2.76211e+06
-8.01345e+06 -1.51625e+07 8.30359e+06
-9.81494e+06 5.34528e+06 3.99909e+06
2.28077e+06 -1.00019e+07 4.16326e+06
-3.63814e+06 1.30921e+07 -6.31062e+06
-1.41077e+07 -1.02036e+07 2.12239e+06
-1.61525e+07 1.06006e+07 -6.26223e+06
-2.33091e+07 -1.35559e+07 -912937
-2.24414e+07 1.17576e+07 1.60675e+06
-1.67022e+07 -1.94985e+07 -3.7688e+06
-8.75059e+06 1.61521e+07 -2.60378e+06
-3.6167e+06 -1.29302e+07 -4.91667e+06
-5.94063e+06 1.468e+07 -5.97159e+06
587007 -8.92998e+06 4.46929e+06
-4.32894e+06 5.86494e+06 1.09879e+06
-8.70227e+06 -8.21316e+06 4.98415e+06
3.30658e+06 3.45205e+06 9.41256e+06
8.14118e+06 -1.48267e+06 -1.31355e+06
2.14084e+06 7.075e+06 1.51797e+07
-4.16492e+06 4.78051e+06 -259962
53809.2 -1.01617e+07 4.32808e+06
-1.56604e+06 1.9753e+07 832313
-9.45465e+06 -1.21038e+07 -2.43841e+06
-6.40523e+06 1.61235e+07 7.18879e+06
-5.13305e+06 -1.40283e+07 -2.07522e+06
-3.25576e+06 1.33636e+07 2.73333e+06
-8.81811e+06 -8.93853e+06 5.86382e+06
-6.44018e+06 5.12781e+06 7.45333e+06
-7.7412e+06 -1.39941e+07 898562
-1.51658e+06 8.42804e+06 -276922
7.53762e+06 -9.13238e+06 771510
1.57152e+07 6.75038e+06 -1.37763e+07
1.2452e+07 -6.63558e+06 2.89991e+06
734620 4.50971e+06 5.32229e+06
4.09074e+06 -353499 -3.04909e+06
2.00142e+06 6.77565e+06 -1.18528e+07
-9.9298e+06 -5.7802e+06 1.43618e+06
-9.36093e+06 1.64811e+06 3.41304e+06
-965616 -6.77919e+06 -1.1144e+07
4.52892e+06 6.17094e+06 -3.63198e+06
4.31726e+06 69396.2 -1.52278e+07
1.91193e+06 -6.70978e+06 -645983
-3.00995e+06 686463 -1.23556e+07
-1.1384e+07 -8.40719e+06 5.34902e+06
-1.06344e+07 1.44068e+07 -3.58229e+06
-5.96677e+06 -1.18165e+07 927609
-97255.4 7.56515e+06 -1.04418e+07
3.02877e+06 -8.47469e+06 1.28812e+07
1.12432e+07 3.26354e+06 3.79365e+06
1.16436e+07 4.8334e+06 8.40234e+06
0 0 0
0 0 0
-6.6791e+06 1.01024e+07 841421
-5.10422e+06 -319434 2.10225e+06
1.82132e+07 -5.83045e+06 -171917
-1.56687e+07 -9.01537e+06 4.051e+06
2.31606e+07 -1.24118e+07 6940.86
-1.59057e+07 -1.71855e+07 -3.11761e+06
1.72702e+07 -1.57756e+07 -582692
-1.21151e+07 -1.91878e+07 465063
1.26313e+07 -2.15669e+07 6.1366e+06
-2.01572e+07 -2.50962e+07 2.25118e+06
1.61328e+07 -2.21992e+07 -2.04322e+06
-9.49566e+06 -2.45663e+07 -5.59316e+06
1.04121e+07 -2.21135e+07 -6.96147e+06
-1.44881e+07 -1.69157e+07 -6.60421e+06
1.47108e+07 -1.04972e+07 -3.45672e+06
-1.27059e+07 -3.66701e+06 -513232
1.49709e+07 -1.50907e+06 -196191
-6.07859e+06 1.13211e+06 -1.45632e+06
847367 1.00732e+07 1.16812e+06
2.61481e+06 1.39266e+07 1.77151e+06
-3.76765e+06 1.16489e+07 -326672
7.33792e+06 1.53235e+07 2.56173e+06
-1.22629e+07 1.51276e+07 -2.1377e+06
1.13048e+07 1.07379e+07 -1.71655e+06
-1.16397e+07 8.80816e+06 706239
1.3967e+07 6.36524e+06 -8.93126e+06
-5.61333e+06 -2.02512e+06 -1.39088e+06
3.60153e+06 -5.60046e+06 -1.00852e+07
-1.14921e+07 -2.52769e+06 -3.41616e+06
1.79779e+07 2.77755e+06 -8.6582e+06
-2.29442e+07 2.88656e+06 -7.07279e+06
2.92191e+07 188825 -7.26916e+06
-1.69645e+07 -6.93602e+06 -8.62687e+06
1.3055e+07 -1.12914e+07 -5.64869e+06
-1.66819e+07 -6.17686e+06 -7.37108e+06
2.12883e+07 -2.70973e+06 -1.43049e+06
-2.78107e+07 8.19935e+06 -2.12996e+06
2.70686e+07 7.54125e+06 -539100
-2.40649e+07 8.03554e+06 -233086
1.39634e+07 7.53326e+06 -504582
-5.99427e+06 3.46128e+06 6.0273e+06
1.92924e+06 1.75743e+06 -2.26984e+06
-3.86361e+06 -613984 3.5605e+06
1.3229e+06 97641.9 -7.95245e+06
-6.74608e+06 7.15332e+06 -6.73243e+06
5.86174e+06 7.70805e+06 -1.25196e+07
1.86781e+06 -1.02986e+06 -6.71598e+06
-1.36964e+06 -5.82904e+06 -4.07999e+06
5.91293e+06 -8.63922e+06 922394
2.45874e+06 -1.50306e+07 1.31027e+06
-6.05612e+06 -1.70224e+07 2.24975e+06
1.26782e+06 -7.97887e+06 5.60744e+06
2.52025e+06 -7.43323e+06 5.86858e+06
-3.16717e+06 -115144 6.58341e+06
5.82226e+06 3.8536e+06 -1.31517e+06
6.08254e+06 1.12385e+07 1.98086e+06
-4.05435e+06 1.01177e+07 -4.36278e+06
3.99772e+06 4.6218e+06 -2.22549e+06
7.44253e+06 2.3101e+06 -8.65275e+06
-7.74213e+06 -4.47066e+06 -8.44799e+06
9.34087e+06 -6.72975e+06 -3.28614e+06
-8.28759e+06 -3.41228e+06 -7.87892e+06
4.2939e+06 -6.01707e+06 -5.2043e+06
3.79872e+06 -1.24688e+07 -1.0138e+07
-4.4524e+06 -1.31123e+07 -4.66086e+06
9.82789e+06 -1.02052e+07 -4.53735e+06
-1.16008e+06 -1.58804e+07 -2.72414e+06
9.70349e+06 -1.20141e+07 -1.51465e+06
-6.8781e+06 -1.7482e+07 3.62608e+06
9.26647e+06 -1.64623e+07 -4.96104e+06
-1.48366e+07 -1.5858e+07 -5.15734e+06
1.44667e+07 -2.32197e+07 -6.02792e+06
-6.3912e+06 -2.106e+07 6.22028e+06
1.43118e+07 -1.38107e+07 -6.39704e+06
-1.2014e+07 -1.48315e+07 -2.03072e+06
1.539e+07 -8.50564e+06 -9.76461e+06
-1.6684e+07 -4.23774e+06 4.20227e+06
1.54759e+07 -4.24844e+06 -2.14786e+06
-1.37225e+07 -1.33334e+06 8.35367e+06
1.30442e+07 -6.03224e+06 -1.12784e+06
1.23735e+07 6.65381e+06 6.07945e+06
0 0 0
0 0 0
-5.03258e+06 -747516 -6.02318e+06
-8.24955e+06 2.25782e+06 3.30006e+06
-738271 -1.14694e+07 2.57327e+06
1.94739e+06 1.70866e+07 451560
4.16518e+06 -1.00762e+07 -8.4888e+06
7.97394e+06 6.55839e+06 -3.93082e+06
1.36469e+07 -7.67387e+06 2.45924e+06
1.9089e+07 1.14912e+07 1.43353e+07
1.94487e+07 -9.99912e+06 -2.82699e+06
1.69111e+07 6.97042e+06 7.38359e+06
1.98494e+07 -7.25652e+06 -4.43247e+06
2.04467e+07 1.01538e+07 1.05423e+07
3.62281e+07 -9.45946e+06 1.03357e+07
3.92848e+07 1.11546e+07 6.89549e+06
3.3497e+07 -1.31878e+07 1.68892e+07
3.17846e+07 1.31168e+07 8.96273e+06
2.30165e+07 1.9666e+06 -3.59876e+06
2.06537e+07 -1.10622e+07 4.05005e+06
1.49736e+07 1.92006e+07 4.75704e+06
1.27097e+07 -1.56047e+07 4.51452e+06
1.10311e+07 2.63056e+07 -6959.3
5.62545e+06 -2.61359e+07 5.3326e+06
-3.67639e+06 2.50383e+07 2.74535e+06
-2.91749e+06 -4.31892e+06 -8.3956e+06
-3.26193e+06 1.02822e+07 6.11496e+06
-1.3395e+07 -1.21857e+07 3.86127e+06
-1.88253e+07 1.84815e+07 5.16792e+06
-1.71194e+07 -1.97657e+07 -4.53545e+06
-6.61805e+06 1.55085e+07 7.61729e+06
-2.79443e+06 -8.50344e+06 -7.81453e+06
3.45795e+06 -2.81776e+06 3.66085e+06
3.41614e+06 1.36874e+07 -5.10472e+06
1.37272e+06 -8.30046e+06 5.65883e+06
1.28836e+06 7.72181e+06 -6.4123e+06
5.96077e+06 -4.26446e+06 1.37758e+07
9.58854e+06 1.05742e+07 -5.62701e+06
1.17655e+07 -1.25529e+07 3.97222e+06
1.58384e+07 9.24028e+06 1.9109e+06
1.18307e+07 -1.16169e+07 294225
1.18888e+07 1.81374e+07 -5.70648e+06
1.27076e+07 -2.13061e+07 4.62692e+06
-2.08968e+06 1.37007e+07 -184483
4.47319e+06 -1.8608e+06 3.90797e+06
9.01462e+06 2.96718e+06 -1.07898e+07
3.56821e+06 -2.20895e+06 3.51509e+06
8.2046e+06 2.70369e+06 -7.45023e+06
1.73692e+06 -1.24213e+07 -1.34036e+07
452092 1.19661e+07 -3.49815e+06
4.24687e+06 -6.18945e+06 3.71054e+06
1.01285e+07 -5.70101e+06 872952
1.19069e+07 9.22114e+06 1.9756e+06
6.0029e+06 -8.45986e+06 -7.70652e+06
5.3886e+06 9.585e+06 1.30642e+07
4.61102e+06 -1.51189e+07 -8.63797e+06
1.79021e+06 1.51097e+07 2.07325e+06
7.84808e+06 -5.82757e+06 -7.5397e+06
6.56163e+06 8.30732e+06 -3.7455e+06
5.80346e+06 -1.48403e+07 -1.01012e+07
2.2251e+06 1.25167e+07 5.49426e+06
-1.24696e+07 -1.01133e+07 1.52001e+06
-1.62306e+07 1.40062e+07 5.87279e+06
-6.86147e+06 -1.3102e+07 -9.28036e+06
-2.56396e+06 1.24148e+07 45420.9
-5.61538e+06 -5.55464e+06 2.89638e+06
-5.65593e+06 1.68801e+06 -1.04328e+07
5.86603e+06 -8.13741e+06 -1.34748e+06
7.5448e+06 1.62511e+06 1.01558e+07
853840 -715742 -714229
1.83708e+06 5.65049e+06 1.15377e+07
2.0655e+06 1.31998e+06 2.35652e+06
1.43078e+06 -1.05767e+07 1.18047e+07
3.00995e+06 6.25659e+06 -6.00075e+06
1.59946e+07 -7.75567e+06 1.01559e+07
1.27461e+07 1.45731e+07 6.70635e+06
9.03851e+06 -8.04363e+06 4.07997e+06
6.83591e+06 5.11955e+06 -8.29522e+06
8.15855e+06 -8.01899e+06 6.1423e+06
2.28262e+06 2.05119e+06 -6.40692e+06
-9.44096e+06 890928 -9.39129e+06
-1.14327e+07 -4.40636e+06 -8.44817e+06
0 0 0
0 0 0
-3.13645e+06 778558 -72648.6
-1.12172e+07 5.23272e+06 -81777.7
1.30058e+07 1.14419e+06 -6.31654e+06
-1.93912e+07 8.94884e+06 281406
1.76782e+07 1.95183e+07 -4.87874e+06
-1.82309e+07 2.62693e+07 -659758
1.68685e+07 2.62873e+07 -2.20674e+06
-1.03404e+07 2.27812e+07 -636449
1.36369e+07 2.42465e+07 -9.3937e+06
-1.65887e+07 2.78588e+07 -4.2984e+06
7.66249e+06 2.59633e+07 -2.99563e+06
-1.04301e+07 2.17463e+07 5.57026e+06
1.43326e+07 2.48144e+07 3.54047e+06
-1.50106e+07 2.35263e+07 2.76351e+06
1.15027e+07 1.10743e+07 -1.80524e+06
-9.7735e+06 1.04061e+07 -3.17003e+06
2.57132e+06 904519 -957658
1.42737e+06 -1.31383e+07 1.64436e+06
2.9982e+06 -1.16844e+07 -1.59782e+06
-2.45062e+06 -1.67105e+07 -5.70244e+06
-5.81569e+06 -1.74959e+07 -1.00132e+07
6.07214e+06 -1.73e+07 -3.29342e+06
-9.34773e+06 -1.369e+07 -8.14148e+06
1.21114e+07 -1.24581e+07 -2.20007e+06
-7.62743e+06 -1.25085e+07 -2.87484e+06
1.14441e+07 -5.06215e+06 493261
-7.22718e+06 2.64998e+06 5.08693e+06
966035 4.75459e+06 3.11386e+06
-1.13704e+07 9.63991e+06 2.63901e+06
1.7529e+07 -660411 8.75899e+06
-2.30276e+07 3.56721e+06 3.5432e+06
2.63399e+07 2.00868e+06 1.49488e+07
-2.00413e+07 -1.33187e+06 7.40772e+06
1.48982e+07 1.17655e+07 1.09666e+07
-1.75193e+07 7.61656e+06 3.19099e+06
2.27456e+07 709502 7.4551e+06
-2.1143e+07 -3.0429e+06 247973
2.64977e+07 -8.58524e+06 4.53737e+06
-2.98407e+07 -1.10812e+07 -796859
1.14875e+07 -1.20617e+07 85281.7
-3.17485e+06 -6.04853e+06 -3.85866e+06
5.17459e+06 -5.32551e+06 -8.39207e+06
4.65363e+06 -2.67855e+06 -1.20578e+06
4.43796e+06 443123 1.06982e+06
-1.01606e+07 -3.85156e+06 8.2924e+06
4.42842e+06 -1.2967e+06 8.73436e+06
-9.52808e+06 -1.54837e+06 6.40341e+06
-1.06408e+07 6.63445e+06 3.70061e+06
1.00849e+07 8.70587e+06 -1.59842e+06
-1.02932e+07 7.12171e+06 446004
8.72557e+06 1.59867e+07 -4.82217e+06
-1.29395e+06 1.0501e+07 -7.82659e+06
8.857e+06 5.00477e+06 -1.16317e+07
-3.20182e+06 3.91724e+06 -6.31316e+06
-675999 -7.85526e+06 -3.0902e+06
7.30497e+06 -1.39564e+07 -1.00659e+06
-1.82174e+07 -1.28938e+07 -290300
7.77872e+06 -6.82879e+06 923822
863974 -6.63623e+06 5.95996e+06
-8.80861e+06 2.95608e+06 494825
1.3053e+07 6.1639e+06 9.11326e+06
-7.86136e+06 -252945 376622
4.06202e+06 7.63444e+06 7.59021e+06
1.47746e+06 2.11964e+06 1.50686e+06
-1.07158e+06 6.89336e+06 7.20394e+06
-1.0922e+06 6.65335e+06 -3.20036e+06
-309858 8.44953e+06 609574
1.29888e+06 1.60777e+07 -1.22018e+07
-7.61788e+06 1.14881e+07 -1.59444e+06
1.2404e+07 1.15821e+07 -6.87676e+06
-2.29445e+07 9.7224e+06 2.32749e+06
1.80808e+07 1.19352e+07 -5.38581e+06
-1.13028e+07 1.7521e+07 1.90903e+06
7.01169e+06 7.88228e+06 -8.08998e+06
-1.72833e+07 1.02809e+07 3.77226e+06
2.30525e+07 4.92835e+06 -5.68502e+06
-2.00541e+07 1.04568e+07 2.14473e+06
2.0137e+07 1.617e+06 -1.04529e+07
-6.94919e+06 -4.62748e+06 -6.56915e+06
1.75938e+07 -3.15892e+06 -1.20319e+07
-1.35958e+07 9.1972e+06 1.02492e+07
-1.67908e+07 -8.65214e+06 -5.33314e+06
0 0 0
0 0 0
4.45078e+06 5.80962e+06 -1.64968e+06
4.2037e+06 1.56234e+06 -437342
4.59768e+06 945330 -2.31174e+06
-8.96592e+06 9.17971e+06 2.52691e+06
-1.77164e+07 -2.13015e+07 8.09165e+06
-1.098e+07 1.62423e+07 6.57982e+06
-8.93156e+06 -7.42581e+06 -989162
-2.11466e+07 1.40063e+07 7.97502e+06
-2.30721e+07 -1.63494e+07 -1.01109e+07
-1.45766e+07 8.60408e+06 1.18782e+07
-1.2412e+07 -1.28346e+07 -1.71305e+06
-1.81212e+07 1.40002e+07 -2.2386e+06
-2.3431e+07 -6.65778e+06 1.8663e+06
-3.45333e+07 1.04709e+06 -2.34145e+06
-2.87214e+07 -4.48332e+06 6.03319e+06
-2.85619e+07 9.24231e+06 2.73122e+06
-2.96369e+07 -3.58443e+06 -1.78511e+06
-9.60226e+06 -1.1866e+07 1.08969e+06
-9.65687e+06 1.2799e+07 1.12497e+07
-1.19155e+07 -1.62943e+07 4.35587e+06
-1.7409e+07 1.67937e+07 4.0913e+06
-7.84316e+06 -2.88285e+07 3.77527e+06
254529 1.49785e+07 3.78598e+06
292612 -1.1075e+07 3.63101e+06
4.61018e+06 1.60403e+07 7.32953e+06
8.55502e+06 -1.4189e+07 4.09562e+06
7.35235e+06 2.0008e+07 -3.94782e+06
1.78881e+07 -1.66506e+07 -1.18076e+06
7.78883e+06 2.11467e+07 7.08069e+06
3.99361e+06 -1.1248e+06 -8.71866e+06
-22879.1 -429028 5.24386e+06
-4.04928e+06 4.76808e+06 3.92837e+06
-4.62742e+06 -1.03752e+07 2.00441e+06
-8.54228e+06 4.95985e+06 -3.84315e+06
-2.04061e+06 -201769 1.03189e+07
-1.21339e+07 1.51902e+06 -3.56775e+06
-7.97126e+06 -1.29988e+07 -2.21729e+06
-7.61238e+06 5.38814e+06 7.88323e+06
-8.49376e+06 -2.00004e+07 5.17515e+06
-1.51734e+07 2.39517e+07 751253
-7.17063e+06 -2.11935e+07 -184438
-972418 1.37238e+07 -9.75949e+06
-6.85423e+06 -3.74282e+06 9.61684e+06
-8.45163e+06 1.09042e+06 -4.08727e+06
-1.25534e+07 2.95929e+06 4.54715e+06
-4.35391e+06 2.77929e+06 9.41963e+06
-3.37244e+06 -1.41825e+07 -991880
-1.57783e+07 1.73036e+07 5.82951e+06
-1.71698e+07 -1.04096e+07 1.03691e+06
-7.53801e+06 5.85512e+06 -4.62073e+06
-9.01292e+06 2.39878e+06 911133
-5.19401e+06 -7.05063e+06 -7.51842e+06
187492 1.21316e+07 9.72931e+06
-1.65455e+06 -2.10334e+07 -8.39956e+06
-4.1761e+06 1.81066e+07 2.87856e+06
-9.61692e+06 -1.07602e+07 2.50701e+06
-3.88524e+06 9.46631e+06 5.63002e+06
-794901 -1.29568e+07 -5.52567e+06
6.85463e+06 1.48098e+07 -1.33144e+06
8.00206e+06 -1.73993e+07 91149.7
1.48388e+07 1.57962e+07 -7.89048e+06
1.00639e+07 -1.3371e+07 635888
9.03109e+06 1.76014e+07 1.12285e+07
5.40962e+06 -1.5966e+07 641133
4.1428e+06 7.76138e+06 -5.43016e+06
7.4374e+06 3.65401e+06 7.10232e+06
-2.6168e+06 -7.16267e+06 8.09949e+06
1.03799e+06 2.87634e+06 -5.02932e+06
-2.33789e+06 -32421.2 962751
-8.78518e+06 1.26115e+07 -9.25493e+06
-3.39174e+06 -1.45546e+07 5.05042e+06
-1.53266e+07 6.69823e+06 -1.19845e+07
-1.62003e+07 -8.66968e+06 5.17543e+06
-1.30598e+07 1.5446e+07 -1.26765e+06
-2.00297e+07 -1.24143e+07 -4.4865e+06
-1.34219e+07 49717.8 -9.75033e+06
-3.80072e+06 2.71608e+06 5.07057e+06
2.8399e+06 459083 5.26534e+06
2.93476e+06 2.82237e+06 1.0173e+06
1.43961e+07 -5.65163e+06 2.53872e+06
2.37279e+07 3.62007e+06 1.87758e+06
0 0 0
0 0 0
3.34733e+06 -4.08758e+06 492358
-2.0239e+06 -1.13914e+06 2.26123e+06
4.26783e+06 912794 709732
-1.11744e+07 -1.41229e+07 6.66914e+06
2.08941e+07 -1.82271e+07 3.43195e+06
-1.53989e+07 -2.32564e+07 2.25755e+06
1.68151e+07 -2.26688e+07 2.41625e+06
-1.35477e+07 -2.4303e+07 5.10632e+06
1.45037e+07 -2.23504e+07 5.87017e+06
-1.05448e+07 -2.0272e+07 7.57572e+06
8.62052e+06 -1.98951e+07 515311
-5.60852e+06 -1.57168e+07 411444
1.67187e+07 -1.80338e+07 -6.2592e+06
-2.30413e+07 -2.15148e+07 -5.32208e+06
1.72758e+07 -1.86748e+07 -3.53634e+06
-1.15438e+07 -6.47462e+06 4.50055e+06
-208438 776827 -1.1947e+06
3.66857e+06 3.09825e+06 3.38831e+06
2.7942e+06 9.94373e+06 1.19338e+06
-268093 7.66617e+06 8.36755e+06
-1.67943e+06 1.1417e+07 5.61386e+06
9.38409e+06 1.37265e+07 1.1632e+07
-5.68666e+06 6.63236e+06 1.15709e+06
4.15589e+06 1.27452e+07 5.64328e+06
-8.37356e+06 1.08165e+07 1.26752e+06
8.15482e+06 3.17849e+06 -1.56191e+06
-4.83801e+06 -1.34279e+06 395470
6.10525e+06 -6.62429e+06 -467568
-1.26588e+07 -463314 2.79848e+06
1.24981e+07 -6.88676e+06 139842
-1.96952e+07 3.12719e+06 -5.13708e+06
1.72983e+07 1.58576e+06 -3.85546e+06
-1.36949e+07 -2.44589e+06 -7.92653e+06
1.82446e+07 -323694 -4.52862e+06
-2.17734e+07 -7.55323e+06 -7.14652e+06
1.99931e+07 2.07443e+06 90769.7
-2.18841e+07 1.00802e+07 -7.12101e+06
2.6241e+07 1.18082e+07 1.70888e+06
-2.1474e+07 1.35116e+07 -5.92716e+06
1.52118e+07 2.40503e+07 864875
-6.09121e+06 1.20023e+07 -86587
668438 7.0009e+06 2.2057e+06
-4.35284e+06 7.35462e+06 -3.80901e+06
-434264 -8.44664e+06 -2.88442e+06
-3.09419e+06 -9.13569e+06 -9.27053e+06
2.09467e+06 -8.24646e+06 -5.8044e+06
-435407 -1.20862e+07 -7.20756e+06
-2.90153e+06 -6.4529e+06 54407.4
7.35684e+06 -1.91413e+06 -6.09051e+06
-3.67704e+06 -1.81268e+06 -505165
8.08423e+06 -7.39634e+06 -1.93817e+06
-4.18023e+06 -1.29012e+07 5.62166e+06
7.34969e+06 -1.16075e+07 4.22058e+06
-5.80906e+06 -3.39069e+06 8.17946e+06
-998357 5.10187e+06 -3.78884e+06
5.76957e+06 1.15156e+07 904237
-1.46348e+07 1.61093e+07 -1.29541e+06
9.31317e+06 1.23033e+07 -1.16879e+06
-736320 4.66559e+06 -1.53331e+06
-8.24921e+06 -4.62977e+06 -7.17147e+06
2.59484e+06 -4.08136e+06 -379740
2.90239e+06 -5.66141e+06 -8.29681e+06
-1.54941e+06 2.7021e+06 -1.3782e+06
-1.85792e+06 -73833 -5.91923e+06
649403 -5.24503e+06 3.54936e+06
-4.50024e+06 -7.40056e+06 2.00721e+06
8.39546e+06 -1.0777e+07 7.96662e+06
20484.2 -1.43043e+07 1.13378e+06
-1.80036e+06 -1.35799e+07 9.81926e+06
1.02002e+07 -1.75222e+07 -5.48299e+06
-1.73288e+07 -1.58984e+07 -5.01471e+06
1.91308e+07 -1.60358e+07 -5.07938e+06
-1.35698e+07 -1.52392e+07 8.31745e+06
1.04508e+07 -1.50179e+07 -1.44756e+06
-2.30055e+07 -9.81148e+06 6.34587e+06
3.10185e+07 -8.23351e+06 -2.39562e+06
-3.34076e+07 -4.61242e+06 1.18581e+07
1.82983e+07 -2.33952e+06 4.34832e+06
-1.83164e+07 3.85293e+06 1.09869e+07
1.43367e+07 1.11433e+07 3.8169e+06
-1.68319e+07 1.88482e+06 6.0831e+06
1.61657e+07 -5.01649e+06 -6.9787e+06
2.19049e+07 2.56736e+06 -3.91089e+06
0 0 0
0 0 0
307666 1.11894e+07 -6.02235e+06
-8.21702e+06 -7.35381e+06 5.86337e+06
-1.13553e+06 4.56845e+06 5.03957e+06
7.28562e+06 7.47532e+06 1.77498e+06
1.21628e+07 -5.0531e+06 -8.69111e+06
2.18787e+07 2.1034e+07 -4.32265e+06
1.79164e+07 -2.61217e+07 -1.91162e+06
2.19524e+07 1.49342e+07 1.08156e+07
2.32776e+07 -1.52997e+07 -1.30604e+07
1.4527e+07 2.06573e+07 -860611
6.15862e+06 -2.10178e+07 -1.51316e+07
1.15947e+07 1.51874e+07 4.11356e+06
2.39982e+07 -2.98043e+06 -1.06857e+06
2.3014e+07 -2.23889e+06 -5.11832e+06
2.4333e+07 -5.4409e+06 7.45471e+06
2.23435e+07 1.11577e+06 -2.17236e+06
2.2054e+07 3.91276e+06 -1.31958e+07
1.55814e+07 8.1204e+06 -9.64675e+06
1.3553e+07 313377 -5.28046e+06
1.41734e+07 -1.68597e+07 -7.5765e+06
2.06744e+07 1.91595e+07 -8.07534e+06
2.14741e+07 -1.48191e+07 -1.00403e+07
1.00065e+07 9.88169e+06 -6.98805e+06
4.01389e+06 -5.88851e+06 -1.24855e+07
-4.32472e+06 1.06157e+07 -4.04544e+06
-4.4962e+06 -1.49476e+07 3.60573e+06
-4.20492e+06 5.5046e+06 -8.36218e+06
-3.38822e+06 -1.1102e+07 -3.49666e+06
-7.07781e+06 -2.79437e+06 -1.66537e+06
-1.47191e+06 5.3018e+06 -5.9637e+06
-297534 -2.05881e+07 -1.1196e+06
91719.2 1.30931e+07 2.7615e+06
1.13425e+06 -1.7271e+07 -1.03324e+06
356046 8.58239e+06 -4.7142e+06
1.00783e+07 315983 9.66686e+06
1.81983e+06 6.67917e+06 -4.93473e+06
4.15327e+06 -161066 -1.11787e+07
1.34058e+07 1.5609e+07 -213561
1.44574e+07 -1.81713e+07 -5.60593e+06
7.42525e+06 2.01544e+07 1.06644e+06
5.03335e+06 -1.98582e+07 -908300
2.07726e+06 1.58724e+07 4.39251e+06
4.48538e+06 -4.89047e+06 -1.66676e+06
4.39087e+06 -4.68827e+06 -6.53096e+06
4.27899e+06 3.49687e+06 -6.29765e+06
2.2664e+06 5.80784e+06 2.85289e+06
2.7348e+06 -1.53669e+07 -2.08196e+07
1.21124e+07 1.05272e+07 4.45003e+06
3.30967e+06 -1.42813e+07 1.51344e+06
6.25011e+06 1.83012e+07 8.55469e+06
1.59952e+06 -1.04979e+07 761143
-3.84089e+06 -2.03315e+06 2.21246e+06
1.00436e+06 1.27534e+07 9.31099e+06
6.85936e+06 -1.53147e+07 -385971
1.03739e+07 1.80479e+07 -358775
6.60043e+06 -1.67381e+07 3.65368e+06
312007 1.69829e+07 -2.9447e+06
-8.7231e+06 -9.81806e+06 1.14889e+06
-6.06999e+06 1.14795e+07 5.10908e+06
-9.99116e+06 -1.60544e+07 1.04867e+07
-7.27808e+06 9.35371e+06 1.04204e+07
-8.89733e+06 -1.41676e+07 -6.74449e+06
-1.11517e+07 2.13151e+07 -1.70967e+06
-8.40624e+06 -1.51053e+07 5.4925e+06
-7.50157e+06 9.76144e+06 -1.24469e+07
-461538 964286 58712.8
187732 -8.12043e+06 138368
-208168 1.02067e+07 -4.74739e+06
4.57503e+06 -1.64046e+07 3.46598e+06
1.89207e+06 1.14489e+07 -2.61671e+06
4.81108e+06 -9e+06 5.59654e+06
1.02415e+07 2.97166e+06 -1.12333e+07
1.30938e+07 -7.22064e+06 4.49687e+06
1.52996e+07 1.28453e+07 4.37265e+06
1.08736e+07 -4.83036e+06 157200
8.61418e+06 -5.0497e+06 -5.17958e+06
6.81152e+06 8.75247e+06 4.15744e+06
-1.26197e+06 -1.6462e+06 -835925
-8.83063e+06 -953199 -7.2362e+06
-1.3882e+07 -9.08902e+06 -51769.1
-1.56317e+07 1.01135e+07 1.06968e+07
-1.56164e+07 -5.58924e+06 -183899
0 0 0
0 0 0
7.0002e+06 2.39553e+06 618350
-7.11364e+06 1.07255e+06 1.34249e+06
7.27713e+06 5.13448e+06 -4.01937e+06
-6.115e+06 1.54821e+07 -562216
1.71727e+07 1.88657e+07 -3.86476e+06
-1.67744e+07 1.7688e+07 -1.22503e+06
1.56567e+07 1.99727e+07 95050.9
-1.9822e+07 1.93569e+07 -1.53159e+06
1.38339e+07 1.4078e+07 -8.91362e+06
-1.60619e+07 1.41075e+07 -5.12351e+06
1.02761e+07 1.65013e+07 -2.60409e+06
-8.57748e+06 1.3595e+07 847978
7.69461e+06 9.58606e+06 4.03025e+06
-1.76844e+07 1.30201e+07 815988
1.9892e+07 1.49107e+07 3.77784e+06
-1.35623e+07 1.18719e+07 -1.21202e+06
3.49619e+06 7.83509e+06 3.49847e+06
-7.22582e+06 -2.19806e+06 2.09788e+06
7.18683e+06 -2.31588e+06 2.57132e+06
-2.88014e+06 -2.2154e+06 -5.93734e+06
2.32961e+06 3.85987e+06 -1.97511e+06
96181.9 1.67182e+06 -2.77161e+06
-5.48947e+06 -9.4886e+06 -1.08201e+06
1.01458e+07 -9.52611e+06 -761375
-5.0948e+06 -7.01882e+06 -348798
9.4374e+06 -1.17672e+06 -1.50787e+06
-3.3502e+06 -1.45216e+06 2.12511e+06
6.21104e+06 2.19015e+06 -3.11481e+06
-7.3061e+06 2.57182e+06 -60454.3
1.1611e+07 2.77938e+06 1.5071e+06
-1.13193e+07 -111440 -1.0467e+06
1.0896e+07 -557422 4.49957e+06
-1.20335e+07 -3.63725e+06 1.82556e+06
1.57283e+07 72873.6 2.06847e+06
-1.70849e+07 2.02523e+06 1.94881e+06
1.45933e+07 -1.41021e+06 3.23336e+06
-1.71464e+07 -7.94894e+06 -248442
9.2577e+06 -1.46813e+07 2.939e+06
-1.54386e+07 -1.82499e+07 1.15145e+06
1.81911e+07 -1.7339e+07 -1.07798e+06
-1.10516e+07 -1.25209e+07 1.58562e+06
1.12706e+07 -9.80799e+06 -4.27681e+06
-5.03069e+06 901115 4.1754e+06
-4.68205e+06 4.67068e+06 2.7939e+06
6.86248e+06 1.09552e+07 1.24725e+07
-3.62801e+06 1.36134e+07 6.59367e+06
3.34345e+06 7.37968e+06 8.9813e+06
3.03119e+06 6.87788e+06 1.01391e+06
641333 9.62687e+06 -1.74467e+06
-9.17929e+06 8.78864e+06 -1.05048e+06
3.92166e+06 9.08697e+06 1.63828e+06
-4.40379e+06 1.57694e+07 -3.751e+06
4.18885e+06 1.2485e+07 -6.80145e+06
1.26766e+06 7.92007e+06 -4.66657e+06
429075 3.99423e+06 -5.55921e+06
4.28266e+06 -4.81419e+06 -1.80468e+06
-3.27541e+06 -10523.9 -2.19272e+06
4.91117e+06 -1.00254e+06 -521524
452447 945907 3.38643e+06
-4.39205e+06 1.18795e+07 -1.44615e+06
-3.64281e+06 9.16652e+06 3.13388e+06
6.41577e+06 6.29952e+06 -2.57718e+06
-4.5071e+06 -1.52439e+06 1.62713e+06
1.64994e+06 3.0124e+06 -174592
35405.3 3.42244e+06 2.31203e+06
-6.10156e+06 1.70746e+07 -3.51415e+06
7.05743e+06 1.45608e+07 189051
-8.41489e+06 1.88769e+07 -8.98069e+06
30822.5 1.34893e+07 3.17507e+06
-7.23751e+06 1.66958e+07 862472
-1.57982e+06 2.17735e+07 6.53335e+06
1.11157e+07 2.23318e+07 3.07194e+06
-1.1981e+07 1.7131e+07 3.6378e+06
1.81904e+07 2.50334e+07 -2.47964e+06
-2.63786e+07 1.64726e+07 5.16016e+06
2.9471e+07 1.14134e+07 -4.05919e+06
-3.01819e+07 -2.91393e+06 541581
1.97549e+07 -1.43231e+06 -8.13656e+06
-1.8366e+07 -8.94713e+06 -4.09623e+06
6.33381e+06 -1.00661e+07 -7.34455e+06
-1.75967e+07 -7.39359e+06 -1.2296e+06
2.02326e+07 1750.86 -2.48416e+06
-1.92773e+07 1.22502e+06 3.40776e+06
-3.00433e+07 -1.70076e+06 1.1317e+06
0 0 0
0 0 0
1.32132e+06 804650 -525142
4.01471e+06 -5.16627e+06 2.76114e+06
4.40276e+06 5.0818e+06 -4.59927e+06
-6.99003e+06 -5.56161e+06 334736
-2.0912e+07 -1.07666e+07 4.90158e+06
-2.16101e+07 1.91877e+07 878599
-2.46026e+07 -2.07595e+07 -127683
-2.13834e+07 1.91748e+07 5.58881e+06
-2.2827e+07 -2.31968e+07 -9.01712e+06
-1.40527e+07 1.37226e+07 1.3616e+07
-1.12569e+07 -1.50813e+07 3.55748e+06
-8.61017e+06 1.98235e+07 881520
-2.18144e+07 -1.74816e+06 3.52865e+06
-2.33037e+07 -4.2208e+06 -1.41341e+06
-1.98631e+07 -1.25158e+06 5.76174e+06
-2.95285e+07 6.39085e+06 5.01183e+06
-2.45153e+07 -6.92846e+06 1.91967e+06
-1.39034e+07 585843 3.0237e+06
-2.41373e+07 -5.70897e+06 1.23827e+07
-2.56662e+07 3.6384e+06 6.59998e+06
-2.54845e+07 1.18037e+07 1.15736e+07
-2.09391e+07 -4.51006e+06 -151679
-1.9712e+07 -6.18138e+06 7.30752e+06
-6.1557e+06 -329809 3.47465e+06
-5.76808e+06 -3.73035e+06 5.78448e+06
3.61988e+06 -1.4442e+06 5.77573e+06
1.65346e+06 -1.81987e+06 -2.1901e+06
2.73988e+06 6.63066e+06 3.29238e+06
680762 -1.18299e+07 7.93852e+06
281598 1.61886e+07 -9.89351e+06
-5.13906e+06 -2.42918e+07 4.49545e+06
-5.64274e+06 2.52023e+07 -740662
5.34441e+06 -2.27482e+07 -1.4306e+06
8.17124e+06 1.56153e+07 -1.10766e+07
1.24183e+06 -4.32531e+06 8.16473e+06
-6.43721e+06 6.11218e+06 -7.92134e+06
-3.59227e+06 -1.42163e+07 -1.18995e+07
-1.56069e+06 1.14138e+07 1.98114e+06
-1.23055e+06 -1.50524e+07 668841
297600 1.74331e+07 2.61847e+06
2.8319e+06 -2.00416e+07 -2.99608e+06
780514 6.4313e+06 -6.85955e+06
1.06963e+06 -4.49593e+06 8.15967e+06
-1.85597e+06 3.2724e+06 -849316
3.19526e+06 -3.25208e+06 427413
12911 1.09508e+06 1.26241e+07
-1.53339e+06 -2.18048e+06 -5.37584e+06
2.13919e+06 1.08794e+07 5.09133e+06
-812757 -1.93208e+07 -3.41086e+06
9.35889e+06 2.24297e+07 -1.12345e+07
129847 -1.75037e+07 -4.68939e+06
-2.55117e+06 9.97562e+06 -1.06385e+07
-3.80666e+06 1.90933e+06 -3.09342e+06
-3.41118e+06 -1.03857e+07 -8.17677e+06
-9.57926e+06 1.38311e+07 -5.7775e+06
-8.43011e+06 -1.73252e+07 2.39517e+06
7.34735e+06 8.01383e+06 77846.9
727586 -1.05205e+07 -1.51152e+06
7.31375e+06 8.76651e+06 -7.28485e+06
1.0676e+07 -7.12463e+06 2.8534e+06
1.09427e+07 6.03826e+06 -7.99393e+06
3.14967e+06 -1.39096e+07 1.4528e+06
2.45787e+06 2.22863e+07 5.22753e+06
5.4959e+06 -1.1073e+07 7.06693e+06
5.11168e+06 6.76664e+06 -4.99046e+06
6.23161e+06 4.31434e+06 1.39897e+07
2.76054e+06 -1.26901e+07 1.36175e+06
4.66975e+06 1.81468e+07 279024
454190 -1.66204e+07 952816
-3.00638e+06 1.35346e+07 -4.14157e+06
1.60932e+06 -941546 7.07127e+06
1.56016e+06 -2.13257e+06 -7.30556e+06
429513 1.97958e+06 5.98724e+06
-7.82423e+06 8.23709e+06 -29860.3
-7.17283e+06 -2.30628e+06 -5.51031e+06
-438332 -1.3685e+07 -5.28476e+06
4.16621e+06 6.80401e+06 1.69306e+06
662394 -8.04343e+06 6.14516e+06
4.60364e+06 1.34786e+07 -1.97856e+06
9.07917e+06 -1.11954e+07 2.03016e+06
1.25327e+07 1.437e+07 -3.52004e+06
1.25084e+07 -8.50165e+06 -6.27138e+06
2.07265e+07 -3.31968e+06 -5.11704e+06
0 0 0
0 0 0
1.29294e+07 152562 -1.31688e+06
-1.7456e+07 -2.20898e+06 504330
1.10668e+07 -6.46254e+06 -1.2917e+06
-1.4094e+07 -9.50637e+06 1.89265e+06
5.62486e+06 -1.81103e+07 767321
-8.80124e+06 -1.55258e+07 -930260
2.13762e+07 -1.40873e+07 -1.21066e+06
-2.58721e+07 -1.75052e+07 1.10455e+06
1.50613e+07 -1.29668e+07 1.2104e+06
-4.38098e+06 -1.43939e+07 7.2423e+06
1.01423e+07 -1.90766e+07 -594932
-5.27066e+06 -1.22447e+07 1.81045e+06
1.18034e+07 1.50489e+06 -5.19425e+06
-1.11834e+07 -3.37999e+06 -3.42425e+06
1.78131e+07 -5.60948e+06 -4.44427e+06
-1.79411e+07 -1.33011e+07 1.38841e+06
1.18716e+07 -1.4766e+07 -7.4157e+06
-1.44075e+07 -4.25155e+06 -1.12355e+06
1.06447e+07 -2.31692e+06 -5.35286e+06
-1.2242e+07 -5.18943e+06 1.60496e+06
7.64833e+06 -8.12258e+06 1.94471e+06
-9.56641e+06 -6.35916e+06 4.06028e+06
-3.50132e+06 -1.6384e+06 222436
9.20079e+06 1.54967e+06 2.46719e+06
-2.83576e+06 -2.47225e+06 -2.22582e+06
350422 371982 -5.56492e+06
991011 -2.34468e+06 -4.74174e+06
-815643 -6.40039e+06 -5.45364e+06
-759796 -4.15591e+06 1.78925e+06
1.38546e+06 -6.3275e+06 -1.66548e+06
-4.9912e+06 -5.56664e+06 -2.37491e+06
6.09073e+06 424489 -4.73719e+06
-8.74091e+06 7.33407e+06 -3.43179e+06
1.70389e+07 9.4648e+06 -3.17161e+06
-1.40725e+07 6.38064e+06 -1.91574e+06
1.24983e+07 5.53507e+06 804322
-4.99988e+06 9.60974e+06 -4.65972e+06
2.80534e+06 1.47599e+07 550092
-1.07756e+07 1.60037e+07 -3.79298e+06
1.59841e+07 1.5634e+07 -3.42832e+06
-1.70799e+07 8.38519e+06 2.0087e+06
9.15414e+06 531635 -1.14984e+06
-1.06782e+06 -3.94089e+06 -1.75358e+06
-3.02197e+06 -2.91943e+06 -8.15892e+06
7.0609e+06 -4.44465e+06 -5.56231e+06
-8.60066e+06 -6.87283e+06 -1.47736e+07
4.54856e+06 -8.60846e+06 -3.00446e+06
-3.86684e+06 -1.27352e+07 -7.59258e+06
6.42439e+06 -1.24787e+07 -903690
-1.10993e+07 -1.63814e+07 -6.96779e+06
1.36433e+07 -1.01498e+07 6.84492e+06
-1.12119e+07 -1.70647e+07 3.69451e+06
1.07033e+07 -1.70111e+07 1.33647e+07
20837.4 -1.20398e+07 1.03138e+07
947222 -9.35261e+06 4.85986e+06
1.41812e+06 -115156 3.15832e+06
-5.88573e+06 514642 5.11816e+06
-1.50871e+06 -4.34001e+06 -721219
292526 -1.16042e+07 5.52231e+06
378782 -1.37546e+07 -5.55941e+06
998063 -1.14165e+07 5.26622e+06
4.3897e+06 -3.64803e+06 -8.38826e+06
-5.25139e+06 100240 3.58252e+06
1.36202e+06 -487689 -9.23194e+06
1.23181e+06 -7.2493e+06 4.65028e+06
-3.09131e+06 -1.46148e+07 -4.46118e+06
1.16589e+07 -2.08666e+07 1.0137e+07
-7.56273e+06 -1.34455e+07 -2.25425e+06
1.07324e+07 -1.43188e+07 1.57864e+07
-6.86702e+06 -1.04778e+07 -6.43394e+06
5.97562e+06 -1.30674e+07 -248409
1.75571e+06 -1.9066e+07 -6.425e+06
-7.76942e+06 -1.9522e+07 7.45196e+06
1.28717e+07 -1.71853e+07 -6.78629e+06
-2.07701e+07 -1.23701e+07 3.97246e+06
1.80018e+07 2.01777e+06 -1.01917e+07
-1.46352e+07 1.41455e+06 7.28648e+06
2.17271e+07 1.25681e+07 -1.47296e+06
-1.49603e+07 1.15057e+07 1.34032e+07
1.02819e+07 7.26535e+06 6.1912e+06
-1.6971e+07 1.49134e+07 1.54778e+07
2.28776e+07 4.92264e+06 1.2308e+06
-3.10688e+07 1.21045e+07 8.97959e+06
2.84837e+07 -8.6409e+06 1.25824e+06
2.78118e+07 1.10891e+07 -2.02776e+06
0 0 0
0 0 0
-69313.8 -2.87066e+06 -4.0334e+06
-1.56496e+06 -3.78501e+06 7.41181e+06
1.7761e+06 8.81314e+06 -1.93737e+06
6.1104e+06 -1.98628e+06 -149727
1.36388e+07 -3.45538e+06 -1.27027e+07
1.82498e+07 4.70382e+06 -8.65621e+06
2.07689e+07 -1.85248e+07 -7.41175e+06
2.20611e+07 1.05734e+07 6.42923e+06
1.08941e+07 -6.40289e+06 -1.83115e+07
1.35612e+07 8.49057e+06 -3.07989e+06
1.45715e+07 -1.0857e+07 -1.38209e+07
1.91895e+07 1.05343e+07 -4.3486e+06
1.54797e+07 -7.96303e+06 -2.61713e+06
1.61494e+07 -1.1169e+06 -1.07786e+07
1.75748e+07 -1.78095e+06 4.10786e+06
1.79298e+07 -5.04281e+06 -3.3981e+06
1.118e+07 -308968 -8.57473e+06
2.1088e+07 7.38131e+06 -957814
1.36267e+07 -7.12762e+06 57204.3
2.68814e+07 2.21965e+06 2.61207e+06
2.09927e+07 -2.14787e+06 -538099
1.91689e+07 7.21342e+06 -1.88104e+06
1.14986e+07 -6.44954e+06 -2.7371e+06
9.6505e+06 1.06539e+07 -1.74399e+06
755976 -4.91024e+06 -2.05291e+06
6.48486e+06 1.38431e+07 1.67999e+07
-4.50676e+06 -8.60792e+06 -5.77933e+06
-5.28426e+06 1.48618e+07 1.04443e+07
4.86234e+06 -7.42069e+06 4.09736e+06
7.987e+06 1.1261e+07 5.42509e+06
6.62675e+06 -2.40022e+07 3.80567e+06
2.52179e+06 1.88252e+07 9.39578e+06
5.45384e+06 -1.51413e+07 4.10916e+06
4.45971e+06 1.80409e+07 5.1266e+06
1.78128e+06 -9.19577e+06 1.9766e+07
6.8024e+06 1.222e+07 4.07964e+06
1.06934e+06 -1.01599e+07 -5.58694e+06
-1.57188e+06 1.17628e+07 8.41417e+06
-4.17783e+06 -1.27016e+07 35761.8
-3.74117e+06 8.66768e+06 3.65591e+06
-5.18421e+06 -9.06772e+06 4.28992e+06
-6.18679e+06 1.06254e+07 2.80408e+06
-7.02593e+06 -3.19022e+06 2.08548e+06
3.59164e+06 345614 -9.44083e+06
-9.67772e+06 -6.76357e+06 -1.21579e+06
-515285 9.6592e+06 -1.25521e+06
2.93475e+06 -2.51441e+06 -1.43567e+07
-2.23364e+06 2.05254e+06 4.92541e+06
-6.3261e+06 -7.24948e+06 8.8949e+06
-79012 2.24788e+07 5.99516e+06
4.57084e+06 -3.27462e+07 8.28714e+06
8.22674e+06 1.46489e+07 2.95128e+06
7.77589e+06 -1.10691e+07 8.22393e+06
1.94428e+06 4.0183e+06 349821
4.01903e+06 -3.01857e+06 2.70672e+06
1.53775e+06 -263864 -960486
7.8413e+06 1.23496e+07 4.26601e+06
-5.53375e+06 -4.84488e+06 -982265
-5.30977e+06 9.85193e+06 3.36179e+06
-7.71434e+06 -4.8523e+06 1.62648e+06
-8.46758e+06 5.15561e+06 1.02239e+07
-607103 -1.43953e+07 -1.51882e+07
-5.86964e+06 1.34344e+07 -7.58137e+06
-4.4925e+06 -8.39872e+06 685385
-3.96628e+06 -3.86278e+06 -1.28382e+07
-1.23722e+07 1.05588e+06 -1.6114e+06
-1.40695e+07 -5.5483e+06 -4.21785e+06
-8.5974e+06 1.63933e+07 -7.78909e+06
-2.85567e+06 -1.44666e+07 3.00841e+06
-2.32345e+06 7.27239e+06 -6.48661e+06
-7.63905e+06 -356051 6.51166e+06
-8.07699e+06 -4.40677e+06 -1.38779e+07
730357 6.21357e+06 6.68666e+06
-3.35967e+06 -7.57469e+06 2.3453e+06
-8.53432e+06 1.17633e+07 4.15009e+06
4.73854e+06 -9.8272e+06 -3.39066e+06
-2.01719e+06 8.0103e+06 6.27639e+06
-8.6772e+06 -1.27856e+07 919435
-1.5506e+07 9.09327e+06 -2.32283e+06
-8.52734e+06 -1.17592e+07 2.11557e+06
-8.50118e+06 7.73334e+06 1.08113e+07
-2.26874e+07 -8.78316e+06 976488
-2.14615e+07 9.78366e+06 4.08912e+06
-2.24301e+07 -1.27081e+06 3.78398e+06
0 0 0
0 0 0
1.25881e+07 -6.55504e+06 497310
-1.31985e+07 -2.52771e+06 2.72348e+06
1.4254e+07 7.37398e+06 -1.67964e+06
-7.34855e+06 3.55464e+06 -17658.3
7.03383e+06 1.05917e+07 -341395
-6.25592e+06 1.32012e+06 789188
1.20255e+07 6.42954e+06 3.87082e+06
-2.06007e+07 1.06469e+07 709851
1.70419e+07 1.88037e+07 -4.13607e+06
-1.65556e+07 2.23001e+07 -1.55352e+06
1.08385e+07 9.65288e+06 -1.69032e+06
-1.00715e+07 6.31636e+06 1.66984e+06
1.23457e+07 -3.58855e+06 3.09355e+06
-1.39846e+07 -1.97793e+06 2.4701e+06
1.77332e+07 6.1122e+06 3.07218e+06
-2.25054e+07 6.66071e+06 2.14594e+06
1.44329e+07 5.47141e+06 3.84501e+06
-9.10715e+06 1.02543e+07 7.20466e+06
1.78649e+07 8.36293e+06 2.58574e+06
-1.11668e+07 1.5701e+07 -2.95212e+06
7.9306e+06 1.24374e+07 -1.51384e+06
1.34534e+06 1.39763e+07 -4.66926e+06
-4.67824e+06 1.20492e+07 -784258
-961354 1.91196e+06 894313
7.89576e+06 8.98786e+06 1.93842e+06
-1.426e+07 3.94779e+06 3.71402e+06
1.30986e+07 1.77757e+06 5.85901e+06
-1.36439e+07 5.88068e+06 -441903
1.48211e+07 9.91735e+06 1.31366e+06
-8.13892e+06 1.05827e+07 2.88629e+06
8.23428e+06 7.44754e+06 2.2963e+06
4.54989e+06 7.49182e+06 7.70501e+06
-1.06979e+07 -5.50534e+06 5.2552e+06
1.79324e+07 -1.2289e+07 5.09253e+06
-1.79183e+07 -1.1514e+07 3.17853e+06
1.519e+07 -9.27903e+06 7.45553e+06
-5.38587e+06 -6.20991e+06 4.18086e+06
-542694 -1.22309e+07 1.06057e+07
-3.10178e+06 -1.31918e+07 7.21509e+06
1.17483e+07 -1.64914e+07 5.59266e+06
-1.30308e+07 -1.6081e+07 5.92452e+06
1.12978e+07 1.20755e+06 1.29955e+06
-469275 2.45112e+06 4.97108e+06
-5.06858e+06 4.20362e+06 5.40467e+06
9.40514e+06 1.02056e+07 1.20034e+07
-1.28292e+07 3.84999e+06 4.95566e+06
1.13767e+07 1.05451e+07 8.1109e+06
-1.53752e+07 8.87482e+06 699969
1.12892e+07 7.29562e+06 846163
-1.68564e+07 9.00687e+06 -1.47844e+06
1.82585e+07 1.7629e+07 3.11578e+06
-2.09123e+07 1.69697e+07 -7.09285e+06
1.06537e+07 2.06824e+07 -6.87075e+06
-5.88294e+06 1.50158e+07 -6.94967e+06
3.95787e+06 4.77296e+06 -5.02148e+06
7.14572e+06 -1.40321e+06 -5.90463e+06
-3.35798e+06 -2.26131e+06 -453424
-1.50953e+06 5.47404e+06 -5.74287e+06
2.52602e+06 1.44291e+07 8.96946e+06
1.86061e+06 1.2464e+07 -3.60996e+06
-1.99526e+06 1.11432e+07 1.40756e+07
5.93539e+06 -1.58568e+06 -894874
-7.12724e+06 -4.41053e+06 1.59522e+07
2.5928e+06 1.23429e+06 -816742
-5.37478e+06 9.88345e+06 1.06869e+07
-4.43646e+06 1.91015e+07 -6.49074e+06
1.58182e+06 1.23741e+07 4.44733e+06
-1.23972e+07 1.14025e+07 -1.27165e+07
1.61319e+07 8.91027e+06 4.44273e+06
-5.36361e+06 1.02342e+07 -4.11997e+06
3.93556e+06 1.37684e+07 6.37086e+06
1.78299e+06 1.85028e+07 -113943
-4.45234e+06 1.2878e+07 1.52419e+06
1.13313e+07 8.90405e+06 -1.94648e+06
-1.59252e+06 1.03418e+07 8.64885e+06
8.8811e+06 -972811 -849230
-5.4358e+06 -5.00563e+06 3.77631e+06
1.96363e+07 -2.44563e+06 -7.4446e+06
-1.99297e+07 -1.01403e+07 -2.64169e+06
2.32963e+07 -1.00925e+07 -7.92622e+06
-1.33217e+07 -7.4038e+06 -722995
2.05378e+07 -1.57443e+07 -2.76748e+06
-1.63943e+07 -1.45129e+07 -4.1128e+06
2.6107e+07 -6.39359e+06 -3.56912e+06
-2.10326e+07 8.59521e+06 7.59475e+06
-2.64502e+07 -7.57601e+06 -6.36752e+06
0 0 0
0 0 0
-2.24762e+06 -1.3905e+07 3.16741e+06
-88447.7 3.37866e+06 7.01293e+06
2.91145e+06 1.11942e+07 -8.09588e+06
-2.89902e+06 -7.50341e+06 4.8859e+06
-8.77937e+06 -365828 5.9241e+06
-1.8695e+07 9.42533e+06 9.03258e+06
-1.2475e+07 -3.83277e+06 -36603
-9.58808e+06 905497 1.03121e+07
-1.18937e+07 770830 -1.06384e+07
-1.38389e+07 -9.21578e+06 1.94342e+07
-1.54069e+07 1.00256e+07 8.20934e+06
-1.67498e+07 110091 -1.70945e+06
-2.05173e+07 -760884 2.66933e+06
-2.14087e+07 -1.59175e+06 -5.22431e+06
-2.60628e+06 1.85272e+07 2.96756e+06
97873.3 -1.05962e+07 595467
-3.16041e+06 7.55805e+06 -2.74636e+06
-9.05516e+06 -4.44673e+06 -906239
-1.35222e+07 2460.83 -215442
-8.99853e+06 2.62591e+06 -3.38604e+06
-7.11517e+06 2.0889e+06 -562012
-1.41284e+07 -1.43448e+06 -6.19575e+06
-1.71812e+07 -6.51626e+06 -1.02247e+07
-3.10657e+06 3.21521e+06 -5.25324e+06
3.59521e+06 -3.49012e+06 -1.12335e+07
-1.01143e+06 4.98688e+06 543184
-3.68948e+06 -1.0978e+07 -2.57291e+07
-7.41741e+06 4.53729e+06 -5.51301e+06
-8.54239e+06 1.52989e+06 -1.06007e+07
-1.45623e+07 1.57086e+07 -1.61121e+07
-4.11585e+06 -9.05729e+06 -8.92511e+06
-919541 1.1397e+07 -9.10644e+06
817007 -7.94288e+06 -1.10312e+07
-2.77744e+06 1.31271e+07 -1.3012e+07
-9.96161e+06 -1.42105e+07 1.66283e+06
-7.65115e+06 3.09144e+06 -1.47431e+07
3.66695e+06 3.92333e+06 -1.57705e+07
7.23997e+06 884464 6.44735e+06
1.74469e+06 -7.26264e+06 -262390
4.1991e+06 2.00248e+06 -47285.9
8.76035e+06 -2.28383e+06 711342
1.03549e+07 1.89178e+06 -8.22106e+06
5.43476e+06 -4.69202e+06 9.0199e+06
8.5899e+06 4.62924e+06 -3.81283e+06
3.26985e+06 -5.81549e+06 -54539
7.29712e+06 2.37535e+06 8.22905e+06
-6.90046e+06 -4.48621e+06 -7.76193e+06
2.76274e+06 554466 5.71556e+06
779474 -9.22533e+06 -5.5636e+06
-3.76093e+06 2.29553e+07 -1.44633e+07
1.30393e+06 -2.4701e+07 -1.81771e+06
-4.82965e+06 2.20341e+07 -7.37763e+06
-6.11992e+06 -2.11782e+07 3.83811e+06
-4.16513e+06 1.53144e+07 -3.36548e+06
-531378 -1.08795e+07 2.79055e+06
-3.10131e+06 9.46751e+06 -2.72733e+06
-931879 -1.61094e+06 1.07492e+07
4.86762e+06 -208039 -4.86317e+06
1.16086e+07 647360 -2.9073e+06
1.44183e+07 -6.42253e+06 -1.95265e+06
1.10671e+07 3.88285e+06 -1.43571e+06
1.36212e+07 -5.64286e+06 -3.59546e+06
5.80056e+06 5.6827e+06 7.64251e+06
1.89226e+06 -2.65349e+06 3.99869e+06
4.11007e+06 828054 -440359
1.5105e+07 5.37974e+06 9.83946e+06
1.9539e+07 -5.93077e+06 5.22779e+06
1.31057e+07 8.95902e+06 -2.66465e+06
8.195e+06 -1.35241e+07 9.85671e+06
-5.06894e+06 3.0474e+06 -7.09522e+06
6.49523e+06 440056 1.66928e+07
1.13764e+07 -2.75971e+06 -1.12441e+07
3.14049e+06 5.51679e+06 1.54184e+07
6.95246e+06 -2.23203e+06 -5.85827e+06
9.24035e+06 1.11519e+07 4.06829e+06
3.03506e+06 -7.73973e+06 -7.70794e+06
3.69579e+06 5.1896e+06 4.94302e+06
1.48402e+07 -1.5074e+07 -1.77669e+06
1.53974e+07 1.3194e+07 1.21692e+06
1.29126e+07 -4.74725e+06 -3.00128e+06
1.16162e+07 3.78932e+06 -3.23431e+06
2.08114e+07 -9.06414e+06 -1.23231e+07
2.10327e+07 1.67126e+07 -6.13584e+06
5.97161e+06 -1.15663e+07 670014
1.79956e+07 4.91023e+06 -662146
0 0 0
0 0 0
2.86686e+06 -3.11455e+06 -1.82994e+06
-9.1819e+06 -2.9645e+06 -729466
4.09838e+06 4.56454e+06 1.37791e+06
-8.15916e+06 1.17485e+06 71321.5
6.048e+06 7.11461e+06 6.34908e+06
-1.23019e+07 1.33319e+06 -3.08622e+06
8.63977e+06 -3.35657e+06 1.66819e+06
-1.82789e+07 -1.04138e+07 -5.41848e+06
1.85323e+07 -2.15147e+07 866727
-1.91338e+07 -2.02934e+07 473784
1.30623e+07 -1.46909e+07 608066
-1.23194e+07 -3.60028e+06 -765815
1.38484e+07 -55412.2 1.61597e+06
-8.23229e+06 1.06371e+06 -3.39848e+06
1.36315e+07 -1.57649e+06 -839072
-1.29474e+07 -648643 -1.9238e+06
9.18507e+06 3.40988e+06 -3.04027e+06
-8.38692e+06 -3.2932e+06 -771282
1.08488e+07 -1.07769e+07 -2.92513e+06
-1.20571e+07 -1.38537e+07 -395687
6.62845e+06 -7.1608e+06 3.3989e+06
1.64176e+06 -1.25215e+07 1.25073e+06
-4.7533e+06 -7.76964e+06 820076
-8.6573e+06 -7.8561e+06 2.56105e+06
1.90141e+07 -1.38581e+07 -459708
-2.13323e+07 -1.64843e+07 -498314
2.3383e+07 -1.1076e+07 478737
-1.89508e+07 -1.16924e+07 -1.28301e+06
1.82272e+07 -1.88709e+07 3.84715e+06
-2.18412e+07 -1.55312e+07 -2.50755e+06
9.50097e+06 -1.88337e+07 -423456
5.04534e+06 -1.31442e+07 -7.31043e+06
-2.009e+07 -3.5056e+06 38159.5
2.37635e+07 -2.14852e+06 -7.02314e+06
-1.63623e+07 5.34284e+06 -2.96208e+06
2.22533e+07 3.77038e+06 -6.1246e+06
-1.11465e+07 8.79697e+06 -5.36286e+06
15003.4 6.72349e+06 -4.84856e+06
-1.22461e+06 5.66262e+06 -3.93635e+06
5.26548e+06 8.69951e+06 -7.75248e+06
-4.78532e+06 9.20126e+06 -1.60491e+06
8.94492e+06 4.74434e+06 -4.25831e+06
2.13353e+06 1.97673e+06 -6.59372e+06
-1.44412e+07 -5.32668e+06 -5.70921e+06
1.34624e+07 -9.72345e+06 -5.95545e+06
-1.80854e+07 -6.06218e+06 -8.9073e+06
1.29483e+07 -3.95202e+06 -3.21665e+06
-1.98737e+07 -7.34253e+06 -571754
1.98265e+07 -9.44269e+06 974360
-1.31385e+07 -8.40661e+06 -2.75837e+06
1.67212e+07 -2.10152e+07 2.93458e+06
-1.31047e+07 -1.82856e+07 1.07219e+06
1.2838e+07 -1.09132e+07 6.33008e+06
-6.52658e+06 -4.53415e+06 7.26328e+06
-1.2961e+06 2.17347e+06 269398
5.82085e+06 -2.92041e+06 -543748
3.23732e+06 146682 1.25799e+06
-7.09932e+06 -6.4953e+06 -5.20134e+06
4.59824e+06 -8.05066e+06 1.46607e+06
1.86588e+06 -6.0027e+06 -1.01988e+07
-394995 3.19727e+06 1.13051e+06
43643.3 -4.1783e+06 -1.1526e+07
19317.6 -4.23652e+06 689656
-834129 -6.13067e+06 -1.08265e+07
4.61736e+06 -1.32089e+07 -396919
-1.67081e+06 -1.55216e+07 -4.38089e+06
-794300 -1.1255e+07 2.13482e+06
-5.72447e+06 -9.67479e+06 -2.49038e+06
5.82613e+06 -6.12755e+06 4.36407e+06
-3.76908e+06 -1.02239e+07 -6.19705e+06
3.94002e+06 -1.24162e+07 -5.32893e+06
-945779 -1.23373e+07 232385
-1.01635e+07 -1.21332e+07 2.72879e+06
1.38115e+07 -1.12228e+07 295342
5.40669e+06 -1.25859e+06 597996
2.42564e+06 5.49894e+06 -4.135e+06
-7.32945e+06 6.82013e+06 3.42795e+06
9.90078e+06 5.27335e+06 -1.6056e+06
-1.69417e+07 3.51487e+06 2.46158e+06
2.31148e+07 8.49849e+06 -847522
-1.4115e+07 1.25911e+07 1.79911e+06
1.51781e+07 1.56282e+07 -1.59413e+06
-1.22128e+07 1.59133e+07 -1.16575e+06
1.08724e+07 7.79403e+06 -1.5676e+06
-1.62232e+07 4.30203e+06 -2.227e+06
2.2176e+07 -8.28838e+06 -4.46215e+06
6.47394e+06 -1.56892e+06 -2.05702e+06
0 0 0
0 0 0
6.36933e+06 -8.60773e+06 540610
2.38738e+06 5.2939e+06 8.48307e+06
-819021 3.9577e+06 -3.81885e+06
-482378 -9.80857e+06 4.12953e+06
8.85537e+06 187913 -1.02832e+07
5.74743e+06 -7.47622e+06 2.02535e+06
1.27751e+07 1.6117e+07 -3.02888e+06
1.66438e+07 -1.10823e+07 1.152e+07
2.07768e+07 1.04859e+07 -1.43459e+07
2.01447e+07 -2.5782e+07 5.66592e+06
2.53304e+07 2.49987e+07 -268867
1.81422e+07 -1.33719e+07 -38506.9
2.87736e+07 3.72507e+06 5.89285e+06
2.41953e+07 -1.42831e+07 -9.50341e+06
8.992e+06 1.27774e+07 1.03155e+07
-6.59536e+06 -2.5356e+07 -5.2946e+06
1.27937e+07 1.19294e+07 -1.99861e+06
5.78403e+06 -1.03457e+07 -1.46663e+06
1.49104e+07 9.66922e+06 5.21578e+06
1.43726e+07 -2.71608e+06 -1.95889e+06
1.13005e+07 5.1112e+06 1.05585e+07
3.54931e+06 -1.12568e+07 2.12856e+06
1.86551e+07 6.06956e+06 7.04354e+06
5.01645e+06 -872076 -4.36771e+06
-1.22369e+06 1.05783e+07 8.27983e+06
1.27514e+06 -8.75729e+06 1.52083e+07
5.30296e+06 -6.49807e+06 2.85524e+06
6.34564e+06 2.62139e+06 8.18571e+06
1.73169e+07 4.48448e+06 1.62283e+07
1.67012e+07 5.31775e+06 2.62593e+06
1.33938e+07 -1.45312e+07 1.38754e+07
-2.9584e+06 -7.47084e+06 1.41039e+06
-5.45897e+06 -937376 1.65364e+07
3.91414e+06 1.3268e+07 1.60365e+06
1.42246e+07 -5.89544e+06 2.7795e+07
8.7798e+06 1.34687e+06 -7.65791e+06
-2.14234e+06 3.38487e+06 1.18207e+06
-1.11728e+07 -9.31423e+06 4.84564e+06
-1.87988e+07 5.52139e+06 1.78129e+06
-1.00827e+07 2.04372e+06 -9.00492e+06
-4.72086e+06 6.17094e+06 7.1464e+06
771485 3.24874e+06 -3.15242e+06
-7.97764e+06 -7.48955e+06 4.58576e+06
-2.93312e+06 -5.44333e+06 -1.14952e+07
-8.49926e+06 -708494 2.82088e+06
1.74091e+06 1.23178e+06 -243243
2.37305e+06 6.20175e+06 -1.35149e+07
1.41694e+06 7.57629e+06 5.36061e+06
1.22018e+06 -1.36184e+07 7.44623e+06
-4.75364e+06 1.6518e+07 -873242
-4.99467e+06 -2.03056e+07 8.30725e+06
-23942 2.00363e+07 333684
6.07618e+06 -2.20785e+07 1.07707e+07
3.08359e+06 1.59333e+07 -3.54867e+06
-58499.8 -1.18118e+07 6.52534e+06
6.3561e+06 1.37616e+07 -1.01851e+07
-1.68695e+06 -1.45813e+07 1.1931e+07
-1.03326e+07 1.54247e+07 -6.46658e+06
-1.64514e+07 -9.9824e+06 6.99603e+06
-1.93184e+07 -1.0527e+06 910826
-2.71537e+07 3.10679e+06 1.63279e+07
-1.5974e+07 1.76826e+06 -1.08049e+07
-4.43777e+06 1.09376e+06 1.90768e+06
-1.58718e+06 -2.64469e+06 4.88867e+06
-4.52829e+06 1.78874e+06 -5.14898e+06
-1.28657e+07 3.37306e+06 1.22528e+06
-1.40448e+07 -9.57434e+06 2.55281e+06
-1.42574e+07 9.62919e+06 -6.75361e+06
-7.33518e+06 -2.64535e+06 5.91341e+06
-3.03485e+06 2.56659e+06 -1.02596e+07
-5.1243e+06 368777 7.51149e+06
-1.13914e+07 -2.50754e+06 -2.05816e+07
-3.39012e+06 -2.59669e+06 3.89244e+06
-6.46088e+06 6.58899e+06 -7.23763e+06
-2.54401e+06 1.09586e+06 2.15785e+06
-6.5572e+06 -8.71783e+06 -8.02142e+06
-1.40941e+07 8.21935e+06 1.96927e+06
-1.17593e+07 -7.16281e+06 -5.11966e+06
-1.53758e+07 6.78933e+06 -2.84386e+06
-1.61983e+07 -9.12511e+06 2.13255e+06
-1.84886e+07 3.47387e+06 9.51808e+06
-1.49527e+07 -9.37796e+06 -1.66953e+06
-1.92233e+07 1.03344e+07 -423031
-2.07851e+07 -1.15444e+07 6.79782e+06
-1.39371e+07 1.27203e+07 8.62859e+06
-1.46469e+07 749786 -4.0112e+06
0 0 0
0 0 0
601697 197133 543030
-2.61916e+06 6.14339e+06 2.5976e+06
4.08038e+06 -6.58793e+06 -418156
-6.69948e+06 -6.30271e+06 -3.28641e+06
7.91936e+06 -4.35395e+06 924342
-5.90809e+06 -3.79328e+06 -4.57164e+06
1.24063e+07 3.70449e+06 4.4054e+06
-9.44447e+06 1.4871e+07 -3.19356e+06
1.64868e+07 1.88032e+07 -215456
-5.78771e+06 1.72597e+07 -3.67758e+06
1.10655e+07 1.08139e+07 868845
-3.03174e+06 3.04055e+06 -1.901e+06
1.0989e+06 -7.78311e+06 6.7448e+06
-743462 -2.77772e+06 -2.05676e+06
-3.02103e+06 -1.95294e+06 1.99031e+06
1.0333e+06 188660 -6.44754e+06
169054 4.30392e+06 1.88856e+06
-7.69558e+06 3.82479e+06 692409
6.1446e+06 -2.48361e+06 2.56021e+06
-1.4062e+07 -6.58715e+06 -4.45643e+06
9.7512e+06 3.56663e+06 743689
-1.44443e+07 -1.76568e+06 -6.68941e+06
1.23733e+07 8.47036e+06 -1.62542e+06
-1.10074e+07 1.93026e+07 -2.30447e+06
1.56477e+07 1.67978e+07 1.0236e+06
-2.49051e+07 1.45846e+07 1.98593e+06
2.88234e+07 1.16948e+07 7.81374e+06
-2.77489e+07 1.58737e+07 -896157
2.22146e+07 1.87913e+07 1.18145e+06
-1.51385e+07 2.40263e+07 -1.14014e+06
1.08155e+07 2.63324e+07 1.2841e+06
3.52684e+06 1.64702e+07 144826
-1.53042e+07 1.78867e+07 5.11827e+06
2.16129e+07 1.20369e+06 -511726
-2.72502e+07 -451937 1.08501e+06
2.5915e+07 -5.94471e+06 534324
-1.84665e+07 -5.59014e+06 896428
1.00742e+07 269033 2.31332e+06
-334702 979715 3.10155e+06
-721051 697924 654019
-1.31197e+06 449891 3.98475e+06
511503 567548 720996
6.05266e+06 7657.58 5.38344e+06
-1.01217e+07 3.37926e+06 6.92634e+06
1.61778e+07 1.27355e+06 1.25662e+07
-1.08852e+07 5.37228e+06 5.6672e+06
2.14356e+07 1.19029e+07 1.02763e+07
-2.20784e+07 8.51645e+06 4.21733e+06
2.01589e+07 1.57391e+07 1.00268e+07
-7.67207e+06 2.11336e+07 5.27629e+06
2.85949e+06 1.51568e+07 9.91923e+06
-4.84489e+06 1.83342e+07 -1.93509e+06
3.06655e+06 8.15188e+06 -3.26728e+06
-3.6202e+06 -6.7432e+06 -710058
73940.9 -3.25536e+06 -10728.6
-6.87577e+06 -9.00554e+06 3.10627e+06
4.06978e+06 -7.62335e+06 3.93469e+06
-9.00405e+06 -1.45899e+06 3.22671e+06
1.22153e+06 -1.2102e+06 7.97867e+06
2.64282e+06 -2.42368e+06 631905
-375400 -4.27038e+06 5.46471e+06
1.06812e+06 -645750 -1.65316e+06
-1.52104e+06 6.55943e+06 5.5608e+06
-4.19709e+06 7.22054e+06 1.7887e+06
5.767e+06 1.89969e+07 3.81766e+06
-2.24309e+06 1.2477e+07 1.84128e+06
2.78887e+06 1.1629e+07 -1.62763e+06
1.08111e+06 1.03442e+07 -3.11775e+06
-1.36141e+06 7.36898e+06 -1.44897e+06
2.64117e+06 4.22674e+06 3.82844e+06
260270 1.28173e+07 4.78921e+06
-4.27457e+06 1.24355e+07 8.23287e+06
-8.58319e+06 1.30614e+07 -1.68229e+06
3.07323e+06 5.54238e+06 2.86261e+06
-5.63116e+06 -6.4179e+06 1.70942e+06
3.94794e+06 -4.59131e+06 -178774
-6.59707e+06 -7.03718e+06 -434270
6.47556e+06 -1.05552e+07 -5.69857e+06
-1.58447e+07 -7.47491e+06 -3.56358e+06
1.47171e+07 -1.28937e+07 -5.91179e+06
-1.7185e+07 -1.59719e+07 -3.00531e+06
1.19887e+07 -2.36407e+07 1.54362e+06
-7.00599e+06 -1.5278e+07 531731
7.23893e+06 -1.52083e+07 7.1283e+06
545566 617425 4.03501e+06
-2.26037e+06 7.48632e+06 9.64625e+06
-1.09045e+07 -5.07976e+06 -2.16157e+06
-288154 1.23675e+07 9.9685e+06
0 0 0
0 0 0
-5.54104e+06 -8.53198e+06 4.28778e+06
-4.77259e+06 5.41933e+06 1.61076e+06
-3.77666e+06 3.35072e+06 -1.30354e+07
-3.97696e+06 -8.70122e+06 2.67013e+06
-3.00133e+06 1.11462e+07 1.38115e+06
-1.22883e+06 -1.60452e+07 1.07217e+07
-1.25199e+07 1.8884e+07 -2.59677e+06
-2.07635e+07 -2.12361e+07 9.02712e+06
-2.25957e+07 2.69086e+07 -1.66959e+07
-2.17884e+07 -2.47244e+07 1.52348e+07
-2.02776e+07 2.08513e+07 5.04097e+06
-3.07943e+07 -1.49247e+07 -1.08645e+06
-2.05597e+07 1.68871e+07 -2.76395e+06
-2.61908e+07 -1.01712e+07 -6.05744e+06
-1.36203e+07 1.01649e+07 -694672
-2.16003e+07 -5.15422e+06 6.74294e+06
-8.16502e+06 1.40718e+07 -4.97948e+06
-1.7929e+07 -1.64277e+07 6.71789e+06
-2.1593e+07 1.12615e+07 -2.18954e+06
-2.11987e+07 -8.8394e+06 3.24677e+06
-8.54514e+06 6.14287e+06 7.21524e+06
-2.00932e+07 -9.3255e+06 4.21266e+06
-1.27906e+07 1.31235e+07 -1.06376e+06
-5.68978e+06 -1.77464e+07 -603143
1.48444e+06 9.25452e+06 -3.28002e+06
-8.59921e+06 -9.81631e+06 5.70409e+06
4.19906e+06 -3.03275e+06 -9.82946e+06
-2.04436e+06 -1.94973e+06 9.07124e+06
-1.78343e+07 4.21458e+06 1.05468e+07
-1.84744e+07 6.63538e+06 -6.00861e+06
-1.61241e+07 -1.34987e+07 6.58102e+06
-1.0773e+06 3.63753e+06 -5.37191e+06
4.91574e+06 -7.79024e+06 2.66043e+06
-8.76673e+06 1.17536e+07 -1.201e+07
-1.49791e+07 -4.90966e+06 7.11497e+06
-1.7965e+07 -4.58221e+06 -1.75205e+07
-6.48629e+06 4.9779e+06 -7.63842e+06
1.37883e+07 -1.40634e+07 9.08931e+06
1.55452e+07 1.04357e+07 2.52257e+06
1.8443e+07 -3.99001e+06 119888
6.90004e+06 6.96778e+06 4.42908e+06
3.31126e+06 -4.46841e+06 -4.53632e+06
-1.27672e+06 -1.87788e+06 4.16072e+06
8.54832e+06 2.16842e+06 -1.89692e+06
3.83686e+06 2.65386e+06 1.22154e+06
7.64256e+06 -6.87079e+06 1.40547e+07
-8.40029e+06 -1.76806e+06 -1.61471e+06
3.34658e+06 3.35201e+06 1.54003e+07
1.47167e+06 -9.19719e+06 3.05724e+06
-6.15819e+06 1.30212e+07 -1.1137e+07
6.81738e+06 -9.88736e+06 4.31902e+06
-882920 8.68594e+06 -4.91412e+06
-849484 -7.13391e+06 9.47716e+06
4.37665e+06 1.22539e+07 -7.49541e+06
1.20106e+07 -1.18207e+07 6.68659e+06
3.58923e+06 1.03826e+07 -1.27562e+07
288168 -2.12443e+07 1.12839e+07
1.6116e+07 2.86095e+07 -1.25787e+07
1.95629e+07 -2.24601e+07 -5.01458e+06
1.44858e+07 8.79239e+06 -6.37127e+06
1.55345e+07 -7.65345e+06 -7.17293e+06
2.25767e+07 -3.66542e+06 -1.04739e+07
9.26046e+06 7.79393e+06 4.54904e+06
6.26846e+06 428955 -3.73028e+06
1.22386e+07 600518 -8.14264e+06
1.33639e+07 638017 279299
1.8044e+07 -5.37789e+06 532544
1.56101e+07 968574 -7.48886e+06
1.04764e+07 -3.42682e+06 6.69909e+06
5.84001e+06 1.99904e+06 -7.65952e+06
2.63266e+06 -8.1502e+06 1.87215e+07
-1.03288e+06 1.01496e+07 -6.32541e+06
-858039 -2.28608e+06 1.87049e+07
-1.75851e+06 5.43686e+06 -2.49023e+06
7.7369e+06 126243 8.15872e+06
1.68331e+07 -2.48428e+06 1.33372e+06
1.58307e+07 -1.8972e+06 6.61415e+06
1.50271e+07 -5.23891e+06 1.53872e+06
1.31773e+07 1.19374e+07 2.0221e+06
2.36041e+07 -5.59032e+06 5.02764e+06
2.18516e+07 7.02067e+06 1.52922e+06
1.90981e+07 -6.60548e+06 -7.51376e+06
2.3367e+07 2.74282e+06 -8.35498e+06
2.14576e+07 -2.44667e+06 5.33054e+06
1.66234e+07 -156299 -2.05548e+06
1.32722e+07 -23840.3 -4.30008e+06
2.00041e+06 -5.09643e+06 -6.6022e+06
0 0 0
0 0 0
869848 -1.32297e+06 -1.93357e+06
-1.942e+06 -2.27477e+06 -760900
4.27411e+06 -3.78582e+06 2.69659e+06
-2.37272e+06 5.05864e+06 -2.24361e+06
5.22146e+06 504666 4.41912e+06
-8.03603e+06 5.76812e+06 -7.13602e+06
2.74697e+06 -8.65518e+06 -787883
-4.32439e+06 -1.02837e+07 -6.26397e+06
5.05249e+06 -1.11868e+07 2.44242e+06
-7.72399e+06 -1.43066e+07 597902
5.16302e+06 -17086.1 2.22172e+06
-4.84696e+06 4.36947e+06 -281482
-7.47251e+06 6.26103e+06 5.98457e+06
1.1299e+07 5.62251e+06 -2.16981e+06
-1.82668e+07 1.53726e+06 3.50925e+06
1.22744e+07 -3.92141e+06 -1.3478e+06
-6.30144e+06 -6.38148e+06 1.64107e+06
1.71888e+06 -3.59451e+06 -757224
3.62238e+06 9.13409e+06 1.42891e+06
1.00676e+06 1.71887e+07 1.60513e+06
8.35614e+06 1.35416e+07 4.83909e+06
-1.89616e+07 4.94822e+06 -1.22581e+06
1.78947e+07 -3.75845e+06 -1.70701e+06
-2.03636e+07 -2.25655e+07 -1.60284e+06
1.86852e+07 -2.29945e+07 -3.89215e+06
-1.92554e+07 -1.50452e+07 -4.7652e+06
3.13374e+07 -1.53694e+07 -794198
-2.83577e+07 -1.16433e+07 -1.83438e+06
2.96706e+07 -8.02041e+06 2.63032e+06
-2.08614e+07 -1.89797e+07 -2.09323e+06
7.25566e+06 -1.93185e+07 -30405.4
-3.22145e+06 -2.05356e+07 -8.06077e+06
-1.5195e+07 -1.65243e+07 3.12834e+06
1.95368e+07 -6.76051e+06 -1.78791e+06
-2.72946e+07 3.50813e+06 1.53586e+06
2.4152e+07 -143932 1.02716e+06
-1.21106e+07 2.4946e+06 -868361
9.44271e+06 332965 125966
3.3559e+06 -1.42355e+06 -246151
-698990 -5.70407e+06 -2.41608e+06
-1.23486e+06 -4.50021e+06 2.29247e+06
-2.45412e+06 -8.78782e+06 -237622
5.0837e+06 -8.92319e+06 -3.75591e+06
-3.69665e+06 -2.13057e+06 -5.3241e+06
1.11719e+07 -4.02689e+06 -6.27945e+06
-1.26164e+07 -6.44521e+06 -1.25863e+07
1.66958e+07 -1.32509e+07 -7.02543e+06
-1.8043e+07 -1.07521e+07 -8.90841e+06
1.00812e+07 -1.67353e+07 -3.09283e+06
-1.3604e+07 -2.43077e+07 -1.0454e+07
5.1049e+06 -1.66709e+07 -3.35956e+06
3.45338e+06 -1.64533e+07 -5.52477e+06
1.03499e+06 -7.79764e+06 -619060
1.83096e+06 3.46294e+06 3.84815e+06
-9.14647e+06 1.99175e+06 -2.82394e+06
-1.05995e+07 7.1956e+06 -2.32707e+06
4.4179e+06 3.38598e+06 -4.12699e+06
-880781 4.5542e+06 -2.9946e+06
2.5808e+06 9.42625e+06 -1.79695e+06
1.84441e+06 5.62961e+06 -1.48074e+06
-6.06909e+06 5.85449e+06 -1.49438e+06
4.92162e+06 445286 -1.0543e+06
-3.39687e+06 -7.385e+06 -2.99889e+06
1.29049e+06 -6.73653e+06 752755
1.63472e+06 -1.75772e+07 -6.05969e+06
-6.66448e+06 -2.27784e+07 5.8247e+06
-380802 -1.35791e+07 -7.46537e+06
2.12481e+06 -1.27149e+07 6.24919e+06
-8.35859e+06 -1.0824e+07 -8.74305e+06
2.37535e+06 -6.48052e+06 -574911
4.54228e+06 -8.62316e+06 -1.84683e+07
-4.79848e+06 -7.37255e+06 1.76534e+06
-1.49698e+06 -5.12453e+06 -1.51018e+07
2.17489e+06 6.49768e+06 5.23957e+06
-1.15825e+07 5.72517e+06 -1.32953e+07
8.70381e+06 5.10364e+06 3.71971e+06
-7.88397e+06 1.10993e+07 -6.30941e+06
3.57162e+06 9.39402e+06 8.82897e+06
-1.76398e+07 1.11353e+07 -3.73274e+06
1.34843e+07 8.51813e+06 9.47364e+06
-1.59328e+07 1.5658e+07 -9.67026e+06
6.34203e+06 1.29574e+07 4.74289e+06
-1.01625e+07 1.62158e+07 -1.18219e+07
-3.01132e+06 1.55506e+06 3.40257e+06
2.34503e+06 -6.82555e+06 -1.42041e+07
-2.24595e+06 -1.04148e+07 -3.01542e+06
3.46589e+06 -1.3123e+07 -1.59174e+07
-6.55482e+06 8.96076e+06 1.14384e+07
-3.26757e+06 -9.40757e+06 -7.9138e+06
0 0 0
0 0 0
8.57326e+06 1.65062e+06 -1.79876e+06
508632 1.55692e+06 5.95595e+06
3.91335e+06 -1.10646e+06 -2.84804e+06
2.78001e+06 -6.98646e+06 7.04043e+06
-2.4163e+06 1.01188e+07 -7.94177e+06
7.19458e+06 -7.78458e+06 1.71548e+06
8.37836e+06 1.48021e+07 -3.12482e+06
1.92435e+07 -1.39172e+07 1.15271e+07
2.16676e+07 1.74908e+07 -1.69295e+07
2.20466e+07 -1.61984e+07 51770.6
2.67459e+07 1.91161e+07 -731665
1.97631e+07 -1.36722e+07 5.0106e+06
1.86292e+07 8.96246e+06 8.55917e+06
1.23652e+07 -1.05497e+07 -1.69653e+06
1.81817e+07 5.68731e+06 5.18732e+06
1.51088e+07 -4.53538e+06 4.32034e+06
1.62087e+07 4.06425e+06 -7.94906e+06
1.51948e+07 -9.9006e+06 4.91947e+06
2.91766e+07 1.30692e+07 -1.19169e+07
2.86917e+07 746002 -2.75577e+06
1.92053e+07 4.74617e+06 -4.44899e+06
1.28299e+07 -1.02183e+07 2.38456e+06
1.05018e+07 1.51002e+07 -1.16707e+06
9.04189e+06 -3.76353e+06 -835578
7.58678e+06 4.37722e+06 -2.05458e+06
2.68559e+06 3.10263e+06 7.85382e+06
-101232 6.31132e+06 -1.20273e+07
8.83297e+06 -193771 3.60491e+06
1.88318e+07 2.05694e+06 3.71805e+06
9.13734e+06 -1.72396e+06 -3.51231e+06
5.64909e+06 -1.26217e+06 2.70216e+06
6.1261e+06 1.34764e+07 -848154
3.99003e+06 -9.35721e+06 5.0375e+06
7.63945e+06 1.31857e+07 -4.4016e+06
1.72159e+07 -4.34289e+06 1.59098e+07
8.83904e+06 4.40248e+06 -4.90184e+06
-1.44195e+06 1.47027e+07 60678.1
-1.02289e+07 -1.44715e+07 8.46253e+06
-1.35031e+07 1.03799e+07 -6.71199e+06
-1.42695e+07 -1.10835e+07 -5.57779e+06
-1.57215e+07 1.48833e+07 3.60572e+06
-6.13498e+06 -2.38903e+06 6.11072e+06
-7.8675e+06 -3.62921e+06 487259
-8.36853e+06 -5.96478e+06 -4.36153e+06
-1.04512e+07 8.21641e+06 516906
-5.19558e+06 -9.25675e+06 2.31972e+06
-1.37406e+07 4.91642e+06 -1.6351e+07
2.61229e+06 1.30791e+07 4.53126e+06
439236 -1.51251e+07 2.25276e+06
751126 8.87591e+06 -4.00886e+06
2.7844e+06 618601 -100680
-8.51379e+06 1.13092e+06 -3.78919e+06
1.34796e+06 -1.52441e+06 -2.0608e+06
-1.07414e+07 4.97433e+06 -9.80035e+06
-1.76895e+07 -7.63432e+06 -1.05542e+06
-8.20564e+06 5.46228e+06 -9.30436e+06
-8.49756e+06 -1.82815e+07 4.82367e+06
-1.2154e+07 2.91616e+07 -2.91168e+06
-1.45017e+07 -1.66838e+07 1.33507e+06
-1.4368e+07 7.36858e+06 7.99393e+06
-1.51372e+07 -5.29348e+06 8.29019e+06
-1.29507e+07 -1.27287e+06 -3.25929e+06
-1.82934e+07 5.42055e+06 2.19623e+06
-1.60463e+07 -6.62165e+06 1.07743e+07
-1.8532e+07 2.43138e+06 -5.0648e+06
-2.40237e+07 -7.15388e+06 8.57374e+06
-2.08175e+07 -6.8998e+06 5.58785e+06
-1.73544e+07 1.03003e+07 1.104e+06
-7.6011e+06 3.98442e+06 4.17279e+06
-175869 3.55093e+06 -4.44711e+06
8.25684e+06 -6.59556e+06 8.16333e+06
8.17645e+06 6.68681e+06 -1.32971e+07
8.16173e+06 -8.64808e+06 3.7305e+06
7.07911e+06 9.95601e+06 -6.4366e+06
-3.76203e+06 -1.21362e+06 -1.88174e+06
-1.92791e+07 3.00257e+06 -4.23644e+06
-2.23541e+07 -3.56556e+06 -1.4801e+06
-1.22159e+07 -5.82201e+06 -7.54162e+06
-1.44269e+07 1.04918e+07 -8.28758e+06
-1.76145e+07 -7.67028e+06 1.12002e+06
-2.32099e+07 2.18902e+06 6.82809e+06
-2.83793e+07 -1.29859e+06 -3.34492e+06
-2.02236e+07 239008 -5.66884e+06
-2.46532e+07 -44827.5 5.75222e+06
-1.80037e+07 4.30937e+06 5.01959e+06
-6.04982e+06 3.94501e+06 -6.03597e+06
1.18076e+07 -7.74585e+06 -2.62302e+06
1.29675e+07 7.27623e+06 1.5062e+07
0 0 0
0 0 0
286127 141887 -641255
-1.23095e+07 629350 1.27662e+06
6.70884e+06 4.72765e+06 -727209
-4.14742e+06 4.21099e+06 -2.46822e+06
6.3513e+06 -6.48649e+06 -391494
-1.34545e+06 327836 -3.04911e+06
-7.35138e+06 -856205 4.35096e+06
6.75534e+06 2.13294e+06 3.1397e+06
-641074 -337458 4.74702e+06
-2.96957e+06 -5.11683e+06 3.03107e+06
1.01511e+07 -7.09608e+06 1.14607e+06
3.68187e+06 -1.41951e+07 -1.69507e+06
-1.1007e+07 -1.31666e+07 1.63418e+06
2.3729e+07 -8.92203e+06 -2.98038e+06
-2.10448e+07 -852439 174063
1.60356e+07 798533 -4.9701e+06
-9.98094e+06 4.80128e+06 -1.12869e+06
8.87815e+06 3.04851e+06 -2.29548e+06
-5.18171e+06 -8.99275e+06 -1.11234e+06
4.22655e+06 -1.14776e+07 -2.78075e+06
1.90578e+06 -1.41814e+07 1.88743e+06
-1.3436e+07 -6.31822e+06 -919311
2.12231e+07 1.18953e+07 2.77924e+06
-2.41007e+07 1.91174e+07 2.31863e+06
2.58268e+07 2.78813e+07 6.56268e+06
-2.57994e+07 2.51477e+07 4.51383e+06
2.02583e+07 1.46888e+07 1.03791e+07
-2.68758e+07 6.03648e+06 1.01491e+06
2.05231e+07 2.07844e+06 864334
-1.9684e+07 5.81204e+06 3.66087e+06
1.16656e+07 1.50615e+07 539418
-6.69585e+06 1.81623e+07 1.88982e+06
-6.83657e+06 1.6132e+07 2.45011e+06
1.72521e+07 9.69945e+06 5.26346e+06
-1.74112e+07 1.71154e+06 -3.4097e+06
1.68525e+07 -2.07392e+06 5.78086e+06
-7.86307e+06 -914101 -4.49798e+06
5.85012e+06 1.70881e+06 4.53432e+06
-2.35623e+06 -1.70622e+06 -5.70651e+06
-3.04343e+06 1.85043e+06 468299
-3.99677e+06 5.6005e+06 -2.95224e+06
-2.021e+06 6.33357e+06 2.92749e+06
1.24831e+06 5.57754e+06 -1.32301e+06
-3.99446e+06 98539.2 4.9249e+06
5.6642e+06 186412 2.86081e+06
-1.68213e+07 1.32397e+06 5.03615e+06
1.19866e+07 264847 2.55867e+06
-1.06068e+07 1.1059e+07 2.64955e+06
1.33295e+07 1.80307e+07 4.04435e+06
-1.17546e+07 1.8726e+07 4.83724e+06
1.17383e+07 2.2903e+07 3.76979e+06
-6.20847e+06 1.77473e+07 2.45069e+06
2.24841e+06 664558 -5.35631e+06
7.47083e+06 -2.85248e+06 6.03724e+06
-6.16432e+06 -609318 -1.90533e+06
-2.27264e+06 3.948e+06 7.70482e+06
3.05354e+06 2.94933e+06 -2.947e+06
7.34277e+06 2.26239e+06 7.56652e+06
-4.21336e+06 -1.06045e+07 -4.37839e+06
7.67538e+06 -9.42685e+06 7.27057e+06
-1.38865e+07 -9.875e+06 -6.41582e+06
1.86553e+06 -1.01713e+07 7.14429e+06
-3.94212e+06 -612434 -6.68306e+06
-3.15233e+06 1.33547e+06 1.07378e+07
3.90562e+06 8.80984e+06 -5.7977e+06
-618211 1.13767e+07 1.54542e+07
2.40117e+06 1.21666e+07 -4.7481e+06
4.64465e+06 1.07295e+07 1.75383e+07
-5.82118e+06 1.14558e+07 -1.11234e+06
8.63028e+06 8.18165e+06 2.14212e+07
4.07155e+06 9.79585e+06 1.76309e+06
-3.50966e+06 4.80928e+06 1.77344e+07
5.63882e+06 1.7521e+06 -1.03444e+07
4.33748e+06 803265 1.26739e+07
-8.88075e+06 -2.57848e+06 -6.40844e+06
2.15682e+07 -6.44081e+06 9.95878e+06
-1.49815e+07 -805975 -6.42578e+06
3.03793e+06 -6.32882e+06 4.80697e+06
-8.17195e+06 -5.05818e+06 -7.07625e+06
4.21164e+06 -9.08394e+06 6.05604e+06
-6.16379e+06 -1.53506e+07 -1.01303e+07
7.9e+06 -9.62278e+06 9.15072e+06
3.92624e+06 3.94191e+06 -5.17351e+06
-1.36464e+07 1.23343e+07 1.22668e+07
1.08722e+07 1.38655e+07 -4.5461e+06
-4.01576e+06 1.51421e+07 8.23896e+06
-869220 1.45647e+07 -234237
1.07342e+06 2.17412e+07 1.0164e+07
4.20625e+06 -1.2744e+07 -1.10825e+07
7.78308e+06 2.06007e+07 4.63589e+06
0 0 0
0 0 0
3.29674e+06 1.09851e+07 2.43895e+06
-4.64122e+06 -9.34957e+06 -5.34369e+06
-2.98573e+06 9.38571e+06 -9.72445e+06
1.96558e+06 -1.04104e+07 1.19307e+06
-5.5203e+06 1.86189e+07 -963878
-4.64329e+06 -1.31396e+07 -2.13217e+06
-2.13722e+07 1.33709e+06 -6.0599e+06
-2.6225e+07 -3.35572e+06 1.06253e+06
-2.61088e+07 1.02628e+06 -1.39445e+07
-2.37337e+07 -8.87816e+06 -113369
-2.29176e+07 1.21771e+07 6.45947e+06
-2.3034e+07 -1.84039e+07 -8.24834e+06
-2.03679e+07 8.24016e+06 2.39463e+06
-1.18685e+07 -7.16897e+06 -1.48799e+07
-1.07989e+07 5.4778e+06 -3.85823e+06
-1.08575e+07 -1.66968e+06 2.4809e+06
-1.12797e+07 3.67421e+06 -4.13014e+06
-1.68199e+07 -1.17829e+07 9.7276e+06
-2.53372e+07 7.08409e+06 -4.57969e+06
-2.78154e+07 -5.69323e+06 2.66978e+06
-3.13745e+07 -8.52673e+06 3.44894e+06
-1.52055e+07 4.45863e+06 1.98352e+06
-1.09142e+07 3.69897e+06 -664690
-1.27262e+07 -1.84527e+06 3.02792e+06
-1.34315e+07 -9.15384e+06 -6.79311e+06
-5.50207e+06 -3.60217e+06 1.53835e+06
-9.13194e+06 -966689 -2.14408e+07
-1.36148e+07 -8.40032e+06 2.30813e+06
-1.83856e+07 3.88923e+06 -4.20097e+06
-1.18107e+07 -2.97066e+06 -1.06748e+07
-2.00111e+06 -3.43008e+06 -3.19954e+06
-6.97881e+06 2.28105e+06 -5.39939e+06
-1.32538e+07 -1.50111e+07 -5.74547e+06
-5.05719e+06 1.08686e+07 -1.26559e+07
-8.35131e+06 -6.91806e+06 1.16747e+06
-1.16436e+07 -1.42304e+06 -1.17342e+07
-5.75311e+06 3.33405e+06 -8.14292e+06
6.44352e+06 -1.11803e+07 4.55274e+06
6.67833e+06 5.55036e+06 -5.44295e+06
6.81039e+06 -9.2954e+06 -2.96587e+06
1.43738e+07 7.51776e+06 -395558
8.0886e+06 -6.29603e+06 -8.52666e+06
7.26453e+06 9.55702e+06 -7.14694e+06
1.35485e+07 -7.3816e+06 -6.0579e+06
1.19531e+07 1.49888e+07 -1.69316e+06
1.37712e+07 -1.83043e+07 6.21457e+06
4.05815e+06 8.66366e+06 -4.57246e+06
9.39996e+06 3.72376e+06 1.15518e+07
1.0021e+06 -8.03122e+06 -1.2736e+06
-502107 8.81433e+06 -6.68657e+06
6.75722e+06 -5.45292e+06 405330
2.46094e+06 -2.30364e+06 3.39361e+06
-141524 3.51679e+06 6.14235e+06
-3.01351e+06 -2.35946e+06 3.49024e+06
3.77669e+06 -2.65446e+06 5.86878e+06
9.83647e+06 1.11628e+07 2.11787e+06
1.10219e+07 -1.53454e+07 8.64842e+06
1.39474e+07 1.42173e+07 2.8103e+06
1.79803e+06 -1.43957e+07 -7.65386e+06
5.16467e+06 1.79409e+07 1.07416e+07
1.24886e+07 -552434 -1.10992e+07
1.31372e+07 -958304 2.56279e+06
1.65866e+07 4.57824e+06 3.23576e+06
1.62651e+07 -1.01538e+07 3.8219e+06
2.15827e+07 34916.9 -1.4102e+07
2.14678e+07 1.42853e+06 3.90071e+06
1.55363e+07 -3.54044e+06 -6.46886e+06
1.45796e+07 4.32832e+06 -6.34091e+06
7.6894e+06 2.39945e+06 -5.44868e+06
2.13634e+06 -5.75868e+06 -9.85716e+06
-154938 277590 8.51792e+06
-4.71452e+06 3.18698e+06 -6.30908e+06
3.73308e+06 -3.64191e+06 1.19605e+07
119385 817710 -6.56733e+06
3.07407e+06 -6.53927e+06 1.95503e+06
1.71561e+07 1.89471e+06 1.92498e+06
1.46795e+07 6.37118e+06 6.49028e+06
1.06509e+07 -5.31251e+06 -1.17804e+06
1.3586e+07 1.40386e+07 2.04591e+06
2.2699e+07 -9.48936e+06 3.94614e+06
1.94973e+07 3.07723e+06 8.18878e+06
2.05396e+07 4.40554e+06 -6.04134e+06
2.82237e+07 -7.53761e+06 -3.26662e+06
1.78701e+07 879470 3.19284e+06
1.75022e+07 -6.2004e+06 -1.0349e+06
6.167e+06 1.1329e+07 -7.89249e+06
-1.08873e+07 -1.07703e+07 -3.62181e+06
-1.6713e+07 6.94126e+06 1.21993e+07
-1.29772e+07 -1.67592e+07 -6.63228e+06
0 0 0
0 0 0
1.04959e+07 3.40023e+06 -232987
-9.5893e+06 4.72905e+06 805939
9.76069e+06 -3.40739e+06 4.67437e+06
-1.39092e+07 -5.66412e+06 1.42881e+06
1.36441e+06 -4.83779e+06 5.69721e+06
3.24578e+06 -3.47519e+06 -4.1607e+06
-8.08468e+06 -59533.2 1.28268e+06
1.45952e+07 8.06073e+06 -3.95363e+06
-1.06517e+07 1.7113e+06 2.73461e+06
1.31753e+06 8.08834e+06 -1.14142e+06
779749 1.43653e+07 1.09906e+06
3.30946e+06 1.01495e+07 -4.2023e+06
-1.6552e+07 1.62906e+07 3.5516e+06
1.95972e+07 1.71026e+07 -3.06573e+06
-2.13991e+07 1.05102e+07 7.05238e+06
1.41422e+07 647741 1.96699e+06
-1.3376e+07 -211732 6.50902e+06
4.873e+06 2.07283e+06 -1.83597e+06
-8.86875e+06 3.79811e+06 3.4146e+06
2.4796e+06 6.5958e+06 -3.49913e+06
1.14846e+06 917677 4.985e+06
-5.30672e+06 -4.17801e+06 -5.467e+06
2.11113e+07 -1.18176e+07 1.21908e+06
-1.6779e+07 -2.10987e+07 -7.72464e+06
2.88454e+07 -2.29174e+07 -2.81902e+06
-2.29422e+07 -2.64091e+07 -1.29297e+07
1.37869e+07 -1.76737e+07 -3.34243e+06
-2.03604e+07 -5.97437e+06 -8.49185e+06
2.5943e+07 -4.82445e+06 -4.12514e+06
-1.81819e+07 -5.69815e+06 -4.93397e+06
1.47758e+07 -1.32725e+07 -5.56059e+06
-1.45466e+06 -1.99417e+07 -1.10362e+07
-6.4782e+06 -1.46363e+07 -3.81083e+06
1.61913e+07 -1.19075e+07 -3.95811e+06
-1.96348e+07 -3.86136e+06 -7.32619e+06
8.21483e+06 862095 -290220
-8.09478e+06 3.95216e+06 -5.09512e+06
7.8541e+06 1.95011e+06 4.18175e+06
-8.9088e+06 -497963 -1.96108e+06
2.69278e+06 -2.6239e+06 2.83732e+06
-3.21325e+06 -7.27277e+06 -321631
1.96499e+06 -2.36475e+06 5.41699e+06
1.95376e+06 781294 -4.91606e+06
-2.85885e+06 3.1889e+06 193955
6.6052e+06 5.83813e+06 -5.32417e+06
-8.58503e+06 1.28635e+07 -2.73524e+06
4.45521e+06 6.79935e+06 -3.55033e+06
2.02164e+06 -3.60679e+06 -4.30626e+06
3.04397e+06 -1.03454e+07 -2.27251e+06
-1.40999e+07 -1.66193e+07 -8.07681e+06
1.62258e+07 -1.42153e+07 -4.56796e+06
-9.03407e+06 -6.14964e+06 -3.27592e+06
-1.0258e+07 -2.43778e+06 -3.94724e+06
3.99554e+06 -1.68607e+06 3.04748e+06
52760.5 4.04278e+06 -4.77764e+06
2.46056e+06 -664328 -1.8412e+06
-1.87822e+06 -7.54049e+06 -7.04654e+06
-944322 -7.60548e+06 -939823
-1.36458e+07 6.39664e+06 -8.12267e+06
1.69413e+07 1.23389e+07 3.33419e+06
-1.258e+07 1.31468e+07 -6.75801e+06
1.05251e+07 1.90521e+07 4.4744e+06
-1.47265e+06 1.33161e+07 -9.31813e+06
-1.22222e+06 1.20154e+07 3.08409e+06
8.8199e+06 1.38007e+07 -1.37756e+07
3.3497e+06 6.26459e+06 3.86242e+06
-1.0726e+07 1.7198e+06 -1.46315e+07
9.01952e+06 -4.52794e+06 5.37003e+06
-8.80328e+06 -4.72967e+06 -1.34173e+07
1.47384e+07 -8.87896e+06 730860
-4.8405e+06 -9.81274e+06 -1.51214e+07
239117 -1.17223e+07 2.96426e+06
298034 -3.83508e+06 -1.19066e+07
4.39574e+06 -1.81482e+06 6.58192e+06
-1.5145e+07 2.64676e+06 -1.05101e+07
1.80284e+07 -9.20248e+06 2.52781e+06
-6.18698e+06 -7.82246e+06 -4.96527e+06
1.03669e+07 -3.18079e+06 7.77078e+06
709914 6.34407e+06 -608144
1.08861e+07 1.83483e+07 1.19204e+07
-9.75745e+06 1.55007e+07 -6.02675e+06
1.35268e+06 9.09609e+06 9.66611e+06
1.07282e+07 -5.51183e+06 -3.1322e+06
-1.72358e+07 -1.46878e+07 9.32704e+06
1.78948e+07 -1.51214e+07 -5.26949e+06
-7.76621e+06 -1.62929e+07 1.97186e+06
3.96453e+06 -1.66327e+07 -6.15791e+06
252216 -2.07415e+07 -266472
1.00148e+06 -1.94232e+07 -2.79768e+06
-5.8255e+06 2.1663e+07 4.86612e+06
-1.40189e+07 -2.07971e+07 -855214
0 0 0
0 0 0
-5.82516e+06 6.94237e+06 -1.75777e+06
-1.7091e+06 -1.51818e+07 6.25096e+06
1.02181e+06 1.84086e+07 634008
4.92405e+06 -2.70407e+07 1.13246e+07
3.1607e+06 2.62379e+07 -4.02282e+06
5.17878e+06 -2.02017e+07 1.11504e+06
1.81444e+07 9.16608e+06 2.66814e+06
2.82308e+07 -4.32764e+06 1.10313e+07
2.36559e+07 1.71881e+06 -8.52256e+06
2.61736e+07 -3.54283e+06 -6.22526e+06
2.3798e+07 1.5444e+07 2.47552e+06
1.52123e+07 -2.23727e+07 -3.46317e+06
1.69767e+07 2.49869e+07 1.18953e+07
1.95774e+07 -2.96341e+06 -7.65166e+06
1.69129e+07 -950922 3.18669e+06
1.35086e+07 -6.24983e+06 -467003
8.88328e+06 7.92677e+06 215133
1.69685e+07 -9.33509e+06 6.87072e+06
2.02667e+07 1.05033e+07 -9.1505e+06
2.30417e+07 -3.55031e+06 -6.75396e+06
2.69279e+07 -1.99677e+06 -2.82829e+06
1.57704e+07 9.26724e+06 3.21465e+06
1.20682e+07 -818880 3.52403e+06
1.09612e+07 -4.13149e+06 6.20909e+06
1.39993e+07 8.09617e+06 -1.76298e+06
1.93045e+07 4.27006e+06 1.38497e+07
1.06493e+07 3.36163e+06 -8.94346e+06
1.46141e+07 -7.37926e+06 1.28892e+07
2.36679e+07 9.59719e+06 463596
1.83955e+07 -1.39569e+06 833945
9.37271e+06 3.72394e+06 -2.12095e+06
1.23542e+07 5.4292e+06 5.56026e+06
1.15858e+07 -7.44663e+06 1.26306e+06
7.3693e+06 4.10129e+06 303901
6.13215e+06 -1.50242e+06 1.41606e+07
1.33483e+07 -2.43695e+06 1.84194e+06
981458 4.79129e+06 1.86524e+06
4.96302e+06 -4.06904e+06 4.79513e+06
822.246 8.50239e+06 -2.38074e+06
-5.14793e+06 -3.03597e+06 -6.43356e+06
-7.46562e+06 1.05609e+07 7.09453e+06
-1.34818e+07 -1.45217e+07 555704
-1.98718e+07 1.40407e+07 4.27796e+06
-1.52274e+07 -1.74411e+07 -2.69651e+06
-2.03923e+07 2.61006e+07 7.81297e+06
-8.62551e+06 -2.17543e+07 115308
-5.95804e+06 1.47174e+07 -9.93931e+06
-1.00002e+07 -5.97644e+06 2.31667e+06
-3.68245e+06 972334 3.0266e+06
3.91526e+06 -1.96351e+06 1.57988e+06
-2.97561e+06 -2.90704e+06 153425
-3.0659e+06 6.76256e+06 991267
2.08802e+06 -6.66117e+06 -4.12552e+06
2.90687e+06 5.91467e+06 -463125
1.2262e+07 -6.66884e+06 -2.02049e+06
-7.2939e+06 1.01091e+07 2.48032e+06
-8.11382e+06 -1.21556e+07 232105
-6.43748e+06 1.07674e+07 3.57946e+06
-2.01085e+06 -1.21537e+07 -6.27312e+06
1.11846e+06 6.66602e+06 1.10759e+07
-7.65896e+06 -1.14038e+07 -1.46753e+06
-1.33415e+07 574873 432814
-1.5118e+07 3.09657e+06 -687350
-1.18345e+07 106599 1.0015e+07
-7.70988e+06 6.67212e+06 -8.43193e+06
-1.16938e+07 -6.80598e+06 8.09735e+06
-1.36871e+07 -2.95848e+06 3.10479e+06
-4.7601e+06 3.13502e+06 2.07348e+06
-6.34412e+06 1.00886e+07 -428880
-5.491e+06 -5.76939e+06 -5.9388e+06
-4.34417e+06 637753 7.23168e+06
-1.07862e+07 -3.99779e+06 -1.06805e+07
-940877 6.68867e+06 7.34888e+06
261160 -6.94669e+06 -7.63871e+06
-2.7011e+06 1.03372e+07 875952
-6.04932e+06 4.62336e+06 -2.7635e+06
-1.15332e+07 -1.20805e+06 7.38386e+06
-1.53634e+07 -1.41712e+07 -6.93263e+06
-1.97209e+07 1.54835e+07 -2.1341e+06
-1.8264e+07 -7.86268e+06 -4.09175e+06
-2.10152e+07 -4.43012e+06 1.10271e+07
-2.38111e+07 9.16452e+06 -4.37462e+06
-1.85658e+07 -9.07677e+06 542360
-1.12011e+07 5.63822e+06 3.15401e+06
-3.32437e+06 -8.10719e+06 6.77373e+06
-17728.3 1.12759e+07 -4.64196e+06
1.72428e+06 -1.23314e+07 2.22838e+06
1.45862e+07 1.33116e+07 1.54872e+07
1.31506e+07 -1.62529e+07 -9.69919e+06
1.25978e+07 1.77716e+07 1.60784e+06
0 0 0
0 0 0
4.54479e+06 -4.50074e+06 -658754
-6.9173e+06 -4.69436e+06 -1.29819e+06
1.62133e+07 4.04081e+06 -1.54133e+06
-9.5932e+06 1.37262e+07 -935057
-2.28615e+06 1.11926e+07 -698624
4.94692e+06 7.019e+06 -1.41579e+06
-9.53266e+06 -790343 2.76884e+06
1.2052e+07 -9.03431e+06 2.6895e+06
-1.44154e+07 -8.22758e+06 2.49629e+06
1.10847e+07 -1.05586e+07 304009
-4.74004e+06 -1.18792e+07 -2.1274e+06
7.22767e+06 -1.71241e+07 -6.6581e+06
-1.65754e+06 -1.51431e+07 -3.29782e+06
1.6372e+07 -1.38843e+07 -5.17408e+06
-1.02999e+07 -1.76442e+07 -1.30072e+06
1.10005e+07 -8.45581e+06 -3.52925e+06
-5.06539e+06 -4.03263e+06 -1.06928e+06
6.95541e+06 -880446 -5.30428e+06
-1.08116e+07 7.08882e+06 145271
1.04519e+07 7.38238e+06 -6.75595e+06
-6.62665e+06 7.05521e+06 5.62469e+06
3.18008e+06 1.50359e+07 -4.11991e+06
3.90322e+06 1.48666e+07 9.90462e+06
-1.41583e+07 1.88078e+07 -1.76352e+06
1.22006e+07 2.24255e+07 1.2049e+07
-1.48194e+07 1.73479e+07 -2.98426e+06
1.35814e+07 2.24189e+07 1.23177e+07
-9.77148e+06 1.36104e+07 -1.56655e+06
1.65908e+07 7.05403e+06 5.56263e+06
-1.9208e+07 5.28155e+06 4.12028e+06
2.13738e+06 1.03245e+07 8.54161e+06
197978 7.95277e+06 2.83499e+06
-1.17173e+07 8.21193e+06 1.17713e+07
2.01749e+07 9.55603e+06 3.55518e+06
-1.35411e+07 2.13536e+06 2.88014e+06
6.96463e+06 2.25076e+06 841157
-6.05746e+06 -1.56299e+06 1.61039e+06
4.89752e+06 -6.32173e+06 99142.2
-5.59712e+06 -1.45474e+06 -1.3179e+06
1.37401e+06 6.24196e+06 -4.38848e+06
-1.93205e+06 1.30563e+06 -2.61238e+06
2.03886e+06 -319997 -2.48262e+06
3.91775e+06 -5.42611e+06 -825950
-4.06841e+06 -8.95427e+06 716086
2.69637e+06 -7.64912e+06 3.11829e+06
-1.25755e+06 -7.89759e+06 4.65379e+06
-1.00627e+07 -4.48847e+06 4.61439e+06
9.59638e+06 980601 851127
938342 3.70453e+06 6.74959e+06
-9.89434e+06 7.36926e+06 4.41847e+06
1.40831e+07 6.58876e+06 8.53612e+06
-2.34493e+06 -4.42246e+06 2.43849e+06
68259.4 6.46271e+06 -816274
4.08648e+06 4.04011e+06 998238
3.99014e+06 9.10066e+06 5.50961e+06
-6.21228e+06 5.05141e+06 3.57828e+06
-2.24914e+06 5.25326e+06 9.73096e+06
1.1412e+07 6.5565e+06 6.10953e+06
-1.20453e+07 5.70602e+06 7.3588e+06
2.07777e+07 -5.66588e+06 3.4517e+06
-1.42977e+07 -1.10735e+07 3.225e+06
2.55832e+06 -1.67094e+07 -242149
-4.28831e+06 -1.85456e+07 2.74074e+06
283299 -1.6703e+07 829274
-1.22046e+06 -1.90877e+07 3.8539e+06
2.78379e+06 -1.45772e+07 170239
-1.35675e+07 -3.16702e+06 1.63556e+06
1.59317e+07 1.51467e+06 -1.619e+06
-1.51492e+07 9.97239e+06 3.91063e+06
9.42778e+06 5.01726e+06 303215
-1.16009e+07 438060 1.06074e+07
7.43958e+06 1.54876e+06 -1.16267e+06
-8.8862e+06 316933 5.28569e+06
1.42146e+07 2.65499e+06 -2.25205e+06
-1.09707e+07 3.16513e+06 7.9615e+06
6.96214e+06 9.21738e+06 -6.619e+06
-6.66579e+06 6.88933e+06 8.21481e+06
8.90036e+06 2.26554e+06 -9.22739e+06
-9.90952e+06 -6.37246e+06 8.05236e+06
1.66415e+07 -1.7559e+07 -5.25487e+06
-1.17902e+07 -1.86535e+07 3.88055e+06
8.41043e+06 -1.82841e+06 -4.85792e+06
4.60292e+06 4.95508e+06 6.96789e+06
-9.17875e+06 1.58329e+07 -2.67804e+06
1.06111e+07 1.35358e+07 7.66612e+06
-2.50183e+06 1.4322e+07 -5.73241e+06
107044 8.3823e+06 9.16536e+06
9.77199e+06 1.22127e+07 -3.19806e+06
1.75249e+06 1.54258e+07 9.2863e+06
-5.99177e+06 1.42615e+07 -3.07212e+06
1.43243e+07 -1.67353e+07 -4.69489e+06
1.39036e+07 2.02036e+07 7.85764e+06
0 0 0
0 0 0
4.1956e+06 771300 3.92913e+06
1.16651e+07 -1.05095e+07 1.11142e+06
6.84962e+06 2.1305e+07 -7.06831e+06
-4.13223e+06 -2.73064e+07 1.0803e+07
-854217 3.06502e+07 2.69368e+06
-5.49666e+06 -1.73559e+07 7.49355e+06
-1.64687e+07 1.84924e+07 1.589e+06
-1.3259e+07 -1.41166e+07 1.05509e+07
-1.40689e+07 8.48275e+06 571599
-2.02311e+07 -1.05858e+07 8.50218e+06
-1.7898e+07 2.79845e+07 1.43936e+07
-1.14526e+07 -3.60356e+07 719628
-1.37188e+07 2.78384e+07 1.07757e+07
-2.49385e+07 -1.2204e+07 -5.71604e+06
-1.89023e+07 -161630 110676
-1.88458e+07 -2.23554e+06 -256983
-9.2705e+06 1.62441e+07 -2.75819e+06
-1.4555e+07 -8.36556e+06 1.32449e+07
-2.40856e+07 4.76136e+06 22521.3
-2.17878e+07 1.90186e+06 371506
-2.29465e+07 -9.15043e+06 190006
-2.0434e+07 959111 187812
-1.24562e+07 2.17694e+06 -3.47093e+06
-1.37459e+07 -6.72039e+06 6.79921e+06
-1.22591e+07 -59436.2 -7.75595e+06
-2.21057e+07 1.18765e+06 1.34066e+07
-1.34613e+07 8.65925e+06 -1.22885e+07
-2.02756e+07 -5.20294e+06 1.69992e+07
-2.00241e+07 5.97933e+06 -7.21017e+06
-1.36008e+07 -9.33059e+06 -2.09445e+06
-1.25039e+07 926412 -4.89977e+06
-2.06212e+07 -5.53256e+06 8.5435e+06
-1.19161e+07 1.05671e+06 -1.11098e+06
-7.79968e+06 3.62062e+06 509258
-2.45643e+06 7.88828e+06 4.4659e+06
1.3481e+06 -1.17121e+07 -4.31896e+06
86918.7 1.01415e+07 -6.8225e+06
-3.06091e+06 -1.94382e+07 1.32514e+06
-1.67889e+06 1.60358e+07 3.51941e+06
4.49873e+06 -1.39076e+07 -1.04858e+06
6.42433e+06 1.54019e+07 8.79271e+06
1.6891e+07 -1.29775e+07 -1.12986e+07
1.81542e+07 1.21008e+07 -4.12085e+06
2.20716e+07 -1.79925e+07 -5.31856e+06
1.01497e+07 2.61869e+07 6.98696e+06
8.85593e+06 -2.98505e+07 1.59356e+06
2.47863e+06 1.7317e+07 -1.92565e+06
-4.11499e+06 -9.50879e+06 2.33151e+06
-8.62407e+06 1.04714e+07 -2.73234e+06
-7.17848e+06 -4.87551e+06 -6.85709e+06
-8.79171e+06 -4.02835e+06 -1.68811e+06
-1.57864e+06 1.03611e+07 -834843
-3.77646e+06 -2.17958e+07 823653
-7.84316e+06 2.06043e+07 213657
6.75577e+06 -1.1875e+07 -502335
3.56504e+06 5.62665e+06 -2.01065e+06
1.2302e+07 -2.11381e+06 4.77865e+06
803575 7.50161e+06 -3.69312e+06
-3.16313e+06 -4.20098e+06 -1.10777e+07
2.3248e+06 8173.82 3.22488e+06
1.90891e+06 -8.24512e+06 -1.06152e+07
8.80546e+06 5.4624e+06 -1.4962e+06
8.28608e+06 5.3802e+06 9.0764e+06
1.03394e+07 -3.02726e+06 726596
1.48867e+06 2.4782e+06 -4.9715e+06
7.48244e+06 1.86608e+06 4.18289e+06
8.31284e+06 679763 4.33379e+06
1.35211e+07 -410368 -1.16325e+06
1.09012e+07 7.84538e+06 3.826e+06
1.60809e+06 -1.39562e+07 -8.64778e+06
772774 4.37165e+06 1.23959e+07
-3.97471e+06 -5.38899e+06 -6.2337e+06
-1.61652e+06 1.37443e+07 1.48322e+07
-1.32096e+06 -7.53778e+06 -1.10557e+07
1.48373e+06 2.28127e+06 1.3001e+06
3.01205e+06 -4.68288e+06 -3.27909e+06
5.21014e+06 589371 1.03262e+07
1.53491e+07 -9.99075e+06 -4.94862e+06
1.84171e+07 7.19792e+06 1.52263e+06
1.59412e+07 487283 -6.48153e+06
1.88428e+07 -5.74127e+06 6.39343e+06
1.42784e+07 7.8193e+06 -1.07106e+07
9.2929e+06 -3.06107e+06 -1.27771e+06
451721 3.70285e+06 -840723
3.31075e+06 -2.3841e+06 -1.95032e+06
2.86696e+06 1.45822e+07 -8.39009e+06
-3.41228e+06 -1.36098e+07 -3.08422e+06
-9.34231e+06 9.86044e+06 7.86667e+06
-6.73615e+06 -1.40182e+07 -8.98909e+06
-5.48181e+06 1.07075e+07 1.90504e+06
-1.37424e+07 -1.63375e+07 -1.03137e+06
0 0 0
0 0 0
985598 -2.18734e+06 141936
-9.116e+06 29170.5 482783
9.44242e+06 -5.81167e+06 3.01337e+06
-6.87054e+06 -1.2568e+07 3.87275e+06
8.63642e+06 -1.20719e+07 3.03438e+06
-964891 -7.26234e+06 3.7117e+06
-1.19747e+07 -1.61803e+06 -1.90585e+06
1.62411e+07 6.8152e+06 992144
-1.37334e+07 9.00571e+06 -1.81196e+06
1.1546e+07 1.7029e+07 4.80033e+06
-1.68995e+07 1.50208e+07 -740995
6.45752e+06 1.47456e+07 3.85899e+06
-1.13409e+07 1.83236e+07 -88320.3
7.72435e+06 1.61968e+07 5.69467e+06
-1.59502e+07 1.39626e+07 1.12965e+06
1.6137e+07 1.55623e+07 1.03066e+07
-1.46347e+07 1.21356e+07 1.6411e+06
1.44511e+07 3.07432e+06 6.34375e+06
-1.32467e+07 -4.2406e+06 1.58707e+06
6.56298e+06 -1.12326e+07 2.53014e+06
-1.39607e+07 -7.74407e+06 2.01525e+06
7.44689e+06 -1.1076e+07 -3.3076e+06
929148 -1.37664e+07 -941751
-1.40929e+06 -1.11163e+07 -5.30712e+06
5.80168e+06 -1.15511e+07 -2.4778e+06
-6.2987e+06 -1.79063e+07 -7.67922e+06
7.16989e+06 -1.45804e+07 -3.18447e+06
-4.95115e+06 -1.71881e+07 -2.28032e+06
1.04338e+07 -9.53284e+06 -3.12984e+06
-1.34146e+07 -8.57373e+06 538712
8.40736e+06 -3.28564e+06 -2.4444e+06
2.36571e+06 2.39468e+06 -5.15436e+06
-1.25701e+07 -5.96102e+06 2.51243e+06
1.70024e+07 -1.99202e+06 -1.34539e+06
-1.56251e+07 -732944 -2.2221e+06
8.10545e+06 1.40528e+06 -2.55147e+06
-1.07533e+07 -916558 -694860
1.11754e+06 -1.95364e+06 784029
74818.7 -227362 2.36362e+06
1.788e+06 2.1113e+06 460417
-572153 4.34556e+06 1.78024e+06
-244708 5.99167e+06 1.19777e+06
4.29654e+06 4.0619e+06 -2.69888e+06
-5.43836e+06 5.02763e+06 -1.05202e+06
1.15034e+07 5.22204e+06 -1.86263e+06
-1.15925e+06 3.00098e+06 -360865
-5.25469e+06 7.62021e+06 -2.23523e+06
3.12006e+06 532550 -4.07436e+06
5.20094e+06 -2.87779e+06 -1.36509e+06
-2.53302e+06 3.20882e+06 -5.78151e+06
605409 -1.42985e+06 -2.63397e+06
-4.46347e+06 -6.68665e+06 -4.37431e+06
601635 -8.6491e+06 -4.27872e+06
3.16561e+06 -1.36429e+07 -4.78364e+06
1.85544e+06 -1.68333e+07 -1.80601e+06
-5.47295e+06 -1.82489e+07 -9.22304e+06
-5.94474e+06 -8.61361e+06 935381
1.63052e+07 -4.18284e+06 -8.77443e+06
-1.75446e+07 -2.6175e+06 -1.18568e+06
2.28535e+07 1.70614e+06 -7.75864e+06
-1.68838e+07 5.78105e+06 501062
998028 6.25962e+06 -6.62716e+06
1.16535e+06 1.25781e+07 2.72924e+06
-4.31224e+06 1.58171e+07 -5.98418e+06
-2.53582e+06 1.16418e+07 1.668e+06
5.99729e+06 8.78839e+06 -7.9764e+06
-1.2393e+07 677312 709173
1.05609e+07 -5.59501e+06 -6.58168e+06
-7.71465e+06 -7.93327e+06 801924
8.40344e+06 -2.96391e+06 -1.13514e+07
-1.18928e+07 -1.79634e+06 1.26744e+06
1.63059e+07 9.7232e+06 -9.02478e+06
-1.30753e+07 3.89094e+06 4.93649e+06
1.39619e+07 8.97912e+06 -4.60585e+06
-1.1864e+07 1.65526e+06 7.10029e+06
8.44367e+06 507790 -6.10758e+06
-1.03438e+07 -637555 1.06101e+07
-2.52986e+06 8.45053e+06 -4.68943e+06
-4.192e+06 6.40307e+06 9.16474e+06
5.97068e+06 1.47878e+07 -3.00523e+06
-1.41723e+07 5.48919e+06 1.71045e+06
8.58947e+06 -3.631e+06 -7.80664e+06
4.95513e+06 -1.06085e+07 2.87046e+06
-1.04912e+07 -1.34129e+07 -7.6339e+06
7.28328e+06 -2.07034e+07 3.67483e+06
-1.62648e+06 -5.1555e+06 -1.01747e+07
-7.22219e+06 -5.44442e+06 2.98135e+06
1.1373e+07 462315 -1.27022e+07
-593094 -1.22911e+07 -1.31258e+06
-4.61798e+06 -1.65046e+07 -1.13496e+07
1.62111e+07 -2.5921e+07 -3.2047e+06
-2.46107e+07 1.84375e+07 3.28405e+06
-1.68026e+07 -1.93109e+07 -5.41579e+06
0 0 0
0 0 0
-7.61905e+06 751983 -3.89802e+06
-9.26196e+06 3.35506e+06 6.08142e+06
-8.4943e+06 9.74896e+06 -7.10054e+06
3.15943e+06 -2.55682e+07 5.40325e+06
4.48737e+06 2.85138e+07 -9.70687e+06
1.58622e+06 -3.23189e+07 -7.1788e+06
9.23862e+06 1.8558e+07 -8.51325e+06
1.37745e+07 -1.92865e+07 302230
1.51999e+07 1.63838e+07 -5.2129e+06
1.66183e+07 -2.68114e+07 -9.42597e+06
9.85878e+06 3.51075e+07 -1.65705e+06
1.37977e+07 -2.95979e+07 -1.07124e+07
1.26673e+07 2.41525e+07 6.89124e+06
1.22546e+07 -1.38643e+07 -7.01258e+06
2.1605e+07 820184 1.6662e+06
1.34811e+07 2.48421e+06 -7.95994e+06
5.78133e+06 8.91476e+06 459465
1.17076e+07 -1.86519e+07 -920580
1.80052e+07 -4.27041e+06 -3.29432e+06
2.65337e+07 804.692 -1.36925e+07
2.57038e+07 -1.14519e+06 -1.07102e+06
2.47581e+07 1.0695e+07 -3.53761e+06
1.95402e+07 -2.08188e+06 -1.50243e+06
1.30657e+07 -5.17541e+06 -3.54915e+06
1.49817e+07 -6.95949e+06 -7.45111e+06
1.35603e+07 -2.05009e+06 4.83173e+06
1.34127e+07 8.51886e+06 -6.39913e+06
1.21107e+07 -8.61961e+06 6.54035e+06
2.3929e+07 174692 -725233
1.40793e+07 391862 -1.71852e+06
1.37867e+07 4.18085e+06 998281
1.65689e+07 -8.61433e+06 2.9136e+06
2.61256e+07 -1.1282e+06 -303359
6.01457e+06 1.01625e+06 -7.76029e+06
2.97519e+06 5.51243e+06 4.8979e+06
2.55078e+06 -1.56395e+07 -6.68109e+06
-6.72488e+06 1.9909e+07 -892774
-9.10189e+06 -3.69073e+07 298721
-5.61061e+06 2.66677e+07 8.14895e+06
-9.71478e+06 -2.60425e+07 -7.32596e+06
-8.77544e+06 2.06387e+07 1.16591e+07
-2.2529e+06 -1.63984e+07 -8.28562e+06
-1.00208e+07 1.82601e+07 8.11436e+06
-3.34332e+06 -1.38646e+07 -1.98496e+06
-2.71251e+06 1.85314e+07 1.08132e+07
5.7862e+06 -2.76509e+07 -130730
6.03519e+06 1.66536e+07 -403903
9.40568e+06 -9.66883e+06 -1.9126e+06
1.06817e+07 1.12496e+07 7.34701e+06
1.65047e+07 -6.43862e+06 2.66532e+06
1.32803e+07 -368347 4.95993e+06
9.39087e+06 8.64833e+06 1.54392e+06
9.12417e+06 -1.05726e+07 -397540
3.1439e+06 2.25303e+07 286565
4.85158e+06 -1.37764e+07 -2.66679e+06
-2.12797e+06 4.19659e+06 -389397
-1.16678e+07 -1.40663e+07 1.71843e+06
-1.49118e+07 8.45596e+06 -931301
-3.88675e+06 -217924 -5.69221e+06
-3.9431e+06 2.26782e+06 1.09848e+06
-1.58911e+06 -2.55049e+06 -3.03186e+06
-1.87788e+06 3.61575e+06 -6.21278e+06
-814558 6.03574e+06 2.08907e+06
-1.74667e+06 -1.13419e+07 19641
-6.27146e+06 523577 -7.41927e+06
-1.3204e+06 984660 -1.22145e+06
-9.52548e+06 2.53349e+06 3.15239e+06
-9.76528e+06 4.35724e+06 -1.28318e+06
-1.34379e+07 -1.04373e+06 279989
-1.07699e+07 -9.14456e+06 -9.18498e+06
4.03729e+06 9.96287e+06 7.16933e+06
5.55216e+06 -1.29301e+07 -7.85816e+06
8.77617e+06 1.39727e+07 9.51116e+06
9.10164e+06 -7.81749e+06 -7.64425e+06
-592710 -4.53077e+06 267355
-8.66583e+06 -1.8307e+06 -3.55153e+06
-1.3536e+07 1.79427e+06 1.03304e+07
-8.39859e+06 -1.85472e+06 -3.54247e+06
-1.28735e+07 4.86605e+06 392075
-1.45724e+07 -164155 -6.25609e+06
-9.39444e+06 -2.03729e+06 9.02832e+06
-6.25842e+06 6.32529e+06 -2.54393e+06
-5.90456e+06 -2.33168e+06 4.04842e+06
-3.24658e+06 -2.48402e+06 4.60478e+06
6.38432e+06 620458 5.34863e+06
-550841 1.31385e+07 -2.28164e+06
-4.3461e+06 -1.96337e+07 1.51596e+06
-1.84416e+06 1.61162e+07 1.19638e+07
-2.44002e+06 -8.54082e+06 -8.748e+06
-435795 1.29081e+07 2.49247e+06
9.78151e+06 -1.91463e+07 -2.96219e+06
1.24604e+07 1.7606e+07 1.13366e+07
0 0 0
0 0 0
-2.86078e+06 -3.58936e+06 120351
1.3565e+06 -1.46871e+06 -2.13078e+06
6.62369e+06 3.37087e+06 -4.07831e+06
-6.41216e+06 1.35252e+07 -1.22504e+06
1.3264e+07 1.66075e+07 -6.98898e+06
-7.32266e+06 1.31577e+07 2.83348e+06
-4.9487e+06 2.07346e+06 -6.03516e+06
9.26683e+06 -4.81236e+06 4.7104e+06
-1.36878e+07 -9.10763e+06 -6.13746e+06
1.50354e+07 -9.58392e+06 5.48385e+06
-1.90788e+07 -8.7113e+06 -6.01814e+06
1.89935e+07 -9.5338e+06 4.84058e+06
-1.23756e+07 -1.36893e+07 -8.32726e+06
1.89523e+07 -1.29634e+07 4.0962e+06
-1.50648e+07 -1.42239e+07 -1.1041e+07
2.0147e+07 -1.54758e+07 5.26826e+06
-1.59751e+07 -5.58751e+06 -1.14153e+07
8.4052e+06 -9.42309e+06 3.45635e+06
-3.91981e+06 -2.83666e+06 -6.96448e+06
862039 4.78745e+06 3.87404e+06
-2.06727e+06 8.97536e+06 -1.4215e+06
2.76695e+06 8.29042e+06 2.89964e+06
-3.25978e+06 3.25063e+06 1.40546e+06
-649048 -1.37915e+06 3.32505e+06
-3.36178e+06 -935764 3.93103e+06
-1.84923e+06 5.62095e+06 2.78528e+06
435144 1.68774e+07 4.46928e+06
893308 1.57139e+07 1.71337e+06
5.79891e+06 1.36391e+07 -1.33483e+06
-5.12561e+06 1.1619e+07 955357
2.08299e+06 5.0431e+06 1.58068e+06
2.5957e+06 -230631 -3.06934e+06
-1.59524e+07 -3.7354e+06 5.79428e+06
1.54668e+07 208814 -3.12102e+06
-1.39103e+07 -3.90687e+06 2.49363e+06
1.27533e+07 6.24647e+06 -4.64338e+06
-1.15619e+07 6.82236e+06 1.89691e+06
5.60463e+06 8.7259e+06 -3.30304e+06
-8.87524e+06 3.16259e+06 4.27238e+06
5.26498e+06 -4.53292e+06 -611979
-3.0507e+06 -6.12516e+06 4.0481e+06
-3.41115e+06 -7.97921e+06 54620.9
7.24979e+06 -6.5379e+06 3.60171e+06
-4.59172e+06 143171 1.56951e+06
7.98452e+06 -3.0469e+06 3.35735e+06
972945 -4.31993e+06 3.80931e+06
-6.71117e+06 -2.71058e+06 4.0642e+06
781216 525843 788737
3.26488e+06 -5.58236e+06 4.06521e+06
-3.65742e+06 -1.14353e+06 2.36581e+06
151204 5.03273e+06 8.45793e+06
5.89169e+06 1.06073e+07 4.85754e+06
-1.10523e+07 1.56981e+07 6.27694e+06
7.47376e+06 2.03822e+07 1.77263e+06
-2.19699e+06 1.90769e+07 1.07825e+07
2.11112e+06 1.55282e+07 -1.03695e+06
-4.46919e+06 8.86878e+06 1.24526e+07
1.10722e+07 1.22505e+06 -1.51345e+06
-1.88947e+07 -4.55614e+06 8.91544e+06
2.60815e+07 -2.73039e+06 -1.58929e+06
-1.73911e+07 -4.27386e+06 9.36505e+06
7.49236e+06 -5.20549e+06 1.63125e+06
-621356 -4.50947e+06 1.17997e+07
-929451 -6.48585e+06 1.46427e+06
4.91122e+06 3.05063e+06 8.94494e+06
-410825 -775479 -770636
-2.07086e+06 1.08733e+06 8.0357e+06
7.58472e+06 3.03994e+06 357535
-5.01757e+06 4.86565e+06 8.07012e+06
9.52654e+06 3.36091e+06 -624421
-8.28617e+06 -3.03875e+06 1.0113e+07
1.37948e+07 -4.85328e+06 -2.98759e+06
-1.9766e+07 -1.64798e+07 5.45992e+06
2.33712e+07 -1.30799e+07 -4.53461e+06
-1.74238e+07 -9.524e+06 4.09068e+06
8.29591e+06 -8.25327e+06 -7.42142e+06
-3.04699e+06 -1.04632e+07 3.06113e+06
-2.77766e+06 -8.03634e+06 -9.77712e+06
-1.65849e+06 -7.82968e+06 -735191
8.25335e+06 -1.67614e+07 -5.38817e+06
-6.11148e+06 -5.68652e+06 -629578
875858 2.14299e+06 -2.15928e+06
9.89372e+06 5.66359e+06 1.91548e+06
-2.21117e+07 1.22664e+07 -915755
1.33867e+07 9.67452e+06 5.7383e+06
-3.42409e+06 3.13104e+06 125287
-4.51975e+06 -6.78226e+06 8.07132e+06
2.09647e+06 -6.34568e+06 245962
650764 1.53526e+06 3.81661e+06
-9.16815e+06 1.52815e+07 -1.08526e+06
1.25812e+07 1.45649e+07 668066
-1.26762e+07 1.49445e+07 2.3235e+06
1.61762e+07 -1.53759e+07 -734458
1.49818e+07 9.29458e+06 2.76353e+06
0 0 0
0 0 0
4.68741e+06 -5.21253e+06 4.65992e+06
3.61545e+06 -1.80287e+06 3.49863e+06
-113140 9.16893e+06 -3.14633e+06
963329 -2.11887e+07 9.11e+06
-7.01196e+06 2.85755e+07 2.08436e+06
-5.72532e+06 -2.06794e+07 2.26242e+06
-2.28849e+06 2.82737e+07 -246038
-1.26198e+07 -1.8692e+07 5.19885e+06
-2.00147e+07 1.90814e+07 1.02083e+07
-1.5518e+07 -2.90464e+07 1.39826e+06
-1.3839e+07 2.42054e+07 1.40171e+07
-1.05527e+07 -2.38522e+07 -1.49247e+06
-1.28853e+07 1.63917e+07 1.48204e+07
-1.262e+07 -6.6514e+06 -562961
-1.30198e+07 -8.33753e+06 1.33414e+07
-8.13798e+06 1.77966e+06 -1.75074e+06
-1.70657e+07 9.45062e+06 7.79064e+06
-1.30276e+07 -6.45105e+06 9.15808e+06
-1.39341e+07 8.50815e+06 1.23147e+07
-1.58976e+07 6.49258e+06 -1.27569e+06
-2.01972e+07 -8.07611e+06 1.16713e+07
-2.65572e+07 2.59968e+06 4.57598e+06
-2.61066e+07 -66458.4 1.01396e+07
-1.79297e+07 7.91766e+06 3.18439e+06
-1.03748e+07 -2.02623e+06 5.0582e+06
-1.20893e+07 -4.08764e+06 2.03795e+06
-1.7269e+07 3.81594e+06 2.39652e+06
-1.97501e+07 3.25842e+06 3.74633e+06
-1.78152e+07 -1.43548e+06 9.52596e+06
-2.06161e+07 6.82637e+06 -5.41171e+06
-1.1408e+07 4.74956e+06 1.17647e+07
-2.33501e+07 6.12246e+06 146675
-1.38243e+07 -2.39893e+06 8.43016e+06
-1.99075e+07 -3.13918e+06 -3.94038e+06
-1.10608e+07 1.25171e+07 1.40946e+07
-2.2494e+06 -9.704e+06 -132519
4.1167e+06 2.73626e+07 2.98369e+06
2.12127e+07 -2.41684e+07 765441
2.44824e+07 3.6545e+07 2.5871e+06
2.06101e+07 -2.9837e+07 -8.63607e+06
1.15836e+07 3.02311e+07 5.5374e+06
9.83242e+06 -2.59675e+07 -1.3949e+07
-34889.4 7.38592e+06 -758988
-1.96271e+06 -2.06467e+07 -8.20695e+06
-7.51631e+06 1.0217e+07 4.38442e+06
-1.1309e+07 -1.03638e+07 -4.18536e+06
-1.27333e+07 1.0078e+07 1.5339e+06
-5.85745e+06 -5.16606e+06 -5.07986e+06
-4.35881e+06 8.27402e+06 -1.21655e+06
-6.12743e+06 -4.14308e+06 -8.76783e+06
-1.07017e+07 1.24134e+06 -847660
-1.60124e+07 -2.49502e+06 -1.08598e+06
-6.56549e+06 -7.32748e+06 1.57829e+06
-5.18547e+06 5.16951e+06 2.06676e+06
-1.27245e+07 -6.08301e+06 -244030
-2.38099e+06 4.93098e+06 -1.45382e+06
1.43959e+07 -3.64184e+06 8.29969e+06
1.38262e+07 1.18334e+07 1.19291e+06
1.26362e+07 -6.5316e+06 -1.79342e+06
7.75877e+06 -158646 6.01742e+06
4.99769e+06 -448690 -3.79358e+06
5.76081e+06 -3.72117e+06 -214681
6.49869e+06 8.65645e+06 9.27682e+06
3.62484e+06 -8.8871e+06 301520
4.6852e+06 1.08844e+07 -4.15991e+06
9.68141e+06 -1.23e+07 2.69456e+06
5.06932e+06 -1.02526e+06 2.16666e+06
9.95271e+06 3.49213e+06 1.78165e+06
1.01765e+07 -6.31521e+06 560993
1.95288e+06 2.96093e+06 -6.55855e+06
-69038.2 8.70169e+06 3.1659e+06
-8.10997e+06 -1.28609e+07 -2.75833e+06
-1.60863e+07 6.88298e+06 6.41632e+06
-1.2885e+07 -216888 -7.38117e+06
-1.75219e+06 -3.60429e+06 -6.57662e+06
3.68746e+06 -1.00946e+06 -1.35776e+06
3.36449e+06 -542550 4.64423e+06
1.29197e+07 1.80123e+06 634875
1.19448e+07 -1.06365e+06 -1.25378e+06
2.90799e+06 584978 261893
-436805 880183 5.4581e+06
-302132 -875304 -1.54802e+06
1.85281e+06 -2.18921e+06 798545
-2.60733e+06 962444 4.70795e+06
-1.58627e+06 -771211 -2.34357e+06
-4.55071e+06 1.39038e+07 -3.04439e+06
6.22354e+06 -1.70444e+07 -2.362e+06
9.18744e+06 1.36485e+07 7.80359e+06
2.44896e+06 -1.16967e+07 -7.12412e+06
-1.00709e+06 1.75439e+07 462262
-1.19145e+06 -1.42147e+07 -4.23934e+06
-5.52959e+06 1.66919e+07 1.45128e+06
-4.13147e+06 -8.44011e+06 -6.79898e+06
0 0 0
0 0 0
-3.92503e+06 3.54696e+06 2.52555e+06
-950918 -2.23767e+06 1.91953e+06
7.76346e+06 -3.00846e+06 -761763
-6.41521e+06 -3.40374e+06 3.9353e+06
3.31015e+06 -1.22708e+07 -3.2911e+06
-1.19075e+07 -8.05946e+06 6.45406e+06
3.39326e+06 -4.99289e+06 -7.27185e+06
3.28774e+06 1.57708e+06 5.82803e+06
-8.4537e+06 2.11868e+06 -8.30928e+06
1.63958e+07 7.47369e+06 6.48497e+06
-2.25292e+07 2.82922e+06 -7.16956e+06
2.01217e+07 8.81259e+06 9.68279e+06
-2.02889e+07 8.61426e+06 -5.48019e+06
1.39045e+07 7.87797e+06 1.00845e+07
-2.0711e+07 8.86029e+06 -7.74e+06
1.67268e+07 4.04705e+06 1.01976e+07
-9.19904e+06 6.90105e+06 -1.01174e+07
-173564 8.28725e+06 6.75744e+06
1.22432e+06 9.14235e+06 -7.55199e+06
-3.20837e+06 -819402 5.76296e+06
6.43086e+06 -1.11809e+06 -7.01656e+06
-1.52888e+06 -1.16682e+06 345513
5.24093e+06 4.46233e+06 -6.66044e+06
2.47133e+06 1.07535e+07 296761
-1.31428e+06 1.32242e+07 -4.38959e+06
6.45435e+06 4.79418e+06 -694874
6.1024e+06 -4.02707e+06 -2.8716e+06
-4.93948e+06 -1.58392e+07 560482
-3.09096e+06 -2.01324e+07 -4.69522e+06
-219679 -1.21086e+07 -1.918e+06
-2.81366e+06 -7.1541e+06 -2.03684e+06
803419 -4.97072e+06 -3.99573e+06
-3.31359e+06 4.41479e+06 4.37802e+06
1.22779e+07 3.3775e+06 -1.49395e+06
-1.20009e+07 -215282 4.78913e+06
1.79798e+07 -2.75567e+06 -2.86943e+06
-9.30009e+06 -1.17476e+07 2.49345e+06
6.04561e+06 -1.21812e+07 -4.81692e+06
-6.5703e+06 -1.55445e+06 3.80686e+06
2.56774e+06 5.17177e+06 -3.31872e+06
-3.26084e+06 7.85236e+06 1.70645e+06
-2.53138e+06 1.15563e+07 -4.87055e+06
7.19304e+06 6.30946e+06 -2.39823e+06
-5.06815e+06 -2.65358e+06 -4.64262e+06
929908 -2.89425e+06 -2.20758e+06
1.57667e+06 -1.97756e+06 -3.16578e+06
-1.14572e+06 1.11165e+06 -3.18935e+06
3.28284e+06 1.11238e+07 -6.66686e+06
563824 5.79522e+06 -5.8773e+06
3.41645e+06 1.73486e+06 -9.55368e+06
-4.83674e+06 -2.19791e+06 -4.70798e+06
8.60531e+06 -8.53379e+06 -7.232e+06
-1.67662e+07 -6.6197e+06 -3.0239e+06
1.76131e+07 -1.69201e+07 -9.6755e+06
-8.25733e+06 -1.69323e+07 -486076
-3.80568e+06 -7.58036e+06 -1.5055e+07
-256713 -5.55064e+06 538410
6.48346e+06 -718339 -1.73821e+07
-1.19953e+07 5.7e+06 -1.09823e+06
1.50793e+07 6.7539e+06 -1.63923e+07
-1.76118e+07 2.59631e+06 1.91931e+06
1.3405e+07 8.27839e+06 -1.39715e+07
-1.11189e+07 -42568.9 5.25692e+06
7.73244e+06 -7.50596e+06 -1.30413e+07
-5.87625e+06 -1.07557e+07 4.52049e+06
-1.88191e+06 -9.24637e+06 -1.41701e+07
-4.34605e+06 -6.44354e+06 6.9759e+06
3.30194e+06 -1.1295e+07 -8.48488e+06
-5.50289e+06 -4.27697e+06 8.33617e+06
2.28447e+06 -5.01227e+06 -1.04635e+07
-3.1511e+06 623075 7.86213e+06
1.15758e+07 9.23403e+06 -9.26712e+06
-1.93604e+07 1.9892e+07 9.00872e+06
1.31518e+07 1.0226e+07 -6.78843e+06
-1.27455e+07 1.05914e+07 9.41352e+06
5.32431e+06 5.76525e+06 -7.29109e+06
-2.10002e+06 7.71074e+06 9.22271e+06
3.79739e+06 7.17335e+06 -8.11264e+06
-3.79343e+06 1.17601e+07 6.02579e+06
-1.81206e+06 9.19525e+06 -4.93261e+06
-2.86588e+06 3.43276e+06 5.42165e+06
1.49697e+06 -654385 -5.15836e+06
4.18982e+06 -1.18381e+07 4.52709e+06
-9.18623e+06 -1.31902e+07 -7.90557e+06
1.03101e+07 -1.25335e+06 3.87746e+06
-3.83688e+06 -1.5044e+06 -7.71848e+06
-6.95869e+06 1.02631e+07 6.46198e+06
3.81468e+06 6.01715e+06 -6.14297e+06
887172 -4.85088e+06 4.26957e+06
-4.29533e+06 -8.65647e+06 -3.57364e+06
1.72893e+06 -1.41811e+07 1.88718e+06
-1.25358e+07 -9.566e+06 -2.10966e+06
1.80027e+06 -8.07017e+06 155900
-5.3717e+06 -835108 -1.92862e+06
-8.84647e+06 2.00963e+06 -4.70681e+06
0 0 0
0 0 0
-4.50854e+06 -5.75432e+06 -2.62854e+06
5.76039e+06 5.10231e+06 3.84057e+06
-1.57534e+06 -3.02954e+06 -4.60463e+06
5.31831e+06 -1.37665e+07 4.74371e+06
7.43945e+06 1.75382e+07 -6.26143e+06
5.85211e+06 -1.75328e+07 -4.24482e+06
4.78199e+06 1.62516e+07 -8.16672e+06
822462 -2.03766e+07 -1.35416e+06
4.36903e+06 1.25586e+07 -2.51472e+06
4.49278e+06 -1.45057e+07 -1.02455e+07
1.17627e+06 1.97116e+07 -4.86222e+06
8.79423e+06 -1.59113e+07 -8.87075e+06
1.14241e+07 5.5588e+06 -2.46219e+06
7.85023e+06 3.03756e+06 -6.94562e+06
1.4521e+07 -1.17096e+07 -4.09511e+06
1.82075e+07 1.03651e+07 -5.15156e+06
1.42009e+07 2.28145e+06 -2.77344e+06
8.41314e+06 -6.5691e+06 -5.93581e+06
6.5121e+06 866024 -5.83134e+06
7.41877e+06 -252048 -9.42081e+06
2.45613e+07 -6.28114e+06 -1.28896e+06
2.46364e+07 -509388 -999058
2.3653e+07 1.50306e+06 -3.25907e+06
9.12873e+06 5.75052e+06 -9.44683e+06
174512 -698262 -1.0842e+07
1.59495e+07 4.35052e+06 -5.56519e+06
1.95252e+07 -2.08118e+06 -6.26029e+06
1.42747e+07 9.42076e+06 -4.60915e+06
1.49527e+07 -6.45631e+06 -5.01911e+06
1.72464e+07 1.47117e+07 -1.00251e+07
1.68134e+07 -1.39918e+07 -4.4519e+06
7.97863e+06 6.23548e+06 -7.6808e+06
1.65855e+07 -1.15244e+06 -6.17186e+06
1.70497e+07 244301 -9.25559e+06
1.19885e+07 1.16888e+07 1.58456e+06
4.93821e+06 -1.35371e+07 -4.20143e+06
-1.47127e+07 1.45815e+07 -3.04342e+06
-2.23175e+07 -2.83724e+07 -111877
-2.41556e+07 2.24713e+07 1.91805e+06
-2.57312e+07 -3.00265e+07 -2.66707e+06
-2.27298e+07 3.45191e+07 6.24516e+06
-1.12062e+07 -1.53751e+07 -5.07682e+06
546138 1.30357e+07 6.54541e+06
9.7517e+06 1.28799e+06 3.3666e+06
1.53084e+07 -991737 5.23082e+06
1.51031e+07 -6.32637e+06 3.79378e+06
1.13079e+07 -1.01482e+06 6.55487e+06
1.40578e+07 -373330 384403
4.84965e+06 4.70751e+06 4.70747e+06
6.5323e+06 -5.53597e+06 -720668
1.8059e+07 578863 1.42482e+06
7.69031e+06 -5.41716e+06 579020
4.90484e+06 7.50007e+06 -323093
5.48588e+06 -2.89402e+06 -138827
3.08433e+06 -3.26614e+06 -3.82709e+06
132076 -1.65615e+06 -2.34065e+06
-411739 -124033 1.49911e+06
-1.42367e+07 2.12747e+06 484328
-1.74461e+07 586324 383419
-8.21095e+06 -220054 2.1143e+06
-1.42636e+07 69688.5 1.28531e+06
-9.33461e+06 -8.09233e+06 -2.71681e+06
-7.66753e+06 1.3956e+07 3.99471e+06
-8.69482e+06 -1.45006e+07 125223
-1.06658e+07 7.23032e+06 -3.59383e+06
-1.59272e+07 -8.54649e+06 -1.99379e+06
-1.11504e+07 7.8606e+06 1.57156e+06
-6.17608e+06 8.9596e+06 760537
-4.71551e+06 -1.02862e+07 984496
-674146 7.6928e+06 -3.18447e+06
368503 5.84656e+06 5.46949e+06
9.07395e+06 -9.5277e+06 1.8402e+06
1.38642e+07 3.37807e+06 7.25908e+06
9.78295e+06 1.293e+06 426946
3.20658e+06 -6.14843e+06 -2.08387e+06
793636 5.08923e+06 1.0288e+06
1.95837e+06 470054 2.41478e+06
-1.85899e+06 4.03479e+06 880120
-6.84198e+06 -1.48699e+06 -4.48084e+06
298891 -906792 -1.56609e+06
2.55101e+06 1.98044e+06 -243412
6.44635e+06 370508 180212
5.2554e+06 -1.06712e+06 -5.1158e+06
1.24425e+06 276123 983045
4.9171e+06 -7.64086e+06 -5.56749e+06
-3.69477e+06 1.523e+07 -1.87381e+06
-4.96513e+06 -1.3563e+07 -5.22619e+06
-1.51153e+06 8.93076e+06 7.1279e+06
-145396 -9.02844e+06 -8.06431e+06
-2.89515e+06 7.71591e+06 2.07716e+06
79421 -1.62005e+07 -5.37427e+06
2.1286e+06 9.27588e+06 6.49316e+06
-3.54334e+06 -4.40323e+06 -2.60303e+06
-2.63701e+06 -3.13944e+06 669010
0 0 0
0 0 0
2.44174e+06 -1.7768e+06 2.03888e+06
-2.88401e+06 -1.60395e+06 386023
618521 2.60539e+06 -767506
-806779 2.69641e+06 1.41038e+06
-499240 3.16271e+06 -2.49943e+06
-1.40286e+06 6.15663e+06 3.25734e+06
5.04699e+06 3.75794e+06 -3.46611e+06
-1.67846e+06 605450 3.24495e+06
-2.77071e+06 -4.08431e+06 -5.00921e+06
7.46802e+06 -3.96107e+06 2.87168e+06
-1.56362e+07 -7.00897e+06 -4.74106e+06
1.927e+07 -6.69068e+06 3.7775e+06
-1.756e+07 -4.12219e+06 -4.4948e+06
1.33468e+07 -5.9939e+06 5.43212e+06
-9.40272e+06 -1.81819e+06 -4.61548e+06
6.85358e+06 -6.45219e+06 5.72758e+06
-3.75446e+06 -6.88946e+06 -5.57712e+06
7.18455e+06 -7.25923e+06 4.6435e+06
3.36726e+06 -7.61549e+06 -3.48274e+06
-3.3952e+06 -4.02233e+06 5.17155e+06
6.21664e+06 308026 -1.86449e+06
-5.19908e+06 -2.81279e+06 3.04262e+06
507943 -3.65233e+06 -2.8727e+06
745118 -4.42817e+06 1.52955e+06
-4.4656e+06 -9.46226e+06 -1.79916e+06
231196 -3.45103e+06 1.09735e+06
-1.68853e+06 1.34528e+06 -943214
-5.9809e+06 9.10341e+06 2.09909e+06
1.41752e+06 1.50265e+07 -1.85633e+06
1.25495e+06 5.8023e+06 1.66909e+06
-6.36141e+06 4.07442e+06 -1.79832e+06
1.04846e+06 2.15453e+06 -917248
-571729 574904 -548430
4.14351e+06 -1.66774e+06 -419202
-9.91255e+06 2.46835e+06 -1.08596e+06
9.56874e+06 1.15415e+06 -307777
-6.9783e+06 4.67815e+06 -1.5992e+06
4.27226e+06 6.54474e+06 -225227
3.55493e+06 2.57452e+06 -918657
-721752 -3.21179e+06 1.47812e+06
-1.79576e+06 -7.54727e+06 -522984
-3.42246e+06 -4.4096e+06 1.84152e+06
4.76835e+06 -5.92454e+06 -385726
-5.85438e+06 -458921 3.01465e+06
5.1273e+06 2.31241e+06 -295933
670282 -442971 3.4981e+06
-1.43321e+06 -4.445e+06 -1.34222e+06
1.88172e+06 -6.14611e+06 512294
-4.21136e+06 -5.25164e+06 -3.07288e+06
4.03021e+06 -3.52859e+06 -1.29362e+06
-1.59602e+06 5.36179e+06 -2.12877e+06
9.68775e+06 4.28617e+06 -757085
-1.53156e+07 1.20561e+07 -1.23594e+06
9.01909e+06 1.46561e+07 -3.68503e+06
-8.83926e+06 4.95381e+06 91925.3
-3.03224e+06 4.5531e+06 -6.68628e+06
-701658 -201063 1.1715e+06
3.46619e+06 -6.6838e+06 -6.67917e+06
-5.87387e+06 -2.85701e+06 1.79599e+06
1.45704e+07 -5.8742e+06 -5.28838e+06
-1.07838e+07 -6.25265e+06 2.58735e+06
1.12549e+07 -294420 -4.84833e+06
-1.23244e+07 -1.53312e+06 3.83675e+06
7.44857e+06 6.87576e+06 -4.49447e+06
-7.46761e+06 7.05848e+06 3.73178e+06
7.66585e+06 8.28901e+06 -5.84331e+06
-6.42739e+06 1.38109e+07 3.91341e+06
8.51513e+06 7.06247e+06 -4.65921e+06
-1.47356e+06 1.05863e+07 4.65946e+06
5.19518e+06 1.3081e+06 -5.24254e+06
-2.39611e+06 3.74327e+06 5.56118e+06
1.35319e+07 -9.83103e+06 -4.45342e+06
-1.20048e+07 -5.28095e+06 7.5596e+06
1.15232e+07 -4.64106e+06 -1.03851e+06
-5.3175e+06 -7.7019e+06 1.0386e+07
-193660 -5.78496e+06 -32566.3
3.5498e+06 -4.75825e+06 1.00862e+07
2.21796e+06 -8.68722e+06 -1.24373e+06
1.85628e+06 -5.36872e+06 8.049e+06
-853614 1.65251e+06 -205407
-4.8904e+06 -1.34145e+06 6.81051e+06
931847 4.22416e+06 -808844
-6.15906e+06 5.04899e+06 4.94071e+06
5.20965e+06 7.97923e+06 -3.42623e+06
2.63648e+06 4.64139e+06 4.7378e+06
6.54909e+06 4.99842e+06 -2.63417e+06
-2.85193e+06 2.76766e+06 6.11466e+06
951742 1.40775e+06 -2.63541e+06
-2.39778e+06 6.07848e+06 3.64854e+06
-1.05045e+06 3.68062e+06 -2.58154e+06
967756 3.40505e+06 573071
304667 1.53549e+07 -3.32423e+06
-281050 2.81633e+06 566.638
3.8884e+06 2.55637e+06 -4.15926e+06
-2.50451e+06 2.75451e+06 414019
-9.36726e+06 922075 73429.7
0 0 0
0 0 0
-1.36635e+06 -3.80184e+06 3.68041e+06
-3.54068e+06 1.30166e+07 1.63202e+06
-1.21991e+07 -7.04597e+06 -3.01217e+06
-184838 -1.63521e+06 1.81462e+06
-468850 9.46496e+06 -3.88479e+06
-119889 -1.31483e+07 -1.73503e+06
1.28598e+06 1.50425e+07 -3.68963e+06
-1.83739e+06 -9.60454e+06 -1.31329e+06
2.73243e+06 8.56368e+06 -2.18731e+06
1.25674e+07 -9.16267e+06 -8.02352e+06
5.04297e+06 3.33229e+06 -3.23208e+06
-2.6878e+06 -830730 -5.17507e+06
147501 -5.71208e+06 -1.88131e+06
-9.46953e+06 1.02529e+07 -2.91892e+06
-9.23802e+06 531393 -102514
-7.31455e+06 1.16943e+06 -2.91431e+06
-2.9346e+06 -3.89115e+06 -3.46042e+06
-1.12168e+06 -5.9605e+06 -417577
-259470 1.05031e+06 -8.45293e+06
-8.90454e+06 6.7034e+06 -6.7679e+06
-1.70042e+07 6.55654e+06 -2.58875e+06
-1.62878e+07 4.65194e+06 -3.92027e+06
-6.8645e+06 -4.41944e+06 2.51764e+06
2.29323e+06 1.99166e+06 -6.0623e+06
-2.55732e+06 -5.44521e+06 5.20047e+06
-4.42854e+06 4.63717e+06 -4.00665e+06
-9.89357e+06 -9.59146e+06 4.30047e+06
-8.25381e+06 5.12457e+06 -5.02496e+06
-1.28503e+07 -1.12275e+07 4.0576e+06
-1.42292e+07 3.81177e+06 -8.52513e+06
-8.71528e+06 -1.45944e+07 3.71989e+06
-3.72255e+06 2.8715e+06 -9.07968e+06
-9.26831e+06 985867 2.19824e+06
-1.24806e+07 -4.45111e+06 -9.09846e+06
-9.54227e+06 1.29878e+06 6.10053e+06
-2.89114e+06 -4.86069e+06 -6.95058e+06
7.84487e+06 1.16497e+07 736311
1.26602e+07 -1.30004e+07 -4.82328e+06
1.76044e+07 1.78859e+07 -2.06652e+06
1.66658e+07 -2.11156e+07 -1.57452e+06
1.42838e+07 1.39565e+07 -671548
6.1194e+06 -6.76737e+06 1.39244e+06
-1.98735e+06 7.07811e+06 2.79297e+06
-1.37252e+07 -597016 -791740
-1.44947e+07 -605355 -87662.4
-1.18597e+07 739164 -2.16325e+06
-1.66804e+07 -1.47742e+06 1.24308e+06
-6.9128e+06 1.67675e+06 -1.3992e+06
-9.95327e+06 -830865 1.4429e+06
-1.35257e+07 1.90868e+06 -3.16489e+06
-8.39612e+06 4.15387e+06 581193
-8.41488e+06 -8.68662e+06 -1.81151e+06
-6.53373e+06 6.62061e+06 -316804
-1.31724e+06 -4.02266e+06 -216479
883925 -692369 -119575
2.36367e+06 2.94939e+06 -3.54245e+06
7.00177e+06 2.04269e+06 2.82409e+06
5.42781e+06 -4.71454e+06 -1.19867e+06
7.9585e+06 973620 1.22603e+06
8.58426e+06 317209 2.32396e+06
4.20343e+06 4.45978e+06 681759
8.9437e+06 -1.20208e+07 -1.29301e+06
8.37111e+06 1.18101e+07 4.4643e+06
5.49636e+06 -1.10876e+07 -1.43732e+06
9.42938e+06 3.0262e+06 -406740
9.58154e+06 -1.15766e+06 415164
1.39856e+07 -1.6169e+06 961342
3.93996e+06 6.58704e+06 -492969
1.80362e+06 -6.28822e+06 780020
3.63529e+06 4.4886e+06 -3.11482e+06
-9.94529e+06 6.73413e+06 -97934.9
-1.05782e+07 -5.81697e+06 -1.29682e+06
-7.68246e+06 4.8447e+06 1.92306e+06
-5.22302e+06 1.03931e+06 -1.2487e+06
-3.05071e+06 -4.29774e+06 -2.98713e+06
-1.04368e+06 9.78346e+06 282277
2.34e+06 -5.54459e+06 -562692
4.77052e+06 -935860 589962
7.63858e+06 -2.10223e+06 -3.26752e+06
2.43746e+06 -3.5881e+06 2.39954e+06
-4.2302e+06 418015 283853
-2.79885e+06 -3.44135e+06 840242
-4.37584e+06 1.25026e+06 -2.47965e+06
-6.51471e+06 1.22297e+06 4.6211e+06
442483 -7.88104e+06 -1.78658e+06
-1.0088e+06 7.69329e+06 2.64936e+06
3.99155e+06 -6.14895e+06 -1.22506e+06
2.73399e+06 1.10202e+07 6.88786e+06
-298784 -4.39242e+06 -2.51474e+06
2.98025e+06 4.68906e+06 2.91984e+06
723780 -8.78295e+06 -2.06766e+06
1.86197e+06 4.352e+06 3.22263e+06
3.51553e+06 -8.94856e+06 -1.0752e+06
5.83987e+06 2.01463e+06 1.70812e+06
3.90677e+06 2.24648e+06 21878.9
0 0 0
0 0 0
0 0 0
0 0 0
0 0 0
0 0 0
0 0 0
0 0 0
0 0 0
0 0 0
0 0 0
0 0 0
0 0 0
0 0 0
0 0 0
0 0 0
0 0 0
0 0 0
0 0 0
0 0 0
0 0 0
0 0 0
0 0 0
0 0 0
0 0 0
0 0 0
0 0 0
0 0 0
0 0 0
0 0 0
0 0 0
0 0 0
0 0 0
0 0 0
0 0 0
0 0 0
0 0 0
0 0 0
0 0 0
0 0 0
0 0 0
0 0 0
0 0 0
0 0 0
0 0 0
0 0 0
0 0 0
0 0 0
0 0 0
0 0 0
0 0 0
0 0 0
0 0 0
0 0 0
0 0 0
0 0 0
0 0 0
0 0 0
0 0 0
0 0 0
0 0 0
0 0 0
0 0 0
0 0 0
0 0 0
0 0 0
0 0 0
0 0 0
0 0 0
0 0 0
0 0 0
0 0 0
0 0 0
0 0 0
0 0 0
0 0 0
0 0 0
0 0 0
0 0 0
0 0 0
0 0 0
0 0 0
0 0 0
0 0 0
0 0 0
0 0 0
0 0 0
0 0 0
0 0 0
0 0 0
0 0 0
0 0 0
0 0 0
0 0 0
0 0 0
0 0 0
0 0 0
2.33625e+06 -1.65265e+06 -125636
0 0 0
0 0 0
0 0 0
0 0 0
0 0 0
0 0 0
0 0 0
0 0 0
0 0 0
0 0 0
0 0 0
0 0 0
0 0 0
0 0 0
0 0 0
0 0 0
0 0 0
0 0 0
0 0 0
0 0 0
0 0 0
0 0 0
0 0 0
0 0 0
0 0 0
0 0 0
0 0 0
0 0 0
0 0 0
0 0 0
0 0 0
0 0 0
0 0 0
0 0 0
0 0 0
0 0 0
0 0 0
0 0 0
0 0 0
0 0 0
0 0 0
0 0 0
0 0 0
0 0 0
0 0 0
0 0 0
0 0 0
0 0 0
0 0 0
0 0 0
0 0 0
0 0 0
0 0 0
0 0 0
0 0 0
0 0 0
0 0 0
0 0 0
0 0 0
0 0 0
0 0 0
0 0 0
0 0 0
0 0 0
0 0 0
0 0 0
0 0 0
0 0 0
0 0 0
0 0 0
0 0 0
0 0 0
0 0 0
0 0 0
0 0 0
0 0 0
0 0 0
0 0 0
0 0 0
0 0 0
0 0 0
0 0 0
0 0 0
0 0 0
0 0 0
0 0 0
0 0 0
0 0 0
0 0 0
0 0 0
0 0 0
0 0 0
0 0 0
0 0 0
0 0 0
0 0 0
0 0 0
0 0 0
0 0 0
0 0 0
0 0 0
0 0 0
0 0 0
0 0 0
0 0 0
0 0 0
0 0 0
0 0 0
0 0 0
0 0 0
0 0 0
0 0 0
0 0 0
0 0 0
0 0 0
0 0 0
0 0 0
0 0 0
0 0 0
0 0 0
0 0 0
0 0 0
0 0 0
0 0 0
0 0 0
0 0 0
0 0 0
0 0 0
0 0 0
0 0 0
0 0 0
0 0 0
0 0 0
0 0 0
0 0 0
0 0 0
0 0 0
0 0 0
0 0 0
0 0 0
0 0 0
0 0 0
0 0 0
0 0 0
0 0 0
0 0 0
0 0 0
0 0 0
0 0 0
0 0 0
0 0 0
0 0 0
0 0 0
0 0 0
0 0 0
0 0 0
0 0 0
0 0 0
0 0 0
0 0 0
0 0 0
0 0 0
0 0 0
0 0 0
0 0 0
0 0 0
0 0 0
0 0 0
0 0 0
0 0 0
0 0 0
0 0 0
0 0 0
0 0 0
0 0 0
0 0 0
0 0 0
0 0 0
0 0 0
0 0 0
0 0 0
0 0 0
0 0 0
0 0 0
0 0 0
0 0 0
0 0 0
0 0 0
0 0 0
0 0 0
0 0 0
0 0 0
0 0 0
0 0 0
0 0 0
0 0 0
0 0 0
0 0 0
0 0 0
0 0 0
0 0 0
0 0 0
0 0 0
0 0 0
0 0 0
0 0 0
0 0 0
0 0 0
0 0 0
0 0 0
0 0 0
0 0 0
0 0 0
0 0 0
0 0 0
0 0 0
0 0 0
0 0 0
0 0 0
0 0 0
0 0 0
0 0 0
0 0 0
0 0 0
0 0 0
0 0 0
0 0 0
0 0 0
0 0 0
0 0 0
0 0 0
0 0 0
0 0 0
0 0 0
0 0 0
0 0 0
0 0 0
0 0 0
0 0 0
0 0 0
0 0 0
0 0 0
0 0 0
0 0 0
0 0 0
0 0 0
0 0 0
0 0 0
0 0 0
0 0 0
0 0 0
0 0 0
0 0 0
0 0 0
0 0 0
0 0 0
0 0 0
0 0 0
0 0 0
0 0 0
0 0 0
0 0 0
0 0 0
0 0 0
0 0 0
0 0 0
0 0 0
0 0 0
0 0 0
0 0 0
0 0 0
0 0 0
0 0 0
0 0 0
0 0 0
0 0 0
0 0 0
0 0 0
0 0 0
0 0 0
0 0 0
0 0 0
0 0 0
0 0 0
0 0 0
0 0 0
0 0 0
0 0 0
0 0 0
0 0 0
0 0 0
0 0 0
0 0 0
0 0 0
0 0 0
0 0 0
0 0 0
0 0 0
0 0 0
0 0 0
0 0 0
0 0 0
0 0 0
0 0 0
0 0 0
0 0 0
0 0 0
0 0 0
0 0 0
0 0 0
0 0 0
0 0 0
0 0 0
0 0 0
0 0 0
0 0 0
0 0 0
0 0 0
0 0 0
0 0 0
0 0 0
0 0 0
0 0 0
0 0 0
0 0 0
0 0 0
0 0 0
0 0 0
0 0 0
0 0 0
0 0 0
0 0 0
0 0 0
0 0 0
0 0 0
0 0 0
0 0 0
0 0 0
0 0 0
0 0 0
0 0 0
0 0 0
0 0 0
0 0 0
0 0 0
0 0 0
0 0 0
0 0 0
0 0 0
0 0 0
0 0 0
0 0 0
0 0 0
0 0 0
0 0 0
0 0 0
0 0 0
0 0 0
0 0 0
0 0 0
0 0 0
0 0 0
0 0 0
0 0 0
0 0 0
0 0 0
0 0 0
0 0 0
0 0 0
0 0 0
0 0 0
0 0 0
0 0 0
0 0 0
0 0 0
0 0 0
0 0 0
0 0 0
0 0 0
0 0 0
0 0 0
0 0 0
0 0 0
0 0 0
0 0 0
0 0 0
0 0 0
0 0 0
0 0 0
0 0 0
0 0 0
0 0 0
0 0 0
0 0 0
0 0 0
0 0 0
0 0 0
0 0 0
0 0 0
0 0 0
0 0 0
0 0 0
0 0 0
0 0 0
0 0 0
0 0 0
0 0 0
0 0 0
0 0 0
0 0 0
0 0 0
0 0 0
0 0 0
0 0 0
0 0 0
0 0 0
0 0 0
0 0 0
0 0 0
0 0 0
0 0 0
0 0 0
0 0 0
0 0 0
0 0 0
0 0 0
0 0 0
0 0 0
0 0 0
0 0 0
0 0 0
0 0 0
0 0 0
0 0 0
0 0 0
0 0 0
0 0 0
0 0 0
0 0 0
0 0 0
0 0 0
0 0 0
0 0 0
0 0 0
0 0 0
0 0 0
0 0 0
0 0 0
0 0 0
0 0 0
0 0 0
0 0 0
0 0 0
0 0 0
0 0 0
0 0 0
0 0 0
0 0 0
0 0 0
0 0 0
0 0 0
0 0 0
0 0 0
0 0 0
0 0 0
0 0 0
0 0 0
0 0 0
0 0 0
0 0 0
0 0 0
0 0 0
0 0 0
0 0 0
0 0 0
0 0 0
0 0 0
0 0 0
0 0 0
0 0 0
0 0 0
0 0 0
0 0 0
0 0 0
0 0 0
0 0 0
0 0 0
0 0 0
0 0 0
0 0 0
0 0 0
0 0 0
0 0 0
0 0 0
0 0 0
0 0 0
0 0 0
0 0 0
0 0 0
0 0 0
-4.22076e+07 -0.000287551 -12.2866
-4.22076e+07 -0.000287551 -12.2866
-4.22076e+07 -0.000287551 -12.2866
-4.22076e+07 -0.000287551 -12.2866
-4.22076e+07 -0.000287551 -12.2866
-4.22076e+07 -0.000287551 -12.2866
-4.22076e+07 -0.000287551 -12.2866
-4.22076e+07 -0.000287551 -12.2866
-4.22076e+07 -0.000287551 -12.2866
-4.22076e+07 -0.000287551 -12.2866
-4.22076e+07 -0.000287551 -12.2866
-4.22076e+07 -0.000287551 -12.2866
-4.22076e+07 -0.000287551 -12.2866
-4.22076e+07 -0.000287551 -12.2866
-4.22076e+07 -0.000287551 -12.2866
-4.22076e+07 -0.000287551 -12.2866
-4.22076e+07 -0.000287551 -12.2866
-4.22076e+07 -0.000287551 -12.2866
-4.22076e+07 -0.000287551 -12.2866
-4.22076e+07 -0.000287551 -12.2866
-4.22076e+07 -0.000287551 -12.2866
-4.22076e+07 -0.000287551 -12.2866
-4.22076e+07 -0.000287551 -12.2866
-4.22076e+07 -0.000287551 -12.2866
-4.22076e+07 -0.000287551 -12.2866
-4.22076e+07 -0.000287551 -12.2866
-4.22076e+07 -0.000287551 -12.2866
-4.22076e+07 -0.000287551 -12.2866
-4.22076e+07 -0.000287551 -12.2866
-4.22076e+07 -0.000287551 -12.2866
-4.22076e+07 -0.000287551 -12.2866
-4.22076e+07 -0.000287551 -12.2866
-4.22076e+07 -0.000287551 -12.2866
-4.22076e+07 -0.000287551 -12.2866
-4.22076e+07 -0.000287551 -12.2866
-4.22076e+07 -0.000287551 -12.2866
-4.22076e+07 -0.000287551 -12.2866

CELL_DATA 10061
SCALARS ELEMENT_ID int 1
LOOKUP_TABLE default
0
0
0
0
0
0
0
0
0
0
0
0
0
0
0
0
0
0
0
0
0
0
0
0
0
0
0
0
0
0
0
0
0
0
0
0
101
1
2
201
102
202
3
103
301
302
203
303
4
104
204
401
402
403
304
404
5
105
205
305
501
502
503
504
405
505
6
106
206
306
406
601
602
603
604
605
506
606
7
107
207
307
407
507
701
702
703
704
705
706
607
707
8
108
208
308
408
508
608
801
802
803
804
805
806
807
708
808
9
109
209
309
409
509
609
709
901
902
903
904
905
906
907
908
809
909
10
110
210
310
410
510
610
710
810
1001
1002
1003
1004
1005
1006
1007
1008
1009
910
1010
11
111
211
311
411
511
611
711
811
911
1101
1102
1103
1104
1105
1106
1107
1108
1109
1110
1011
1111
12
112
212
312
412
512
612
712
812
912
1012
1201
1202
1203
1204
1205
1206
1207
1208
1209
1210
1211
1112
1212
13
113
213
313
413
513
613
713
813
913
1013
1113
1301
1302
1303
1304
1305
1306
1307
1308
1309
1310
1311
1312
1213
1313
14
114
214
314
414
514
614
714
814
914
1014
1114
1214
1401
1402
1403
1404
1405
1406
1407
1408
1409
1410
1411
1412
1413
1314
1414
15
115
215
315
415
515
615
715
815
915
1015
1115
1215
1315
1501
1502
1503
1504
1505
1506
1507
1508
1509
1510
1511
1512
1513
1514
1415
1515
16
116
216
316
416
516
616
716
816
916
1016
1116
1216
1316
1416
1601
1602
1603
1604
1605
1606
1607
1608
1609
1610
1611
1612
1613
1614
1615
1516
1616
17
117
217
317
417
517
617
717
817
917
1017
1117
1217
1317
1417
1517
1701
1702
1703
1704
1705
1706
1707
1708
1709
1710
1711
1712
1713
1714
1715
1716
1617
1717
18
118
218
318
418
518
618
718
818
918
1018
1118
1218
1318
1418
1518
1618
1801
1802
1803
1804
1805
1806
1807
1808
1809
1810
1811
1812
1813
1814
1815
1816
1817
1718
1818
19
119
219
319
419
519
619
719
819
919
1019
1119
1219
1319
1419
1519
1619
1719
1901
1902
1903
1904
1905
1906
1907
1908
1909
1910
1911
1912
1913
1914
1915
1916
1917
1918
1819
1919
20
120
220
320
420
520
620
720
820
920
1020
1120
1220
1320
1420
1520
1620
1720
1820
2001
2002
2003
2004
2005
2006
2007
2008
2009
2010
2011
2012
2013
2014
2015
2016
2017
2018
2019
1920
2020
21
121
221
321
421
521
621
721
821
921
1021
1121
1221
1321
1421
1521
1621
1721
1821
1921
2101
2102
2103
2104
2105
2106
2107
2108
2109
2110
2111
2112
2113
2114
2115
2116
2117
2118
2119
2120
2021
2121
22
122
222
322
422
522
622
722
822
922
1022
1122
1222
1322
1422
1522
1622
1722
1822
1922
2022
2201
2202
2203
2204
2205
2206
2207
2208
2209
2210
2211
2212
2213
2214
2215
2216
2217
2218
2219
2220
2221
2122
2222
23
123
223
323
423
523
623
723
823
923
1023
1123
1223
1323
1423
1523
1623
1723
1823
1923
2023
2123
2301
2302
2303
2304
2305
2306
2307
2308
2309
2310
2311
2312
2313
2314
2315
2316
2317
2318
2319
2320
2321
2322
2223
2323
24
124
224
324
424
524
624
724
824
924
1024
1124
1224
1324
1424
1524
1624
1724
1824
1924
2024
2124
2224
2401
2402
2403
2404
2405
2406
2407
2408
2409
2410
2411
2412
2413
2414
2415
2416
2417
2418
2419
2420
2421
2422
2423
2324
2424
25
125
225
325
425
525
625
725
825
925
1025
1125
1225
1325
1425
1525
1625
1725
1825
1925
2025
2125
2225
2325
2501
2502
2503
2504
2505
2506
2507
2508
2509
2510
2511
2512
2513
2514
2515
2516
2517
2518
2519
2520
2521
2522
2523
2524
2425
2525
26
126
226
326
426
526
626
726
826
926
1026
1126
1226
1326
1426
1526
1626
1726
1826
1926
2026
2126
2226
2326
2426
2601
2602
2603
2604
2605
2606
2607
2608
2609
2610
2611
2612
2613
2614
2615
2616
2617
2618
2619
2620
2621
2622
2623
2624
2625
2526
2626
27
127
227
327
427
527
627
727
827
927
1027
1127
1227
1327
1427
1527
1627
1727
1827
1927
2027
2127
2227
2327
2427
2527
2701
2702
2703
2704
2705
2706
2707
2708
2709
2710
2711
2712
2713
2714
2715
2716
2717
2718
2719
2720
2721
2722
2723
2724
2725
2726
2627
2727
28
128
228
328
428
528
628
728
828
928
1028
1128
1228
1328
1428
1528
1628
1728
1828
1928
2028
2128
2228
2328
2428
2528
2628
2801
2802
2803
2804
2805
2806
2807
2808
2809
2810
2811
2812
2813
2814
2815
2816
2817
2818
2819
2820
2821
2822
2823
2824
2825
2826
2827
2728
2828
29
129
229
329
429
529
629
729
829
929
1029
1129
1229
1329
1429
1529
1629
1729
1829
1929
2029
2129
2229
2329
2429
2529
2629
2729
2901
2902
2903
2904
2905
2906
2907
2908
2909
2910
2911
2912
2913
2914
2915
2916
2917
2918
2919
2920
2921
2922
2923
2924
2925
2926
2927
2928
2829
2929
30
130
230
330
430
530
630
730
830
930
1030
1130
1230
1330
1430
1530
1630
1730
1830
1930
2030
2130
2230
2330
2430
2530
2630
2730
2830
3001
3002
3003
3004
3005
3006
3007
3008
3009
3010
3011
3012
3013
3014
3015
3016
3017
3018
3019
3020
3021
3022
3023
3024
3025
3026
3027
3028
3029
2930
3030
31
131
231
331
431
531
631
731
831
931
1031
1131
1231
1331
1431
1531
1631
1731
1831
1931
2031
2131
2231
2331
2431
2531
2631
2731
2831
2931
3101
3102
3103
3104
3105
3106
3107
3108
3109
3110
3111
3112
3113
3114
3115
3116
3117
3118
3119
3120
3121
3122
3123
3124
3125
3126
3127
3128
3129
3130
3031
3131
32
132
232
332
432
532
632
732
832
932
1032
1132
1232
1332
1432
1532
1632
1732
1832
1932
2032
2132
2232
2332
2432
2532
2632
2732
2832
2932
3032
3201
3202
3203
3204
3205
3206
3207
3208
3209
3210
3211
3212
3213
3214
3215
3216
3217
3218
3219
3220
3221
3222
3223
3224
3225
3226
3227
3228
3229
3230
3231
3132
3232
33
133
233
333
433
533
633
733
833
933
1033
1133
1233
1333
1433
1533
1633
1733
1833
1933
2033
2133
2233
2333
2433
2533
2633
2733
2833
2933
3033
3133
3301
3302
3303
3304
3305
3306
3307
3308
3309
3310
3311
3312
3313
3314
3315
3316
3317
3318
3319
3320
3321
3322
3323
3324
3325
3326
3327
3328
3329
3330
3331
3332
3233
3333
34
134
234
334
434
534
634
734
834
934
1034
1134
1234
1334
1434
1534
1634
1734
1834
1934
2034
2134
2234
2334
2434
2534
2634
2734
2834
2934
3034
3134
3234
3401
3402
3403
3404
3405
3406
3407
3408
3409
3410
3411
3412
3413
3414
3415
3416
3417
3418
3419
3420
3421
3422
3423
3424
3425
3426
3427
3428
3429
3430
3431
3432
3433
3334
3434
35
135
235
335
435
535
635
735
835
935
1035
1135
1235
1335
1435
1535
1635
1735
1835
1935
2035
2135
2235
2335
2435
2535
2635
2735
2835
2935
3035
3135
3235
3335
3501
3502
3503
3504
3505
3506
3507
3508
3509
3510
3511
3512
3513
3514
3515
3516
3517
3518
3519
3520
3521
3522
3523
3524
3525
3526
3527
3528
3529
3530
3531
3532
3533
3534
3435
3535
36
136
236
336
436
536
636
736
836
936
1036
1136
1236
1336
1436
1536
1636
1736
1836
1936
2036
2136
2236
2336
2436
2536
2636
2736
2836
2936
3036
3136
3236
3336
3436
3601
3602
3603
3604
3605
3606
3607
3608
3609
3610
3611
3612
3613
3614
3615
3616
3617
3618
3619
3620
3621
3622
3623
3624
3625
3626
3627
3628
3629
3630
3631
3632
3633
3634
3635
3536
3636
37
137
237
337
437
537
637
737
837
937
1037
1137
1237
1337
1437
1537
1637
1737
1837
1937
2037
2137
2237
2337
2437
2537
2637
2737
2837
2937
3037
3137
3237
3337
3437
3537
3701
3702
3703
3704
3705
3706
3707
3708
3709
3710
3711
3712
3713
3714
3715
3716
3717
3718
3719
3720
3721
3722
3723
3724
3725
3726
3727
3728
3729
3730
3731
3732
3733
3734
3735
3736
3637
3737
38
138
238
338
438
538
638
738
838
938
1038
1138
1238
1338
1438
1538
1638
1738
1838
1938
2038
2138
2238
2338
2438
2538
2638
2738
2838
2938
3038
3138
3238
3338
3438
3538
3638
3801
3802
3803
3804
3805
3806
3807
3808
3809
3810
3811
3812
3813
3814
3815
3816
3817
3818
3819
3820
3821
3822
3823
3824
3825
3826
3827
3828
3829
3830
3831
3832
3833
3834
3835
3836
3837
3738
3838
39
139
239
339
439
539
639
739
839
939
1039
1139
1239
1339
1439
1539
1639
1739
1839
1939
2039
2139
2239
2339
2439
2539
2639
2739
2839
2939
3039
3139
3239
3339
3439
3539
3639
3739
3901
3902
3903
3904
3905
3906
3907
3908
3909
3910
3911
3912
3913
3914
3915
3916
3917
3918
3919
3920
3921
3922
3923
3924
3925
3926
3927
3928
3929
3930
3931
3932
3933
3934
3935
3936
3937
3938
3839
3939
40
140
240
340
440
540
640
740
840
940
1040
1140
1240
1340
1440
1540
1640
1740
1840
1940
2040
2140
2240
2340
2440
2540
2640
2740
2840
2940
3040
3140
3240
3340
3440
3540
3640
3740
3840
4001
4002
4003
4004
4005
4006
4007
4008
4009
4010
4011
4012
4013
4014
4015
4016
4017
4018
4019
4020
4021
4022
4023
4024
4025
4026
4027
4028
4029
4030
4031
4032
4033
4034
4035
4036
4037
4038
4039
3940
4040
41
141
241
341
441
541
641
741
841
941
1041
1141
1241
1341
1441
1541
1641
1741
1841
1941
2041
2141
2241
2341
2441
2541
2641
2741
2841
2941
3041
3141
3241
3341
3441
3541
3641
3741
3841
3941
4101
4102
4103
4104
4105
4106
4107
4108
4109
4110
4111
4112
4113
4114
4115
4116
4117
4118
4119
4120
4121
4122
4123
4124
4125
4126
4127
4128
4129
4130
4131
4132
4133
4134
4135
4136
4137
4138
4139
4140
4041
4141
42
142
242
342
442
542
642
742
842
942
1042
1142
1242
1342
1442
1542
1642
1742
1842
1942
2042
2142
2242
2342
2442
2542
2642
2742
2842
2942
3042
3142
3242
3342
3442
3542
3642
3742
3842
3942
4042
4201
4202
4203
4204
4205
4206
4207
4208
4209
4210
4211
4212
4213
4214
4215
4216
4217
4218
4219
4220
4221
4222
4223
4224
4225
4226
4227
4228
4229
4230
4231
4232
4233
4234
4235
4236
4237
4238
4239
4240
4241
4142
4242
43
143
243
343
443
543
643
743
843
943
1043
1143
1243
1343
1443
1543
1643
1743
1843
1943
2043
2143
2243
2343
2443
2543
2643
2743
2843
2943
3043
3143
3243
3343
3443
3543
3643
3743
3843
3943
4043
4143
4301
4302
4303
4304
4305
4306
4307
4308
4309
4310
4311
4312
4313
4314
4315
4316
4317
4318
4319
4320
4321
4322
4323
4324
4325
4326
4327
4328
4329
4330
4331
4332
4333
4334
4335
4336
4337
4338
4339
4340
4341
4342
4243
4343
44
144
244
344
444
544
644
744
844
944
1044
1144
1244
1344
1444
1544
1644
1744
1844
1944
2044
2144
2244
2344
2444
2544
2644
2744
2844
2944
3044
3144
3244
3344
3444
3544
3644
3744
3844
3944
4044
4144
4244
4401
4402
4403
4404
4405
4406
4407
4408
4409
4410
4411
4412
4413
4414
4415
4416
4417
4418
4419
4420
4421
4422
4423
4424
4425
4426
4427
4428
4429
4430
4431
4432
4433
4434
4435
4436
4437
4438
4439
4440
4441
4442
4443
4344
4444
45
145
245
345
445
545
645
745
845
945
1045
1145
1245
1345
1445
1545
1645
1745
1845
1945
2045
2145
2245
2345
2445
2545
2645
2745
2845
2945
3045
3145
3245
3345
3445
3545
3645
3745
3845
3945
4045
4145
4245
4345
4501
4502
4503
4504
4505
4506
4507
4508
4509
4510
4511
4512
4513
4514
4515
4516
4517
4518
4519
4520
4521
4522
4523
4524
4525
4526
4527
4528
4529
4530
4531
4532
4533
4534
4535
4536
4537
4538
4539
4540
4541
4542
4543
4544
4445
4545
46
146
246
346
446
546
646
746
846
946
1046
1146
1246
1346
1446
1546
1646
1746
1846
1946
2046
2146
2246
2346
2446
2546
2646
2746
2846
2946
3046
3146
3246
3346
3446
3546
3646
3746
3846
3946
4046
4146
4246
4346
4446
4601
4602
4603
4604
4605
4606
4607
4608
4609
4610
4611
4612
4613
4614
4615
4616
4617
4618
4619
4620
4621
4622
4623
4624
4625
4626
4627
4628
4629
4630
4631
4632
4633
4634
4635
4636
4637
4638
4639
4640
4641
4642
4643
4644
4645
4546
4646
47
147
247
347
447
547
647
747
847
947
1047
1147
1247
1347
1447
1547
1647
1747
1847
1947
2047
2147
2247
2347
2447
2547
2647
2747
2847
2947
3047
3147
3247
3347
3447
3547
3647
3747
3847
3947
4047
4147
4247
4347
4447
4547
4701
4702
4703
4704
4705
4706
4707
4708
4709
4710
4711
4712
4713
4714
4715
4716
4717
4718
4719
4720
4721
4722
4723
4724
4725
4726
4727
4728
4729
4730
4731
4732
4733
4734
4735
4736
4737
4738
4739
4740
4741
4742
4743
4744
4745
4746
4647
4747
48
148
248
348
448
548
648
748
848
948
1048
1148
1248
1348
1448
1548
1648
1748
1848
1948
2048
2148
2248
2348
2448
2548
2648
2748
2848
2948
3048
3148
3248
3348
3448
3548
3648
3748
3848
3948
4048
4148
4248
4348
4448
4548
4648
4801
4802
4803
4804
4805
4806
4807
4808
4809
4810
4811
4812
4813
4814
4815
4816
4817
4818
4819
4820
4821
4822
4823
4824
4825
4826
4827
4828
4829
4830
4831
4832
4833
4834
4835
4836
4837
4838
4839
4840
4841
4842
4843
4844
4845
4846
4847
4748
4848
49
149
249
349
449
549
649
749
849
949
1049
1149
1249
1349
1449
1549
1649
1749
1849
1949
2049
2149
2249
2349
2449
2549
2649
2749
2849
2949
3049
3149
3249
3349
3449
3549
3649
3749
3849
3949
4049
4149
4249
4349
4449
4549
4649
4749
4901
4902
4903
4904
4905
4906
4907
4908
4909
4910
4911
4912
4913
4914
4915
4916
4917
4918
4919
4920
4921
4922
4923
4924
4925
4926
4927
4928
4929
4930
4931
4932
4933
4934
4935
4936
4937
4938
4939
4940
4941
4942
4943
4944
4945
4946
4947
4948
4849
4949
50
150
250
350
450
550
650
750
850
950
1050
1150
1250
1350
1450
1550
1650
1750
1850
1950
2050
2150
2250
2350
2450
2550
2650
2750
2850
2950
3050
3150
3250
3350
3450
3550
3650
3750
3850
3950
4050
4150
4250
4350
4450
4550
4650
4750
4850
5001
5002
5003
5004
5005
5006
5007
5008
5009
5010
5011
5012
5013
5014
5015
5016
5017
5018
5019
5020
5021
5022
5023
5024
5025
5026
5027
5028
5029
5030
5031
5032
5033
5034
5035
5036
5037
5038
5039
5040
5041
5042
5043
5044
5045
5046
5047
5048
5049
4950
5050
51
151
251
351
451
551
651
751
851
951
1051
1151
1251
1351
1451
1551
1651
1751
1851
1951
2051
2151
2251
2351
2451
2551
2651
2751
2851
2951
3051
3151
3251
3351
3451
3551
3651
3751
3851
3951
4051
4151
4251
4351
4451
4551
4651
4751
4851
4951
5101
5102
5103
5104
5105
5106
5107
5108
5109
5110
5111
5112
5113
5114
5115
5116
5117
5118
5119
5120
5121
5122
5123
5124
5125
5126
5127
5128
5129
5130
5131
5132
5133
5134
5135
5136
5137
5138
5139
5140
5141
5142
5143
5144
5145
5146
5147
5148
5149
5150
5051
5151
52
152
252
352
452
552
652
752
852
952
1052
1152
1252
1352
1452
1552
1652
1752
1852
1952
2052
2152
2252
2352
2452
2552
2652
2752
2852
2952
3052
3152
3252
3352
3452
3552
3652
3752
3852
3952
4052
4152
4252
4352
4452
4552
4652
4752
4852
4952
5052
5201
5202
5203
5204
5205
5206
5207
5208
5209
5210
5211
5212
5213
5214
5215
5216
5217
5218
5219
5220
5221
5222
5223
5224
5225
5226
5227
5228
5229
5230
5231
5232
5233
5234
5235
5236
5237
5238
5239
5240
5241
5242
5243
5244
5245
5246
5247
5248
5249
5250
5251
5152
5252
53
153
253
353
453
553
653
753
853
953
1053
1153
1253
1353
1453
1553
1653
1753
1853
1953
2053
2153
2253
2353
2453
2553
2653
2753
2853
2953
3053
3153
3253
3353
3453
3553
3653
3753
3853
3953
4053
4153
4253
4353
4453
4553
4653
4753
4853
4953
5053
5153
5301
5302
5303
5304
5305
5306
5307
5308
5309
5310
5311
5312
5313
5314
5315
5316
5317
5318
5319
5320
5321
5322
5323
5324
5325
5326
5327
5328
5329
5330
5331
5332
5333
5334
5335
5336
5337
5338
5339
5340
5341
5342
5343
5344
5345
5346
5347
5348
5349
5350
5351
5352
5253
5353
54
154
254
354
454
554
654
754
854
954
1054
1154
1254
1354
1454
1554
1654
1754
1854
1954
2054
2154
2254
2354
2454
2554
2654
2754
2854
2954
3054
3154
3254
3354
3454
3554
3654
3754
3854
3954
4054
4154
4254
4354
4454
4554
4654
4754
4854
4954
5054
5154
5254
5401
5402
5403
5404
5405
5406
5407
5408
5409
5410
5411
5412
5413
5414
5415
5416
5417
5418
5419
5420
5421
5422
5423
5424
5425
5426
5427
5428
5429
5430
5431
5432
5433
5434
5435
5436
5437
5438
5439
5440
5441
5442
5443
5444
5445
5446
5447
5448
5449
5450
5451
5452
5453
5354
5454
55
155
255
355
455
555
655
755
855
955
1055
1155
1255
1355
1455
1555
1655
1755
1855
1955
2055
2155
2255
2355
2455
2555
2655
2755
2855
2955
3055
3155
3255
3355
3455
3555
3655
3755
3855
3955
4055
4155
4255
4355
4455
4555
4655
4755
4855
4955
5055
5155
5255
5355
5501
5502
5503
5504
5505
5506
5507
5508
5509
5510
5511
5512
5513
5514
5515
5516
5517
5518
5519
5520
5521
5522
5523
5524
5525
5526
5527
5528
5529
5530
5531
5532
5533
5534
5535
5536
5537
5538
5539
5540
5541
5542
5543
5544
5545
5546
5547
5548
5549
5550
5551
5552
5553
5554
5455
5555
56
156
256
356
456
556
656
756
856
956
1056
1156
1256
1356
1456
1556
1656
1756
1856
1956
2056
2156
2256
2356
2456
2556
2656
2756
2856
2956
3056
3156
3256
3356
3456
3556
3656
3756
3856
3956
4056
4156
4256
4356
4456
4556
4656
4756
4856
4956
5056
5156
5256
5356
5456
5601
5602
5603
5604
5605
5606
5607
5608
5609
5610
5611
5612
5613
5614
5615
5616
5617
5618
5619
5620
5621
5622
5623
5624
5625
5626
5627
5628
5629
5630
5631
5632
5633
5634
5635
5636
5637
5638
5639
5640
5641
5642
5643
5644
5645
5646
5647
5648
5649
5650
5651
5652
5653
5654
5655
5556
5656
57
157
257
357
457
557
657
757
857
957
1057
1157
1257
1357
1457
1557
1657
1757
1857
1957
2057
2157
2257
2357
2457
2557
2657
2757
2857
2957
3057
3157
3257
3357
3457
3557
3657
3757
3857
3957
4057
4157
4257
4357
4457
4557
4657
4757
4857
4957
5057
5157
5257
5357
5457
5557
5701
5702
5703
5704
5705
5706
5707
5708
5709
5710
5711
5712
5713
5714
5715
5716
5717
5718
5719
5720
5721
5722
5723
5724
5725
5726
5727
5728
5729
5730
5731
5732
5733
5734
5735
5736
5737
5738
5739
5740
5741
5742
5743
5744
5745
5746
5747
5748
5749
5750
5751
5752
5753
5754
5755
5756
5657
5757
58
158
258
358
458
558
658
758
858
958
1058
1158
1258
1358
1458
1558
1658
1758
1858
1958
2058
2158
2258
2358
2458
2558
2658
2758
2858
2958
3058
3158
3258
3358
3458
3558
3658
3758
3858
3958
4058
4158
4258
4358
4458
4558
4658
4758
4858
4958
5058
5158
5258
5358
5458
5558
5658
5801
5802
5803
5804
5805
5806
5807
5808
5809
5810
5811
5812
5813
5814
5815
5816
5817
5818
5819
5820
5821
5822
5823
5824
5825
5826
5827
5828
5829
5830
5831
5832
5833
5834
5835
5836
5837
5838
5839
5840
5841
5842
5843
5844
5845
5846
5847
5848
5849
5850
5851
5852
5853
5854
5855
5856
5857
5758
5858
59
159
259
359
459
559
659
759
859
959
1059
1159
1259
1359
1459
1559
1659
1759
1859
1959
2059
2159
2259
2359
2459
2559
2659
2759
2859
2959
3059
3159
3259
3359
3459
3559
3659
3759
3859
3959
4059
4159
4259
4359
4459
4559
4659
4759
4859
4959
5059
5159
5259
5359
5459
5559
5659
5759
5901
5902
5903
5904
5905
5906
5907
5908
5909
5910
5911
5912
5913
5914
5915
5916
5917
5918
5919
5920
5921
5922
5923
5924
5925
5926
5927
5928
5929
5930
5931
5932
5933
5934
5935
5936
5937
5938
5939
5940
5941
5942
5943
5944
5945
5946
5947
5948
5949
5950
5951
5952
5953
5954
5955
5956
5957
5958
5859
5959
60
160
260
360
460
560
660
760
860
960
1060
1160
1260
1360
1460
1560
1660
1760
1860
1960
2060
2160
2260
2360
2460
2560
2660
2760
2860
2960
3060
3160
3260
3360
3460
3560
3660
3760
3860
3960
4060
4160
4260
4360
4460
4560
4660
4760
4860
4960
5060
5160
5260
5360
5460
5560
5660
5760
5860
6001
6002
6003
6004
6005
6006
6007
6008
6009
6010
6011
6012
6013
6014
6015
6016
6017
6018
6019
6020
6021
6022
6023
6024
6025
6026
6027
6028
6029
6030
6031
6032
6033
6034
6035
6036
6037
6038
6039
6040
6041
6042
6043
6044
6045
6046
6047
6048
6049
6050
6051
6052
6053
6054
6055
6056
6057
6058
6059
5960
6060
61
161
261
361
461
561
661
761
861
961
1061
1161
1261
1361
1461
1561
1661
1761
1861
1961
2061
2161
2261
2361
2461
2561
2661
2761
2861
2961
3061
3161
3261
3361
3461
3561
3661
3761
3861
3961
4061
4161
4261
4361
4461
4561
4661
4761
4861
4961
5061
5161
5261
5361
5461
5561
5661
5761
5861
5961
6101
6102
6103
6104
6105
6106
6107
6108
6109
6110
6111
6112
6113
6114
6115
6116
6117
6118
6119
6120
6121
6122
6123
6124
6125
6126
6127
6128
6129
6130
6131
6132
6133
6134
6135
6136
6137
6138
6139
6140
6141
6142
6143
6144
6145
6146
6147
6148
6149
6150
6151
6152
6153
6154
6155
6156
6157
6158
6159
6160
6061
6161
62
162
262
362
462
562
662
762
862
962
1062
1162
1262
1362
1462
1562
1662
1762
1862
1962
2062
2162
2262
2362
2462
2562
2662
2762
2862
2962
3062
3162
3262
3362
3462
3562
3662
3762
3862
3962
4062
4162
4262
4362
4462
4562
4662
4762
4862
4962
5062
5162
5262
5362
5462
5562
5662
5762
5862
5962
6062
6201
6202
6203
6204
6205
6206
6207
6208
6209
6210
6211
6212
6213
6214
6215
6216
6217
6218
6219
6220
6221
6222
6223
6224
6225
6226
6227
6228
6229
6230
6231
6232
6233
6234
6235
6236
6237
6238
6239
6240
6241
6242
6243
6244
6245
6246
6247
6248
6249
6250
6251
6252
6253
6254
6255
6256
6257
6258
6259
6260
6261
6162
6262
63
163
263
363
463
563
663
763
863
963
1063
1163
1263
1363
1463
1563
1663
1763
1863
1963
2063
2163
2263
2363
2463
2563
2663
2763
2863
2963
3063
3163
3263
3363
3463
3563
3663
3763
3863
3963
4063
4163
4263
4363
4463
4563
4663
4763
4863
4963
5063
5163
5263
5363
5463
5563
5663
5763
5863
5963
6063
6163
6301
6302
6303
6304
6305
6306
6307
6308
6309
6310
6311
6312
6313
6314
6315
6316
6317
6318
6319
6320
6321
6322
6323
6324
6325
6326
6327
6328
6329
6330
6331
6332
6333
6334
6335
6336
6337
6338
6339
6340
6341
6342
6343
6344
6345
6346
6347
6348
6349
6350
6351
6352
6353
6354
6355
6356
6357
6358
6359
6360
6361
6362
6263
6363
64
164
264
364
464
564
664
764
864
964
1064
1164
1264
1364
1464
1564
1664
1764
1864
1964
2064
2164
2264
2364
2464
2564
2664
2764
2864
2964
3064
3164
3264
3364
3464
3564
3664
3764
3864
3964
4064
4164
4264
4364
4464
4564
4664
4764
4864
4964
5064
5164
5264
5364
5464
5564
5664
5764
5864
5964
6064
6164
6264
6401
6402
6403
6404
6405
6406
6407
6408
6409
6410
6411
6412
6413
6414
6415
6416
6417
6418
6419
6420
6421
6422
6423
6424
6425
6426
6427
6428
6429
6430
6431
6432
6433
6434
6435
6436
6437
6438
6439
6440
6441
6442
6443
6444
6445
6446
6447
6448
6449
6450
6451
6452
6453
6454
6455
6456
6457
6458
6459
6460
6461
6462
6463
6364
6464
65
165
265
365
465
565
665
765
865
965
1065
1165
1265
1365
1465
1565
1665
1765
1865
1965
2065
2165
2265
2365
2465
2565
2665
2765
2865
2965
3065
3165
3265
3365
3465
3565
3665
3765
3865
3965
4065
4165
4265
4365
4465
4565
4665
4765
4865
4965
5065
5165
5265
5365
5465
5565
5665
5765
5865
5965
6065
6165
6265
6365
6501
6502
6503
6504
6505
6506
6507
6508
6509
6510
6511
6512
6513
6514
6515
6516
6517
6518
6519
6520
6521
6522
6523
6524
6525
6526
6527
6528
6529
6530
6531
6532
6533
6534
6535
6536
6537
6538
6539
6540
6541
6542
6543
6544
6545
6546
6547
6548
6549
6550
6551
6552
6553
6554
6555
6556
6557
6558
6559
6560
6561
6562
6563
6564
6465
6565
66
166
266
366
466
566
666
766
866
966
1066
1166
1266
1366
1466
1566
1666
1766
1866
1966
2066
2166
2266
2366
2466
2566
2666
2766
2866
2966
3066
3166
3266
3366
3466
3566
3666
3766
3866
3966
4066
4166
4266
4366
4466
4566
4666
4766
4866
4966
5066
5166
5266
5366
5466
5566
5666
5766
5866
5966
6066
6166
6266
6366
6466
6601
6602
6603
6604
6605
6606
6607
6608
6609
6610
6611
6612
6613
6614
6615
6616
6617
6618
6619
6620
6621
6622
6623
6624
6625
6626
6627
6628
6629
6630
6631
6632
6633
6634
6635
6636
6637
6638
6639
6640
6641
6642
6643
6644
6645
6646
6647
6648
6649
6650
6651
6652
6653
6654
6655
6656
6657
6658
6659
6660
6661
6662
6663
6664
6665
6566
6666
67
167
267
367
467
567
667
767
867
967
1067
1167
1267
1367
1467
1567
1667
1767
1867
1967
2067
2167
2267
2367
2467
2567
2667
2767
2867
2967
3067
3167
3267
3367
3467
3567
3667
3767
3867
3967
4067
4167
4267
4367
4467
4567
4667
4767
4867
4967
5067
5167
5267
5367
5467
5567
5667
5767
5867
5967
6067
6167
6267
6367
6467
6567
6701
6702
6703
6704
6705
6706
6707
6708
6709
6710
6711
6712
6713
6714
6715
6716
6717
6718
6719
6720
6721
6722
6723
6724
6725
6726
6727
6728
6729
6730
6731
6732
6733
6734
6735
6736
6737
6738
6739
6740
6741
6742
6743
6744
6745
6746
6747
6748
6749
6750
6751
6752
6753
6754
6755
6756
6757
6758
6759
6760
6761
6762
6763
6764
6765
6766
6667
6767
68
168
268
368
468
568
668
768
868
968
1068
1168
1268
1368
1468
1568
1668
1768
1868
1968
2068
2168
2268
2368
2468
2568
2668
2768
2868
2968
3068
3168
3268
3368
3468
3568
3668
3768
3868
3968
4068
4168
4268
4368
4468
4568
4668
4768
4868
4968
5068
5168
5268
5368
5468
5568
5668
5768
5868
5968
6068
6168
6268
6368
6468
6568
6668
6801
6802
6803
6804
6805
6806
6807
6808
6809
6810
6811
6812
6813
6814
6815
6816
6817
6818
6819
6820
6821
6822
6823
6824
6825
6826
6827
6828
6829
6830
6831
6832
6833
6834
6835
6836
6837
6838
6839
6840
6841
6842
6843
6844
6845
6846
6847
6848
6849
6850
6851
6852
6853
6854
6855
6856
6857
6858
6859
6860
6861
6862
6863
6864
6865
6866
6867
6768
6868
69
169
269
369
469
569
669
769
869
969
1069
1169
1269
1369
1469
1569
1669
1769
1869
1969
2069
2169
2269
2369
2469
2569
2669
2769
2869
2969
3069
3169
3269
3369
3469
3569
3669
3769
3869
3969
4069
4169
4269
4369
4469
4569
4669
4769
4869
4969
5069
5169
5269
5369
5469
5569
5669
5769
5869
5969
6069
6169
6269
6369
6469
6569
6669
6769
6901
6902
6903
6904
6905
6906
6907
6908
6909
6910
6911
6912
6913
6914
6915
6916
6917
6918
6919
6920
6921
6922
6923
6924
6925
6926
6927
6928
6929
6930
6931
6932
6933
6934
6935
6936
6937
6938
6939
6940
6941
6942
6943
6944
6945
6946
6947
6948
6949
6950
6951
6952
6953
6954
6955
6956
6957
6958
6959
6960
6961
6962
6963
6964
6965
6966
6967
6968
6869
6969
70
170
270
370
470
570
670
770
870
970
1070
1170
1270
1370
1470
1570
1670
1770
1870
1970
2070
2170
2270
2370
2470
2570
2670
2770
2870
2970
3070
3170
3270
3370
3470
3570
3670
3770
3870
3970
4070
4170
4270
4370
4470
4570
4670
4770
4870
4970
5070
5170
5270
5370
5470
5570
5670
5770
5870
5970
6070
6170
6270
6370
6470
6570
6670
6770
6870
7001
7002
7003
7004
7005
7006
7007
7008
7009
7010
7011
7012
7013
7014
7015
7016
7017
7018
7019
7020
7021
7022
7023
7024
7025
7026
7027
7028
7029
7030
7031
7032
7033
7034
7035
7036
7037
7038
7039
7040
7041
7042
7043
7044
7045
7046
7047
7048
7049
7050
7051
7052
7053
7054
7055
7056
7057
7058
7059
7060
7061
7062
7063
7064
7065
7066
7067
7068
7069
6970
7070
71
171
271
371
471
571
671
771
871
971
1071
1171
1271
1371
1471
1571
1671
1771
1871
1971
2071
2171
2271
2371
2471
2571
2671
2771
2871
2971
3071
3171
3271
3371
3471
3571
3671
3771
3871
3971
4071
4171
4271
4371
4471
4571
4671
4771
4871
4971
5071
5171
5271
5371
5471
5571
5671
5771
5871
5971
6071
6171
6271
6371
6471
6571
6671
6771
6871
6971
7101
7102
7103
7104
7105
7106
7107
7108
7109
7110
7111
7112
7113
7114
7115
7116
7117
7118
7119
7120
7121
7122
7123
7124
7125
7126
7127
7128
7129
7130
7131
7132
7133
7134
7135
7136
7137
7138
7139
7140
7141
7142
7143
7144
7145
7146
7147
7148
7149
7150
7151
7152
7153
7154
7155
7156
7157
7158
7159
7160
7161
7162
7163
7164
7165
7166
7167
7168
7169
7170
7071
7171
72
172
272
372
472
572
672
772
872
972
1072
1172
1272
1372
1472
1572
1672
1772
1872
1972
2072
2172
2272
2372
2472
2572
2672
2772
2872
2972
3072
3172
3272
3372
3472
3572
3672
3772
3872
3972
4072
4172
4272
4372
4472
4572
4672
4772
4872
4972
5072
5172
5272
5372
5472
5572
5672
5772
5872
5972
6072
6172
6272
6372
6472
6572
6672
6772
6872
6972
7072
7201
7202
7203
7204
7205
7206
7207
7208
7209
7210
7211
7212
7213
7214
7215
7216
7217
7218
7219
7220
7221
7222
7223
7224
7225
7226
7227
7228
7229
7230
7231
7232
7233
7234
7235
7236
7237
7238
7239
7240
7241
7242
7243
7244
7245
7246
7247
7248
7249
7250
7251
7252
7253
7254
7255
7256
7257
7258
7259
7260
7261
7262
7263
7264
7265
7266
7267
7268
7269
7270
7271
7172
7272
73
173
273
373
473
573
673
773
873
973
1073
1173
1273
1373
1473
1573
1673
1773
1873
1973
2073
2173
2273
2373
2473
2573
2673
2773
2873
2973
3073
3173
3273
3373
3473
3573
3673
3773
3873
3973
4073
4173
4273
4373
4473
4573
4673
4773
4873
4973
5073
5173
5273
5373
5473
5573
5673
5773
5873
5973
6073
6173
6273
6373
6473
6573
6673
6773
6873
6973
7073
7173
7301
7302
7303
7304
7305
7306
7307
7308
7309
7310
7311
7312
7313
7314
7315
7316
7317
7318
7319
7320
7321
7322
7323
7324
7325
7326
7327
7328
7329
7330
7331
7332
7333
7334
7335
7336
7337
7338
7339
7340
7341
7342
7343
7344
7345
7346
7347
7348
7349
7350
7351
7352
7353
7354
7355
7356
7357
7358
7359
7360
7361
7362
7363
7364
7365
7366
7367
7368
7369
7370
7371
7372
7273
7373
74
174
274
374
474
574
674
774
874
974
1074
1174
1274
1374
1474
1574
1674
1774
1874
1974
2074
2174
2274
2374
2474
2574
2674
2774
2874
2974
3074
3174
3274
3374
3474
3574
3674
3774
3874
3974
4074
4174
4274
4374
4474
4574
4674
4774
4874
4974
5074
5174
5274
5374
5474
5574
5674
5774
5874
5974
6074
6174
6274
6374
6474
6574
6674
6774
6874
6974
7074
7174
7274
7401
7402
7403
7404
7405
7406
7407
7408
7409
7410
7411
7412
7413
7414
7415
7416
7417
7418
7419
7420
7421
7422
7423
7424
7425
7426
7427
7428
7429
7430
7431
7432
7433
7434
7435
7436
7437
7438
7439
7440
7441
7442
7443
7444
7445
7446
7447
7448
7449
7450
7451
7452
7453
7454
7455
7456
7457
7458
7459
7460
7461
7462
7463
7464
7465
7466
7467
7468
7469
7470
7471
7472
7473
7374
7474
75
175
275
375
475
575
675
775
875
975
1075
1175
1275
1375
1475
1575
1675
1775
1875
1975
2075
2175
2275
2375
2475
2575
2675
2775
2875
2975
3075
3175
3275
3375
3475
3575
3675
3775
3875
3975
4075
4175
4275
4375
4475
4575
4675
4775
4875
4975
5075
5175
5275
5375
5475
5575
5675
5775
5875
5975
6075
6175
6275
6375
6475
6575
6675
6775
6875
6975
7075
7175
7275
7375
7501
7502
7503
7504
7505
7506
7507
7508
7509
7510
7511
7512
7513
7514
7515
7516
7517
7518
7519
7520
7521
7522
7523
7524
7525
7526
7527
7528
7529
7530
7531
7532
7533
7534
7535
7536
7537
7538
7539
7540
7541
7542
7543
7544
7545
7546
7547
7548
7549
7550
7551
7552
7553
7554
7555
7556
7557
7558
7559
7560
7561
7562
7563
7564
7565
7566
7567
7568
7569
7570
7571
7572
7573
7574
7475
7575
76
176
276
376
476
576
676
776
876
976
1076
1176
1276
1376
1476
1576
1676
1776
1876
1976
2076
2176
2276
2376
2476
2576
2676
2776
2876
2976
3076
3176
3276
3376
3476
3576
3676
3776
3876
3976
4076
4176
4276
4376
4476
4576
4676
4776
4876
4976
5076
5176
5276
5376
5476
5576
5676
5776
5876
5976
6076
6176
6276
6376
6476
6576
6676
6776
6876
6976
7076
7176
7276
7376
7476
7601
7602
7603
7604
7605
7606
7607
7608
7609
7610
7611
7612
7613
7614
7615
7616
7617
7618
7619
7620
7621
7622
7623
7624
7625
7626
7627
7628
7629
7630
7631
7632
7633
7634
7635
7636
7637
7638
7639
7640
7641
7642
7643
7644
7645
7646
7647
7648
7649
7650
7651
7652
7653
7654
7655
7656
7657
7658
7659
7660
7661
7662
7663
7664
7665
7666
7667
7668
7669
7670
7671
7672
7673
7674
7675
7576
7676
77
177
277
377
477
577
677
777
877
977
1077
1177
1277
1377
1477
1577
1677
1777
1877
1977
2077
2177
2277
2377
2477
2577
2677
2777
2877
2977
3077
3177
3277
3377
3477
3577
3677
3777
3877
3977
4077
4177
4277
4377
4477
4577
4677
4777
4877
4977
5077
5177
5277
5377
5477
5577
5677
5777
5877
5977
6077
6177
6277
6377
6477
6577
6677
6777
6877
6977
7077
7177
7277
7377
7477
7577
7701
7702
7703
7704
7705
7706
7707
7708
7709
7710
7711
7712
7713
7714
7715
7716
7717
7718
7719
7720
7721
7722
7723
7724
7725
7726
7727
7728
7729
7730
7731
7732
7733
7734
7735
7736
7737
7738
7739
7740
7741
7742
7743
7744
7745
7746
7747
7748
7749
7750
7751
7752
7753
7754
7755
7756
7757
7758
7759
7760
7761
7762
7763
7764
7765
7766
7767
7768
7769
7770
7771
7772
7773
7774
7775
7776
7677
7777
78
178
278
378
478
578
678
778
878
978
1078
1178
1278
1378
1478
1578
1678
1778
1878
1978
2078
2178
2278
2378
2478
2578
2678
2778
2878
2978
3078
3178
3278
3378
3478
3578
3678
3778
3878
3978
4078
4178
4278
4378
4478
4578
4678
4778
4878
4978
5078
5178
5278
5378
5478
5578
5678
5778
5878
5978
6078
6178
6278
6378
6478
6578
6678
6778
6878
6978
7078
7178
7278
7378
7478
7578
7678
7801
7802
7803
7804
7805
7806
7807
7808
7809
7810
7811
7812
7813
7814
7815
7816
7817
7818
7819
7820
7821
7822
7823
7824
7825
7826
7827
7828
7829
7830
7831
7832
7833
7834
7835
7836
7837
7838
7839
7840
7841
7842
7843
7844
7845
7846
7847
7848
7849
7850
7851
7852
7853
7854
7855
7856
7857
7858
7859
7860
7861
7862
7863
7864
7865
7866
7867
7868
7869
7870
7871
7872
7873
7874
7875
7876
7877
7778
7878
79
179
279
379
479
579
679
779
879
979
1079
1179
1279
1379
1479
1579
1679
1779
1879
1979
2079
2179
2279
2379
2479
2579
2679
2779
2879
2979
3079
3179
3279
3379
3479
3579
3679
3779
3879
3979
4079
4179
4279
4379
4479
4579
4679
4779
4879
4979
5079
5179
5279
5379
5479
5579
5679
5779
5879
5979
6079
6179
6279
6379
6479
6579
6679
6779
6879
6979
7079
7179
7279
7379
7479
7579
7679
7779
7901
7902
7903
7904
7905
7906
7907
7908
7909
7910
7911
7912
7913
7914
7915
7916
7917
7918
7919
7920
7921
7922
7923
7924
7925
7926
7927
7928
7929
7930
7931
7932
7933
7934
7935
7936
7937
7938
7939
7940
7941
7942
7943
7944
7945
7946
7947
7948
7949
7950
7951
7952
7953
7954
7955
7956
7957
7958
7959
7960
7961
7962
7963
7964
7965
7966
7967
7968
7969
7970
7971
7972
7973
7974
7975
7976
7977
7978
7879
7979
80
180
280
380
480
580
680
780
880
980
1080
1180
1280
1380
1480
1580
1680
1780
1880
1980
2080
2180
2280
2380
2480
2580
2680
2780
2880
2980
3080
3180
3280
3380
3480
3580
3680
3780
3880
3980
4080
4180
4280
4380
4480
4580
4680
4780
4880
4980
5080
5180
5280
5380
5480
5580
5680
5780
5880
5980
6080
6180
6280
6380
6480
6580
6680
6780
6880
6980
7080
7180
7280
7380
7480
7580
7680
7780
7880
8001
8002
8003
8004
8005
8006
8007
8008
8009
8010
8011
8012
8013
8014
8015
8016
8017
8018
8019
8020
8021
8022
8023
8024
8025
8026
8027
8028
8029
8030
8031
8032
8033
8034
8035
8036
8037
8038
8039
8040
8041
8042
8043
8044
8045
8046
8047
8048
8049
8050
8051
8052
8053
8054
8055
8056
8057
8058
8059
8060
8061
8062
8063
8064
8065
8066
8067
8068
8069
8070
8071
8072
8073
8074
8075
8076
8077
8078
8079
7980
8080
81
181
281
381
481
581
681
781
881
981
1081
1181
1281
1381
1481
1581
1681
1781
1881
1981
2081
2181
2281
2381
2481
2581
2681
2781
2881
2981
3081
3181
3281
3381
3481
3581
3681
3781
3881
3981
4081
4181
4281
4381
4481
4581
4681
4781
4881
4981
5081
5181
5281
5381
5481
5581
5681
5781
5881
5981
6081
6181
6281
6381
6481
6581
6681
6781
6881
6981
7081
7181
7281
7381
7481
7581
7681
7781
7881
7981
8101
8102
8103
8104
8105
8106
8107
8108
8109
8110
8111
8112
8113
8114
8115
8116
8117
8118
8119
8120
8121
8122
8123
8124
8125
8126
8127
8128
8129
8130
8131
8132
8133
8134
8135
8136
8137
8138
8139
8140
8141
8142
8143
8144
8145
8146
8147
8148
8149
8150
8151
8152
8153
8154
8155
8156
8157
8158
8159
8160
8161
8162
8163
8164
8165
8166
8167
8168
8169
8170
8171
8172
8173
8174
8175
8176
8177
8178
8179
8180
8081
8181
82
182
282
382
482
582
682
782
882
982
1082
1182
1282
1382
1482
1582
1682
1782
1882
1982
2082
2182
2282
2382
2482
2582
2682
2782
2882
2982
3082
3182
3282
3382
3482
3582
3682
3782
3882
3982
4082
4182
4282
4382
4482
4582
4682
4782
4882
4982
5082
5182
5282
5382
5482
5582
5682
5782
5882
5982
6082
6182
6282
6382
6482
6582
6682
6782
6882
6982
7082
7182
7282
7382
7482
7582
7682
7782
7882
7982
8082
8201
8202
8203
8204
8205
8206
8207
8208
8209
8210
8211
8212
8213
8214
8215
8216
8217
8218
8219
8220
8221
8222
8223
8224
8225
8226
8227
8228
8229
8230
8231
8232
8233
8234
8235
8236
8237
8238
8239
8240
8241
8242
8243
8244
8245
8246
8247
8248
8249
8250
8251
8252
8253
8254
8255
8256
8257
8258
8259
8260
8261
8262
8263
8264
8265
8266
8267
8268
8269
8270
8271
8272
8273
8274
8275
8276
8277
8278
8279
8280
8281
8182
8282
83
183
283
383
483
583
683
783
883
983
1083
1183
1283
1383
1483
1583
1683
1783
1883
1983
2083
2183
2283
2383
2483
2583
2683
2783
2883
2983
3083
3183
3283
3383
3483
3583
3683
3783
3883
3983
4083
4183
4283
4383
4483
4583
4683
4783
4883
4983
5083
5183
5283
5383
5483
5583
5683
5783
5883
5983
6083
6183
6283
6383
6483
6583
6683
6783
6883
6983
7083
7183
7283
7383
7483
7583
7683
7783
7883
7983
8083
8183
8301
8302
8303
8304
8305
8306
8307
8308
8309
8310
8311
8312
8313
8314
8315
8316
8317
8318
8319
8320
8321
8322
8323
8324
8325
8326
8327
8328
8329
8330
8331
8332
8333
8334
8335
8336
8337
8338
8339
8340
8341
8342
8343
8344
8345
8346
8347
8348
8349
8350
8351
8352
8353
8354
8355
8356
8357
8358
8359
8360
8361
8362
8363
8364
8365
8366
8367
8368
8369
8370
8371
8372
8373
8374
8375
8376
8377
8378
8379
8380
8381
8382
8283
8383
84
184
284
384
484
584
684
784
884
984
1084
1184
1284
1384
1484
1584
1684
1784
1884
1984
2084
2184
2284
2384
2484
2584
2684
2784
2884
2984
3084
3184
3284
3384
3484
3584
3684
3784
3884
3984
4084
4184
4284
4384
4484
4584
4684
4784
4884
4984
5084
5184
5284
5384
5484
5584
5684
5784
5884
5984
6084
6184
6284
6384
6484
6584
6684
6784
6884
6984
7084
7184
7284
7384
7484
7584
7684
7784
7884
7984
8084
8184
8284
8401
8402
8403
8404
8405
8406
8407
8408
8409
8410
8411
8412
8413
8414
8415
8416
8417
8418
8419
8420
8421
8422
8423
8424
8425
8426
8427
8428
8429
8430
8431
8432
8433
8434
8435
8436
8437
8438
8439
8440
8441
8442
8443
8444
8445
8446
8447
8448
8449
8450
8451
8452
8453
8454
8455
8456
8457
8458
8459
8460
8461
8462
8463
8464
8465
8466
8467
8468
8469
8470
8471
8472
8473
8474
8475
8476
8477
8478
8479
8480
8481
8482
8483
8384
8484
85
185
285
385
485
585
685
785
885
985
1085
1185
1285
1385
1485
1585
1685
1785
1885
1985
2085
2185
2285
2385
2485
2585
2685
2785
2885
2985
3085
3185
3285
3385
3485
3585
3685
3785
3885
3985
4085
4185
4285
4385
4485
4585
4685
4785
4885
4985
5085
5185
5285
5385
5485
5585
5685
5785
5885
5985
6085
6185
6285
6385
6485
6585
6685
6785
6885
6985
7085
7185
7285
7385
7485
7585
7685
7785
7885
7985
8085
8185
8285
8385
8501
8502
8503
8504
8505
8506
8507
8508
8509
8510
8511
8512
8513
8514
8515
8516
8517
8518
8519
8520
8521
8522
8523
8524
8525
8526
8527
8528
8529
8530
8531
8532
8533
8534
8535
8536
8537
8538
8539
8540
8541
8542
8543
8544
8545
8546
8547
8548
8549
8550
8551
8552
8553
8554
8555
8556
8557
8558
8559
8560
8561
8562
8563
8564
8565
8566
8567
8568
8569
8570
8571
8572
8573
8574
8575
8576
8577
8578
8579
8580
8581
8582
8583
8584
8485
8585
86
186
286
386
486
586
686
786
886
986
1086
1186
1286
1386
1486
1586
1686
1786
1886
1986
2086
2186
2286
2386
2486
2586
2686
2786
2886
2986
3086
3186
3286
3386
3486
3586
3686
3786
3886
3986
4086
4186
4286
4386
4486
4586
4686
4786
4886
4986
5086
5186
5286
5386
5486
5586
5686
5786
5886
5986
6086
6186
6286
6386
6486
6586
6686
6786
6886
6986
7086
7186
7286
7386
7486
7586
7686
7786
7886
7986
8086
8186
8286
8386
8486
8601
8602
8603
8604
8605
8606
8607
8608
8609
8610
8611
8612
8613
8614
8615
8616
8617
8618
8619
8620
8621
8622
8623
8624
8625
8626
8627
8628
8629
8630
8631
8632
8633
8634
8635
8636
8637
8638
8639
8640
8641
8642
8643
8644
8645
8646
8647
8648
8649
8650
8651
8652
8653
8654
8655
8656
8657
8658
8659
8660
8661
8662
8663
8664
8665
8666
8667
8668
8669
8670
8671
8672
8673
8674
8675
8676
8677
8678
8679
8680
8681
8682
8683
8684
8685
8586
8686
87
187
287
387
487
587
687
787
887
987
1087
1187
1287
1387
1487
1587
1687
1787
1887
1987
2087
2187
2287
2387
2487
2587
2687
2787
2887
2987
3087
3187
3287
3387
3487
3587
3687
3787
3887
3987
4087
4187
4287
4387
4487
4587
4687
4787
4887
4987
5087
5187
5287
5387
5487
5587
5687
5787
5887
5987
6087
6187
6287
6387
6487
6587
6687
6787
6887
6987
7087
7187
7287
7387
7487
7587
7687
7787
7887
7987
8087
8187
8287
8387
8487
8587
8701
8702
8703
8704
8705
8706
8707
8708
8709
8710
8711
8712
8713
8714
8715
8716
8717
8718
8719
8720
8721
8722
8723
8724
8725
8726
8727
8728
8729
8730
8731
8732
8733
8734
8735
8736
8737
8738
8739
8740
8741
8742
8743
8744
8745
8746
8747
8748
8749
8750
8751
8752
8753
8754
8755
8756
8757
8758
8759
8760
8761
8762
8763
8764
8765
8766
8767
8768
8769
8770
8771
8772
8773
8774
8775
8776
8777
8778
8779
8780
8781
8782
8783
8784
8785
8786
8687
8787
88
188
288
388
488
588
688
788
888
988
1088
1188
1288
1388
1488
1588
1688
1788
1888
1988
2088
2188
2288
2388
2488
2588
2688
2788
2888
2988
3088
3188
3288
3388
3488
3588
3688
3788
3888
3988
4088
4188
4288
4388
4488
4588
4688
4788
4888
4988
5088
5188
5288
5388
5488
5588
5688
5788
5888
5988
6088
6188
6288
6388
6488
6588
6688
6788
6888
6988
7088
7188
7288
7388
7488
7588
7688
7788
7888
7988
8088
8188
8288
8388
8488
8588
8688
8801
8802
8803
8804
8805
8806
8807
8808
8809
8810
8811
8812
8813
8814
8815
8816
8817
8818
8819
8820
8821
8822
8823
8824
8825
8826
8827
8828
8829
8830
8831
8832
8833
8834
8835
8836
8837
8838
8839
8840
8841
8842
8843
8844
8845
8846
8847
8848
8849
8850
8851
8852
8853
8854
8855
8856
8857
8858
8859
8860
8861
8862
8863
8864
8865
8866
8867
8868
8869
8870
8871
8872
8873
8874
8875
8876
8877
8878
8879
8880
8881
8882
8883
8884
8885
8886
8887
8788
8888
89
189
289
389
489
589
689
789
889
989
1089
1189
1289
1389
1489
1589
1689
1789
1889
1989
2089
2189
2289
2389
2489
2589
2689
2789
2889
2989
3089
3189
3289
3389
3489
3589
3689
3789
3889
3989
4089
4189
4289
4389
4489
4589
4689
4789
4889
4989
5089
5189
5289
5389
5489
5589
5689
5789
5889
5989
6089
6189
6289
6389
6489
6589
6689
6789
6889
6989
7089
7189
7289
7389
7489
7589
7689
7789
7889
7989
8089
8189
8289
8389
8489
8589
8689
8789
8901
8902
8903
8904
8905
8906
8907
8908
8909
8910
8911
8912
8913
8914
8915
8916
8917
8918
8919
8920
8921
8922
8923
8924
8925
8926
8927
8928
8929
8930
8931
8932
8933
8934
8935
8936
8937
8938
8939
8940
8941
8942
8943
8944
8945
8946
8947
8948
8949
8950
8951
8952
8953
8954
8955
8956
8957
8958
8959
8960
8961
8962
8963
8964
8965
8966
8967
8968
8969
8970
8971
8972
8973
8974
8975
8976
8977
8978
8979
8980
8981
8982
8983
8984
8985
8986
8987
8988
8889
8989
90
190
290
390
490
590
690
790
890
990
1090
1190
1290
1390
1490
1590
1690
1790
1890
1990
2090
2190
2290
2390
2490
2590
2690
2790
2890
2990
3090
3190
3290
3390
3490
3590
3690
3790
3890
3990
4090
4190
4290
4390
4490
4590
4690
4790
4890
4990
5090
5190
5290
5390
5490
5590
5690
5790
5890
5990
6090
6190
6290
6390
6490
6590
6690
6790
6890
6990
7090
7190
7290
7390
7490
7590
7690
7790
7890
7990
8090
8190
8290
8390
8490
8590
8690
8790
8890
9001
9002
9003
9004
9005
9006
9007
9008
9009
9010
9011
9012
9013
9014
9015
9016
9017
9018
9019
9020
9021
9022
9023
9024
9025
9026
9027
9028
9029
9030
9031
9032
9033
9034
9035
9036
9037
9038
9039
9040
9041
9042
9043
9044
9045
9046
9047
9048
9049
9050
9051
9052
9053
9054
9055
9056
9057
9058
9059
9060
9061
9062
9063
9064
9065
9066
9067
9068
9069
9070
9071
9072
9073
9074
9075
9076
9077
9078
9079
9080
9081
9082
9083
9084
9085
9086
9087
9088
9089
8990
9090
91
191
291
391
491
591
691
791
891
991
1091
1191
1291
1391
1491
1591
1691
1791
1891
1991
2091
2191
2291
2391
2491
2591
2691
2791
2891
2991
3091
3191
3291
3391
3491
3591
3691
3791
3891
3991
4091
4191
4291
4391
4491
4591
4691
4791
4891
4991
5091
5191
5291
5391
5491
5591
5691
5791
5891
5991
6091
6191
6291
6391
6491
6591
6691
6791
6891
6991
7091
7191
7291
7391
7491
7591
7691
7791
7891
7991
8091
8191
8291
8391
8491
8591
8691
8791
8891
8991
9101
9102
9103
9104
9105
9106
9107
9108
9109
9110
9111
9112
9113
9114
9115
9116
9117
9118
9119
9120
9121
9122
9123
9124
9125
9126
9127
9128
9129
9130
9131
9132
9133
9134
9135
9136
9137
9138
9139
9140
9141
9142
9143
9144
9145
9146
9147
9148
9149
9150
9151
9152
9153
9154
9155
9156
9157
9158
9159
9160
9161
9162
9163
9164
9165
9166
9167
9168
9169
9170
9171
9172
9173
9174
9175
9176
9177
9178
9179
9180
9181
9182
9183
9184
9185
9186
9187
9188
9189
9190
9091
9191
92
192
292
392
492
592
692
792
892
992
1092
1192
1292
1392
1492
1592
1692
1792
1892
1992
2092
2192
2292
2392
2492
2592
2692
2792
2892
2992
3092
3192
3292
3392
3492
3592
3692
3792
3892
3992
4092
4192
4292
4392
4492
4592
4692
4792
4892
4992
5092
5192
5292
5392
5492
5592
5692
5792
5892
5992
6092
6192
6292
6392
6492
6592
6692
6792
6892
6992
7092
7192
7292
7392
7492
7592
7692
7792
7892
7992
8092
8192
8292
8392
8492
8592
8692
8792
8892
8992
9092
9201
9202
9203
9204
9205
9206
9207
9208
9209
9210
9211
9212
9213
9214
9215
9216
9217
9218
9219
9220
9221
9222
9223
9224
9225
9226
9227
9228
9229
9230
9231
9232
9233
9234
9235
9236
9237
9238
9239
9240
9241
9242
9243
9244
9245
9246
9247
9248
9249
9250
9251
9252
9253
9254
9255
9256
9257
9258
9259
9260
9261
9262
9263
9264
9265
9266
9267
9268
9269
9270
9271
9272
9273
9274
9275
9276
9277
9278
9279
9280
9281
9282
9283
9284
9285
9286
9287
9288
9289
9290
9291
9192
9292
93
193
293
393
493
593
693
793
893
993
1093
1193
1293
1393
1493
1593
1693
1793
1893
1993
2093
2193
2293
2393
2493
2593
2693
2793
2893
2993
3093
3193
3293
3393
3493
3593
3693
3793
3893
3993
4093
4193
4293
4393
4493
4593
4693
4793
4893
4993
5093
5193
5293
5393
5493
5593
5693
5793
5893
5993
6093
6193
6293
6393
6493
6593
6693
6793
6893
6993
7093
7193
7293
7393
7493
7593
7693
7793
7893
7993
8093
8193
8293
8393
8493
8593
8693
8793
8893
8993
9093
9193
9301
9302
9303
9304
9305
9306
9307
9308
9309
9310
9311
9312
9313
9314
9315
9316
9317
9318
9319
9320
9321
9322
9323
9324
9325
9326
9327
9328
9329
9330
9331
9332
9333
9334
9335
9336
9337
9338
9339
9340
9341
9342
9343
9344
9345
9346
9347
9348
9349
9350
9351
9352
9353
9354
9355
9356
9357
9358
9359
9360
9361
9362
9363
9364
9365
9366
9367
9368
9369
9370
9371
9372
9373
9374
9375
9376
9377
9378
9379
9380
9381
9382
9383
9384
9385
9386
9387
9388
9389
9390
9391
9392
9293
9393
94
194
294
394
494
594
694
794
894
994
1094
1194
1294
1394
1494
1594
1694
1794
1894
1994
2094
2194
2294
2394
2494
2594
2694
2794
2894
2994
3094
3194
3294
3394
3494
3594
3694
3794
3894
3994
4094
4194
4294
4394
4494
4594
4694
4794
4894
4994
5094
5194
5294
5394
5494
5594
5694
5794
5894
5994
6094
6194
6294
6394
6494
6594
6694
6794
6894
6994
7094
7194
7294
7394
7494
7594
7694
7794
7894
7994
8094
8194
8294
8394
8494
8594
8694
8794
8894
8994
9094
9194
9294
9401
9402
9403
9404
9405
9406
9407
9408
9409
9410
9411
9412
9413
9414
9415
9416
9417
9418
9419
9420
9421
9422
9423
9424
9425
9426
9427
9428
9429
9430
9431
9432
9433
9434
9435
9436
9437
9438
9439
9440
9441
9442
9443
9444
9445
9446
9447
9448
9449
9450
9451
9452
9453
9454
9455
9456
9457
9458
9459
9460
9461
9462
9463
9464
9465
9466
9467
9468
9469
9470
9471
9472
9473
9474
9475
9476
9477
9478
9479
9480
9481
9482
9483
9484
9485
9486
9487
9488
9489
9490
9491
9492
9493
9394
9494
95
195
295
395
495
595
695
795
895
995
1095
1195
1295
1395
1495
1595
1695
1795
1895
1995
2095
2195
2295
2395
2495
2595
2695
2795
2895
2995
3095
3195
3295
3395
3495
3595
3695
3795
3895
3995
4095
4195
4295
4395
4495
4595
4695
4795
4895
4995
5095
5195
5295
5395
5495
5595
5695
5795
5895
5995
6095
6195
6295
6395
6495
6595
6695
6795
6895
6995
7095
7195
7295
7395
7495
7595
7695
7795
7895
7995
8095
8195
8295
8395
8495
8595
8695
8795
8895
8995
9095
9195
9295
9395
9501
9502
9503
9504
9505
9506
9507
9508
9509
9510
9511
9512
9513
9514
9515
9516
9517
9518
9519
9520
9521
9522
9523
9524
9525
9526
9527
9528
9529
9530
9531
9532
9533
9534
9535
9536
9537
9538
9539
9540
9541
9542
9543
9544
9545
9546
9547
9548
9549
9550
9551
9552
9553
9554
9555
9556
9557
9558
9559
9560
9561
9562
9563
9564
9565
9566
9567
9568
9569
9570
9571
9572
9573
9574
9575
9576
9577
9578
9579
9580
9581
9582
9583
9584
9585
9586
9587
9588
9589
9590
9591
9592
9593
9594
9495
9595
96
196
296
396
496
596
696
796
896
996
1096
1196
1296
1396
1496
1596
1696
1796
1896
1996
2096
2196
2296
2396
2496
2596
2696
2796
2896
2996
3096
3196
3296
3396
3496
3596
3696
3796
3896
3996
4096
4196
4296
4396
4496
4596
4696
4796
4896
4996
5096
5196
5296
5396
5496
5596
5696
5796
5896
5996
6096
6196
6296
6396
6496
6596
6696
6796
6896
6996
7096
7196
7296
7396
7496
7596
7696
7796
7896
7996
8096
8196
8296
8396
8496
8596
8696
8796
8896
8996
9096
9196
9296
9396
9496
9601
9602
9603
9604
9605
9606
9607
9608
9609
9610
9611
9612
9613
9614
9615
9616
9617
9618
9619
9620
9621
9622
9623
9624
9625
9626
9627
9628
9629
9630
9631
9632
9633
9634
9635
9636
9637
9638
9639
9640
9641
9642
9643
9644
9645
9646
9647
9648
9649
9650
9651
9652
9653
9654
9655
9656
9657
9658
9659
9660
9661
9662
9663
9664
9665
9666
9667
9668
9669
9670
9671
9672
9673
9674
9675
9676
9677
9678
9679
9680
9681
9682
9683
9684
9685
9686
9687
9688
9689
9690
9691
9692
9693
9694
9695
9596
9696
97
197
297
397
497
597
697
797
897
997
1097
1197
1297
1397
1497
1597
1697
1797
1897
1997
2097
2197
2297
2397
2497
2597
2697
2797
2897
2997
3097
3197
3297
3397
3497
3597
3697
3797
3897
3997
4097
4197
4297
4397
4497
4597
4697
4797
4897
4997
5097
5197
5297
5397
5497
5597
5697
5797
5897
5997
6097
6197
6297
6397
6497
6597
6697
6797
6897
6997
7097
7197
7297
7397
7497
7597
7697
7797
7897
7997
8097
8197
8297
8397
8497
8597
8697
8797
8897
8997
9097
9197
9297
9397
9497
9597
9701
9702
9703
9704
9705
9706
9707
9708
9709
9710
9711
9712
9713
9714
9715
9716
9717
9718
9719
9720
9721
9722
9723
9724
9725
9726
9727
9728
9729
9730
9731
9732
9733
9734
9735
9736
9737
9738
9739
9740
9741
9742
9743
9744
9745
9746
9747
9748
9749
9750
9751
9752
9753
9754
9755
9756
9757
9758
9759
9760
9761
9762
9763
9764
9765
9766
9767
9768
9769
9770
9771
9772
9773
9774
9775
9776
9777
9778
9779
9780
9781
9782
9783
9784
9785
9786
9787
9788
9789
9790
9791
9792
9793
9794
9795
9796
9697
9797
98
198
298
398
498
598
698
798
898
998
1098
1198
1298
1398
1498
1598
1698
1798
1898
1998
2098
2198
2298
2398
2498
2598
2698
2798
2898
2998
3098
3198
3298
3398
3498
3598
3698
3798
3898
3998
4098
4198
4298
4398
4498
4598
4698
4798
4898
4998
5098
5198
5298
5398
5498
5598
5698
5798
5898
5998
6098
6198
6298
6398
6498
6598
6698
6798
6898
6998
7098
7198
7298
7398
7498
7598
7698
7798
7898
7998
8098
8198
8298
8398
8498
8598
8698
8798
8898
8998
9098
9198
9298
9398
9498
9598
9698
9801
9802
9803
9804
9805
9806
9807
9808
9809
9810
9811
9812
9813
9814
9815
9816
9817
9818
9819
9820
9821
9822
9823
9824
9825
9826
9827
9828
9829
9830
9831
9832
9833
9834
9835
9836
9837
9838
9839
9840
9841
9842
9843
9844
9845
9846
9847
9848
9849
9850
9851
9852
9853
9854
9855
9856
9857
9858
9859
9860
9861
9862
9863
9864
9865
9866
9867
9868
9869
9870
9871
9872
9873
9874
9875
9876
9877
9878
9879
9880
9881
9882
9883
9884
9885
9886
9887
9888
9889
9890
9891
9892
9893
9894
9895
9896
9897
9798
9898
99
199
299
399
499
599
699
799
899
999
1099
1199
1299
1399
1499
1599
1699
1799
1899
1999
2099
2199
2299
2399
2499
2599
2699
2799
2899
2999
3099
3199
3299
3399
3499
3599
3699
3799
3899
3999
4099
4199
4299
4399
4499
4599
4699
4799
4899
4999
5099
5199
5299
5399
5499
5599
5699
5799
5899
5999
6099
6199
6299
6399
6499
6599
6699
6799
6899
6999
7099
7199
7299
7399
7499
7599
7699
7799
7899
7999
8099
8199
8299
8399
8499
8599
8699
8799
8899
8999
9099
9199
9299
9399
9499
9599
9699
9799
9901
9902
9903
9904
9905
9906
9907
9908
9909
9910
9911
9912
9913
9914
9915
9916
9917
9918
9919
9920
9921
9922
9923
9924
9925
9926
9927
9928
9929
9930
9931
9932
9933
9934
9935
9936
9937
9938
9939
9940
9941
9942
9943
9944
9945
9946
9947
9948
9949
9950
9951
9952
9953
9954
9955
9956
9957
9958
9959
9960
9961
9962
9963
9964
9965
9966
9967
9968
9969
9970
9971
9972
9973
9974
9975
9976
9977
9978
9979
9980
9981
9982
9983
9984
9985
9986
9987
9988
9989
9990
9991
9992
9993
9994
9995
9996
9997
9998
9899
9999
100
200
300
400
500
600
700
800
900
1000
1100
1200
1300
1400
1500
1600
1700
1800
1900
2000
2100
2200
2300
2400
2500
2600
2700
2800
2900
3000
3100
3200
3300
3400
3500
3600
3700
3800
3900
4000
4100
4200
4300
4400
4500
4600
4700
4800
4900
5000
5100
5200
5300
5400
5500
5600
5700
5800
5900
6000
6100
6200
6300
6400
6500
6600
6700
6800
6900
7000
7100
7200
7300
7400
7500
7600
7700
7800
7900
8000
8100
8200
8300
8400
8500
8600
8700
8800
8900
9000
9100
9200
9300
9400
9500
9600
9700
9800
9900
10000
10006
10001
10002
10011
10007
10012
10003
10008
10016
10017
10013
10018
10004
10009
10014
10021
10022
10023
10019
10024
10005
10010
10015
10020
10025

SCALARS PART_ID int 1
LOOKUP_TABLE default
100
100
100
100
100
100
100
100
100
100
100
100
100
100
100
100
100
100
100
100
100
100
100
100
100
100
100
100
100
100
100
100
100
100
100
100
1
1
1
1
1
1
1
1
1
1
1
1
1
1
1
1
1
1
1
1
1
1
1
1
1
1
1
1
1
1
1
1
1
1
1
1
1
1
1
1
1
1
1
1
1
1
1
1
1
1
1
1
1
1
1
1
1
1
1
1
1
1
1
1
1
1
1
1
1
1
1
1
1
1
1
1
1
1
1
1
1
1
1
1
1
1
1
1
1
1
1
1
1
1
1
1
1
1
1
1
1
1
1
1
1
1
1
1
1
1
1
1
1
1
1
1
1
1
1
1
1
1
1
1
1
1
1
1
1
1
1
1
1
1
1
1
1
1
1
1
1
1
1
1
1
1
1
1
1
1
1
1
1
1
1
1
1
1
1
1
1
1
1
1
1
1
1
1
1
1
1
1
1
1
1
1
1
1
1
1
1
1
1
1
1
1
1
1
1
1
1
1
1
1
1
1
1
1
1
1
1
1
1
1
1
1
1
1
1
1
1
1
1
1
1
1
1
1
1
1
1
1
1
1
1
1
1
1
1
1
1
1
1
1
1
1
1
1
1
1
1
1
1
1
1
1
1
1
1
1
1
1
1
1
1
1
1
1
1
1
1
1
1
1
1
1
1
1
1
1
1
1
1
1
1
1
1
1
1
1
1
1
1
1
1
1
1
1
1
1
1
1
1
1
1
1
1
1
1
1
1
1
1
1
1
1
1
1
1
1
1
1
1
1
1
1
1
1
1
1
1
1
1
1
1
1
1
1
1
1
1
1
1
1
1
1
1
1
1
1
1
1
1
1
1
1
1
1
1
1
1
1
1
1
1
1
1
1
1
1
1
1
1
1
1
1
1
1
1
1
1
1
1
1
1
1
1
1
1
1
1
1
1
1
1
1
1
1
1
1
1
1
1
1
1
1
1
1
1
1
1
1
1
1
1
1
1
1
1
1
1
1
1
1
1
1
1
1
1
1
1
1
1
1
1
1
1
1
1
1
1
1
1
1
1
1
1
1
1
1
1
1
1
1
1
1
1
1
1
1
1
1
1
1
1
1
1
1
1
1
1
1
1
1
1
1
1
1
1
1
1
1
1
1
1
1
1
1
1
1
1
1
1
1
1
1
1
1
1
1
1
1
1
1
1
1
1
1
1
1
1
1
1
1
1
1
1
1
1
1
1
1
1
1
1
1
1
1
1
1
1
1
1
1
1
1
1
1
1
1
1
1
1
1
1
1
1
1
1
1
1
1
1
1
1
1
1
1
1
1
1
1
1
1
1
1
1
1
1
1
1
1
1
1
1
1
1
1
1
1
1
1
1
1
1
1
1
1
1
1
1
1
1
1
1
1
1
1
1
1
1
1
1
1
1
1
1
1
1
1
1
1
1
1
1
1
1
1
1
1
1
1
1
1
1
1
1
1
1
1
1
1
1
1
1
1
1
1
1
1
1
1
1
1
1
1
1
1
1
1
1
1
1
1
1
1
1
1
1
1
1
1
1
1
1
1
1
1
1
1
1
1
1
1
1
1
1
1
1
1
1
1
1
1
1
1
1
1
1
1
1
1
1
1
1
1
1
1
1
1
1
1
1
1
1
1
1
1
1
1
1
1
1
1
1
1
1
1
1
1
1
1
1
1
1
1
1
1
1
1
1
1
1
1
1
1
1
1
1
1
1
1
1
1
1
1
1
1
1
1
1
1
1
1
1
1
1
1
1
1
1
1
1
1
1
1
1
1
1
1
1
1
1
1
1
1
1
1
1
1
1
1
1
1
1
1
1
1
1
1
1
1
1
1
1
1
1
1
1
1
1
1
1
1
1
1
1
1
1
1
1
1
1
1
1
1
1
1
1
1
1
1
1
1
1
1
1
1
1
1
1
1
1
1
1
1
1
1
1
1
1
1
1
1
1
1
1
1
1
1
1
1
1
1
1
1
1
1
1
1
1
1
1
1
1
1
1
1
1
1
1
1
1
1
1
1
1
1
1
1
1
1
1
1
1
1
1
1
1
1
1
1
1
1
1
1
1
1
1
1
1
1
1
1
1
1
1
1
1
1
1
1
1
1
1
1
1
1
1
1
1
1
1
1
1
1
1
1
1
1
1
1
1
1
1
1
1
1
1
1
1
1
1
1
1
1
1
1
1
1
1
1
1
1
1
1
1
1
1
1
1
1
1
1
1
1
1
1
1
1
1
1
1
1
1
1
1
1
1
1
1
1
1
1
1
1
1
1
1
1
1
1
1
1
1
1
1
1
1
1
1
1
1
1
1
1
1
1
1
1
1
1
1
1
1
1
1
1
1
1
1
1
1
1
1
1
1
1
1
1
1
1
1
1
1
1
1
1
1
1
1
1
1
1
1
1
1
1
1
1
1
1
1
1
1
1
1
1
1
1
1
1
1
1
1
1
1
1
1
1
1
1
1
1
1
1
1
1
1
1
1
1
1
1
1
1
1
1
1
1
1
1
1
1
1
1
1
1
1
1
1
1
1
1
1
1
1
1
1
1
1
1
1
1
1
1
1
1
1
1
1
1
1
1
1
1
1
1
1
1
1
1
1
1
1
1
1
1
1
1
1
1
1
1
1
1
1
1
1
1
1
1
1
1
1
1
1
1
1
1
1
1
1
1
1
1
1
1
1
1
1
1
1
1
1
1
1
1
1
1
1
1
1
1
1
1
1
1
1
1
1
1
1
1
1
1
1
1
1
1
1
1
1
1
1
1
1
1
1
1
1
1
1
1
1
1
1
1
1
1
1
1
1
1
1
1
1
1
1
1
1
1
1
1
1
1
1
1
1
1
1
1
1
1
1
1
1
1
1
1
1
1
1
1
1
1
1
1
1
1
1
1
1
1
1
1
1
1
1
1
1
1
1
1
1
1
1
1
1
1
1
1
1
1
1
1
1
1
1
1
1
1
1
1
1
1
1
1
1
1
1
1
1
1
1
1
1
1
1
1
1
1
1
1
1
1
1
1
1
1
1
1
1
1
1
1
1
1
1
1
1
1
1
1
1
1
1
1
1
1
1
1
1
1
1
1
1
1
1
1
1
1
1
1
1
1
1
1
1
1
1
1
1
1
1
1
1
1
1
1
1
1
1
1
1
1
1
1
1
1
1
1
1
1
1
1
1
1
1
1
1
1
1
1
1
1
1
1
1
1
1
1
1
1
1
1
1
1
1
1
1
1
1
1
1
1
1
1
1
1
1
1
1
1
1
1
1
1
1
1
1
1
1
1
1
1
1
1
1
1
1
1
1
1
1
1
1
1
1
1
1
1
1
1
1
1
1
1
1
1
1
1
1
1
1
1
1
1
1
1
1
1
1
1
1
1
1
1
1
1
1
1
1
1
1
1
1
1
1
1
1
1
1
1
1
1
1
1
1
1
1
1
1
1
1
1
1
1
1
1
1
1
1
1
1
1
1
1
1
1
1
1
1
1
1
1
1
1
1
1
1
1
1
1
1
1
1
1
1
1
1
1
1
1
1
1
1
1
1
1
1
1
1
1
1
1
1
1
1
1
1
1
1
1
1
1
1
1
1
1
1
1
1
1
1
1
1
1
1
1
1
1
1
1
1
1
1
1
1
1
1
1
1
1
1
1
1
1
1
1
1
1
1
1
1
1
1
1
1
1
1
1
1
1
1
1
1
1
1
1
1
1
1
1
1
1
1
1
1
1
1
1
1
1
1
1
1
1
1
1
1
1
1
1
1
1
1
1
1
1
1
1
1
1
1
1
1
1
1
1
1
1
1
1
1
1
1
1
1
1
1
1
1
1
1
1
1
1
1
1
1
1
1
1
1
1
1
1
1
1
1
1
1
1
1
1
1
1
1
1
1
1
1
1
1
1
1
1
1
1
1
1
1
1
1
1
1
1
1
1
1
1
1
1
1
1
1
1
1
1
1
1
1
1
1
1
1
1
1
1
1
1
1
1
1
1
1
1
1
1
1
1
1
1
1
1
1
1
1
1
1
1
1
1
1
1
1
1
1
1
1
1
1
1
1
1
1
1
1
1
1
1
1
1
1
1
1
1
1
1
1
1
1
1
1
1
1
1
1
1
1
1
1
1
1
1
1
1
1
1
1
1
1
1
1
1
1
1
1
1
1
1
1
1
1
1
1
1
1
1
1
1
1
1
1
1
1
1
1
1
1
1
1
1
1
1
1
1
1
1
1
1
1
1
1
1
1
1
1
1
1
1
1
1
1
1
1
1
1
1
1
1
1
1
1
1
1
1
1
1
1
1
1
1
1
1
1
1
1
1
1
1
1
1
1
1
1
1
1
1
1
1
1
1
1
1
1
1
1
1
1
1
1
1
1
1
1
1
1
1
1
1
1
1
1
1
1
1
1
1
1
1
1
1
1
1
1
1
1
1
1
1
1
1
1
1
1
1
1
1
1
1
1
1
1
1
1
1
1
1
1
1
1
1
1
1
1
1
1
1
1
1
1
1
1
1
1
1
1
1
1
1
1
1
1
1
1
1
1
1
1
1
1
1
1
1
1
1
1
1
1
1
1
1
1
1
1
1
1
1
1
1
1
1
1
1
1
1
1
1
1
1
1
1
1
1
1
1
1
1
1
1
1
1
1
1
1
1
1
1
1
1
1
1
1
1
1
1
1
1
1
1
1
1
1
1
1
1
1
1
1
1
1
1
1
1
1
1
1
1
1
1
1
1
1
1
1
1
1
1
1
1
1
1
1
1
1
1
1
1
1
1
1
1
1
1
1
1
1
1
1
1
1
1
1
1
1
1
1
1
1
1
1
1
1
1
1
1
1
1
1
1
1
1
1
1
1
1
1
1
1
1
1
1
1
1
1
1
1
1
1
1
1
1
1
1
1
1
1
1
1
1
1
1
1
1
1
1
1
1
1
1
1
1
1
1
1
1
1
1
1
1
1
1
1
1
1
1
1
1
1
1
1
1
1
1
1
1
1
1
1
1
1
1
1
1
1
1
1
1
1
1
1
1
1
1
1
1
1
1
1
1
1
1
1
1
1
1
1
1
1
1
1
1
1
1
1
1
1
1
1
1
1
1
1
1
1
1
1
1
1
1
1
1
1
1
1
1
1
1
1
1
1
1
1
1
1
1
1
1
1
1
1
1
1
1
1
1
1
1
1
1
1
1
1
1
1
1
1
1
1
1
1
1
1
1
1
1
1
1
1
1
1
1
1
1
1
1
1
1
1
1
1
1
1
1
1
1
1
1
1
1
1
1
1
1
1
1
1
1
1
1
1
1
1
1
1
1
1
1
1
1
1
1
1
1
1
1
1
1
1
1
1
1
1
1
1
1
1
1
1
1
1
1
1
1
1
1
1
1
1
1
1
1
1
1
1
1
1
1
1
1
1
1
1
1
1
1
1
1
1
1
1
1
1
1
1
1
1
1
1
1
1
1
1
1
1
1
1
1
1
1
1
1
1
1
1
1
1
1
1
1
1
1
1
1
1
1
1
1
1
1
1
1
1
1
1
1
1
1
1
1
1
1
1
1
1
1
1
1
1
1
1
1
1
1
1
1
1
1
1
1
1
1
1
1
1
1
1
1
1
1
1
1
1
1
1
1
1
1
1
1
1
1
1
1
1
1
1
1
1
1
1
1
1
1
1
1
1
1
1
1
1
1
1
1
1
1
1
1
1
1
1
1
1
1
1
1
1
1
1
1
1
1
1
1
1
1
1
1
1
1
1
1
1
1
1
1
1
1
1
1
1
1
1
1
1
1
1
1
1
1
1
1
1
1
1
1
1
1
1
1
1
1
1
1
1
1
1
1
1
1
1
1
1
1
1
1
1
1
1
1
1
1
1
1
1
1
1
1
1
1
1
1
1
1
1
1
1
1
1
1
1
1
1
1
1
1
1
1
1
1
1
1
1
1
1
1
1
1
1
1
1
1
1
1
1
1
1
1
1
1
1
1
1
1
1
1
1
1
1
1
1
1
1
1
1
1
1
1
1
1
1
1
1
1
1
1
1
1
1
1
1
1
1
1
1
1
1
1
1
1
1
1
1
1
1
1
1
1
1
1
1
1
1
1
1
1
1
1
1
1
1
1
1
1
1
1
1
1
1
1
1
1
1
1
1
1
1
1
1
1
1
1
1
1
1
1
1
1
1
1
1
1
1
1
1
1
1
1
1
1
1
1
1
1
1
1
1
1
1
1
1
1
1
1
1
1
1
1
1
1
1
1
1
1
1
1
1
1
1
1
1
1
1
1
1
1
1
1
1
1
1
1
1
1
1
1
1
1
1
1
1
1
1
1
1
1
1
1
1
1
1
1
1
1
1
1
1
1
1
1
1
1
1
1
1
1
1
1
1
1
1
1
1
1
1
1
1
1
1
1
1
1
1
1
1
1
1
1
1
1
1
1
1
1
1
1
1
1
1
1
1
1
1
1
1
1
1
1
1
1
1
1
1
1
1
1
1
1
1
1
1
1
1
1
1
1
1
1
1
1
1
1
1
1
1
1
1
1
1
1
1
1
1
1
1
1
1
1
1
1
1
1
1
1
1
1
1
1
1
1
1
1
1
1
1
1
1
1
1
1
1
1
1
1
1
1
1
1
1
1
1
1
1
1
1
1
1
1
1
1
1
1
1
1
1
1
1
1
1
1
1
1
1
1
1
1
1
1
1
1
1
1
1
1
1
1
1
1
1
1
1
1
1
1
1
1
1
1
1
1
1
1
1
1
1
1
1
1
1
1
1
1
1
1
1
1
1
1
1
1
1
1
1
1
1
1
1
1
1
1
1
1
1
1
1
1
1
1
1
1
1
1
1
1
1
1
1
1
1
1
1
1
1
1
1
1
1
1
1
1
1
1
1
1
1
1
1
1
1
1
1
1
1
1
1
1
1
1
1
1
1
1
1
1
1
1
1
1
1
1
1
1
1
1
1
1
1
1
1
1
1
1
1
1
1
1
1
1
1
1
1
1
1
1
1
1
1
1
1
1
1
1
1
1
1
1
1
1
1
1
1
1
1
1
1
1
1
1
1
1
1
1
1
1
1
1
1
1
1
1
1
1
1
1
1
1
1
1
1
1
1
1
1
1
1
1
1
1
1
1
1
1
1
1
1
1
1
1
1
1
1
1
1
1
1
1
1
1
1
1
1
1
1
1
1
1
1
1
1
1
1
1
1
1
1
1
1
1
1
1
1
1
1
1
1
1
1
1
1
1
1
1
1
1
1
1
1
1
1
1
1
1
1
1
1
1
1
1
1
1
1
1
1
1
1
1
1
1
1
1
1
1
1
1
1
1
1
1
1
1
1
1
1
1
1
1
1
1
1
1
1
1
1
1
1
1
1
1
1
1
1
1
1
1
1
1
1
1
1
1
1
1
1
1
1
1
1
1
1
1
1
1
1
1
1
1
1
1
1
1
1
1
1
1
1
1
1
1
1
1
1
1
1
1
1
1
1
1
1
1
1
1
1
1
1
1
1
1
1
1
1
1
1
1
1
1
1
1
1
1
1
1
1
1
1
1
1
1
1
1
1
1
1
1
1
1
1
1
1
1
1
1
1
1
1
1
1
1
1
1
1
1
1
1
1
1
1
1
1
1
1
1
1
1
1
1
1
1
1
1
1
1
1
1
1
1
1
1
1
1
1
1
1
1
1
1
1
1
1
1
1
1
1
1
1
1
1
1
1
1
1
1
1
1
1
1
1
1
1
1
1
1
1
1
1
1
1
1
1
1
1
1
1
1
1
1
1
1
1
1
1
1
1
1
1
1
1
1
1
1
1
1
1
1
1
1
1
1
1
1
1
1
1
1
1
1
1
1
1
1
1
1
1
1
1
1
1
1
1
1
1
1
1
1
1
1
1
1
1
1
1
1
1
1
1
1
1
1
1
1
1
1
1
1
1
1
1
1
1
1
1
1
1
1
1
1
1
1
1
1
1
1
1
1
1
1
1
1
1
1
1
1
1
1
1
1
1
1
1
1
1
1
1
1
1
1
1
1
1
1
1
1
1
1
1
1
1
1
1
1
1
1
1
1
1
1
1
1
1
1
1
1
1
1
1
1
1
1
1
1
1
1
1
1
1
1
1
1
1
1
1
1
1
1
1
1
1
1
1
1
1
1
1
1
1
1
1
1
1
1
1
1
1
1
1
1
1
1
1
1
1
1
1
1
1
1
1
1
1
1
1
1
1
1
1
1
1
1
1
1
1
1
1
1
1
1
1
1
1
1
1
1
1
1
1
1
1
1
1
1
1
1
1
1
1
1
1
1
1
1
1
1
1
1
1
1
1
1
1
1
1
1
1
1
1
1
1
1
1
1
1
1
1
1
1
1
1
1
1
1
1
1
1
1
1
1
1
1
1
1
1
1
1
1
1
1
1
1
1
1
1
1
1
1
1
1
1
1
1
1
1
1
1
1
1
1
1
1
1
1
1
1
1
1
1
1
1
1
1
1
1
1
1
1
1
1
1
1
1
1
1
1
1
1
1
1
1
1
1
1
1
1
1
1
1
1
1
1
1
1
1
1
1
1
1
1
1
1
1
1
1
1
1
1
1
1
1
1
1
1
1
1
1
1
1
1
1
1
1
1
1
1
1
1
1
1
1
1
1
1
1
1
1
1
1
1
1
1
1
1
1
1
1
1
1
1
1
1
1
1
1
1
1
1
1
1
1
1
1
1
1
1
1
1
1
1
1
1
1
1
1
1
1
1
1
1
1
1
1
1
1
1
1
1
1
1
1
1
1
1
1
1
1
1
1
1
1
1
1
1
1
1
1
1
1
1
1
1
1
1
1
1
1
1
1
1
1
1
1
1
1
1
1
1
1
1
1
1
1
1
1
1
1
1
1
1
1
1
1
1
1
1
1
1
1
1
1
1
1
1
1
1
1
1
1
1
1
1
1
1
1
1
1
1
1
1
1
1
1
1
1
1
1
1
1
1
1
1
1
1
1
1
1
1
1
1
1
1
1
1
1
1
1
1
1
1
1
1
1
1
1
1
1
1
1
1
1
1
1
1
1
1
1
1
1
1
1
1
1
1
1
1
1
1
1
1
1
1
1
1
1
1
1
1
1
1
1
1
1
1
1
1
1
1
1
1
1
1
1
1
1
1
1
1
1
1
1
1
1
1
1
1
1
1
1
1
1
1
1
1
1
1
1
1
1
1
1
1
1
1
1
1
1
1
1
1
1
1
1
1
1
1
1
1
1
1
1
1
1
1
1
1
1
1
1
1
1
1
1
1
1
1
1
1
1
1
1
1
1
1
1
1
1
1
1
1
1
1
1
1
1
1
1
1
1
1
1
1
1
1
1
1
1
1
1
1
1
1
1
1
1
1
1
1
1
1
1
1
1
1
1
1
1
1
1
1
1
1
1
1
1
1
1
1
1
1
1
1
1
1
1
1
1
1
1
1
1
1
1
1
1
1
1
1
1
1
1
1
1
1
1
1
1
1
1
1
1
1
1
1
1
1
1
1
1
1
1
1
1
1
1
1
1
1
1
1
1
1
1
1
1
1
1
1
1
1
1
1
1
1
1
1
1
1
1
1
1
1
1
1
1
1
1
1
1
1
1
1
1
1
1
1
1
1
1
1
1
1
1
1
1
1
1
1
1
1
1
1
1
1
1
1
1
1
1
1
1
1
1
1
1
1
1
1
1
1
1
1
1
1
1
1
1
1
1
1
1
1
1
1
1
1
1
1
1
1
1
1
1
1
1
1
1
1
1
1
1
1
1
1
1
1
1
1
1
1
1
1
1
1
1
1
1
1
1
1
1
1
1
1
1
1
1
1
1
1
1
1
1
1
1
1
1
1
1
1
1
1
1
1
1
1
1
1
1
1
1
1
1
1
1
1
1
1
1
1
1
1
1
1
1
1
1
1
1
1
1
1
1
1
1
1
1
1
1
1
1
1
1
1
1
1
1
1
1
1
1
1
1
1
1
1
1
1
1
1
1
1
1
1
1
1
1
1
1
1
1
1
1
1
1
1
1
1
1
1
1
1
1
1
1
1
1
1
1
1
1
1
1
1
1
1
1
1
1
1
1
1
1
1
1
1
1
1
1
1
1
1
1
1
1
1
1
1
1
1
1
1
1
1
1
1
1
1
1
1
1
1
1
1
1
1
1
1
1
1
1
1
1
1
1
1
1
1
1
1
1
1
1
1
1
1
1
1
1
1
1
1
1
1
1
1
1
1
1
1
1
1
1
1
1
1
1
1
1
1
1
1
1
1
1
1
1
1
1
1
1
1
1
1
1
1
1
1
1
1
1
1
1
1
1
1
1
1
1
1
1
1
1
1
1
1
1
1
1
1
1
1
1
1
1
1
1
1
1
1
1
1
1
1
1
1
1
1
1
1
1
1
1
1
1
1
1
1
1
1
1
1
1
1
1
1
1
1
1
1
1
1
1
1
1
1
1
1
1
1
1
1
1
1
1
1
1
1
1
1
1
1
1
1
1
1
1
1
1
1
1
1
1
1
1
1
1
1
1
1
1
1
1
1
1
1
1
1
1
1
1
1
1
1
1
1
1
1
1
1
1
1
1
1
1
1
1
1
1
1
1
1
1
1
1
1
1
1
1
1
1
1
1
1
1
1
1
1
1
1
1
1
1
1
1
1
1
1
1
1
1
1
1
1
1
1
1
1
1
1
1
1
1
1
1
1
1
1
1
1
1
1
1
1
1
1
1
1
1
1
1
1
1
1
1
1
1
1
1
1
1
1
1
1
1
1
1
1
1
1
1
1
1
1
1
1
1
1
1
1
1
1
1
1
1
1
1
1
1
1
1
1
1
1
1
1
1
1
1
1
1
1
1
1
1
1
1
1
1
1
1
1
1
1
1
1
1
1
1
1
1
1
1
1
1
1
1
1
1
1
1
1
1
1
1
1
1
1
1
1
1
1
1
1
1
1
1
1
1
1
1
1
1
1
1
1
1
1
1
1
1
1
1
1
1
1
1
1
1
1
1
1
1
1
1
1
1
1
1
1
1
1
1
1
1
1
1
1
1
1
1
1
1
1
1
1
1
1
1
1
1
1
1
1
1
1
1
1
1
1
1
1
1
1
1
1
1
1
1
1
1
1
1
1
1
1
1
1
1
1
1
1
1
1
1
1
1
1
1
1
1
1
1
1
1
1
1
1
1
1
1
1
1
1
1
1
1
1
1
1
1
1
1
1
1
1
1
1
1
1
1
1
1
1
1
1
1
1
1
1
1
1
1
1
1
1
1
1
1
1
1
1
1
1
1
1
1
1
1
1
1
1
1
1
1
1
1
1
1
1
1
1
1
1
1
1
1
1
1
1
1
1
1
1
1
1
1
1
1
1
1
1
1
1
1
1
1
1
1
1
1
1
1
1
1
1
1
1
1
1
1
1
1
1
1
1
1
1
1
1
1
1
1
1
1
1
1
1
1
1
1
1
1
1
1
1
1
1
1
1
1
1
1
1
1
1
1
1
1
1
1
1
1
1
1
1
1
1
1
1
1
1
1
1
1
1
1
1
1
1
1
1
1
1
1
1
1
1
1
1
1
1
1
1
1
1
1
1
1
1
1
1
1
1
1
1
1
1
1
1
1
1
1
1
1
1
1
1
1
1
1
1
1
1
1
1
1
1
1
1
1
1
1
1
1
1
1
1
1
1
1
1
1
1
1
1
1
1
1
1
1
1
1
1
1
1
1
1
1
1
1
1
1
1
1
1
1
1
1
1
1
1
1
1
1
1
1
1
1
1
1
1
1
1
1
1
1
1
1
1
1
1
1
1
1
1
1
1
1
1
1
1
1
1
1
1
1
1
1
1
1
1
1
1
1
1
1
1
1
1
1
1
1
1
1
1
1
1
1
1
1
1
1
1
1
1
1
1
1
1
1
1
1
1
1
1
1
1
1
1
1
1
1
1
1
1
1
1
1
1
1
1
1
1
1
1
1
1
1
1
1
1
1
1
1
1
1
1
1
1
1
1
1
1
1
1
1
1
1
1
1
1
1
1
1
1
1
1
1
1
1
1
1
1
1
1
1
1
1
1
1
1
1
1
1
1
1
1
1
1
1
1
1
1
1
1
1
1
1
1
1
1
1
1
1
1
1
1
1
1
1
1
1
1
1
1
1
1
1
1
1
1
1
1
1
1
1
1
1
1
1
1
1
1
1
1
1
1
1
1
1
1
1
1
1
1
1
1
1
1
1
1
1
1
1
1
1
1
1
1
1
1
1
1
1
1
1
1
1
1
1
1
1
1
1
1
1
1
1
1
1
1
1
1
1
1
1
1
1
1
1
1
1
1
1
1
1
1
1
1
1
1
1
1
1
1
1
1
1
1
1
1
1
1
1
1
1
1
1
1
1
1
1
1
1
1
1
1
1
1
1
1
1
1
1
1
1
1
1
1
1
1
1
1
1
1
1
1
1
1
1
1
1
1
1
1
1
1
1
1
1
1
1
1
1
1
1
1
1
1
1
1
1
1
1
1
1
1
1
1
1
1
1
1
1
1
1
1
1
1
1
1
1
1
1
1
1
1
1
1
1
1
1
1
1
1
1
1
1
1
1
1
1
1
1
1
1
1
1
1
1
1
1
1
1
1
1
1
1
1
1
1
1
1
1
1
1
1
1
1
1
1
1
1
1
1
1
1
1
1
1
1
1
1
1
1
1
1
1
1
1
1
1
1
1
1
1
1
1
1
1
1
1
1
1
1
1
1
1
1
1
1
1
1
1
1
1
1
1
1
1
1
1
1
1
1
1
1
1
1
1
1
1
1
1
1
1
1
1
1
1
1
1
1
1
1
1
1
1
1
1
1
1
1
1
1
1
1
1
1
1
1
1
1
1
1
1
1
1
1
1
1
1
1
1
1
1
1
1
1
1
1
1
1
1
1
1
1
1
1
1
1
1
1
1
1
1
1
1
1
1
1
1
1
1
1
1
1
1
1
1
1
1
1
1
1
1
1
1
1
1
1
1
1
1
1
1
1
1
1
1
1
1
1
1
1
1
1
1
1
1
1
1
1
1
1
1
1
1
1
1
1
1
1
1
1
1
1
1
1
1
1
1
1
1
1
1
1
1
1
1
1
1
1
1
1
1
1
1
1
1
1
1
1
1
1
1
1
1
1
1
1
1
1
1
1
1
1
1
1
1
1
1
1
1
1
1
1
1
1
1
1
1
1
1
1
1
1
1
1
1
1
1
1
1
1
1
1
1
1
1
1
1
1
1
1
1
1
1
1
1
1
1
1
1
1
1
1
1
1
1
1
1
1
1
1
1
1
1
1
1
1
1
1
1
1
1
1
1
1
1
1
1
1
1
1
1
1
1
1
1
1
1
1
1
1
1
1
1
1
1
1
1
1
1
1
1
1
1
1
1
1
1
1
1
1
1
1
1
1
1
1
1
1
1
1
1
1
1
1
1
1
1
1
1
1
1
1
1
1
1
1
1
1
1
1
1
1
1
1
1
1
1
1
1
1
1
1
1
1
1
1
1
1
1
1
1
1
1
1
1
1
1
1
1
1
1
1
1
1
1
1
1
1
1
1
1
1
1
1
1
1
1
1
1
1
1
1
1
1
1
1
1
1
1
1
1
1
1
1
1
1
1
1
1
1
1
1
1
1
1
1
1
1
1
1
1
1
1
1
1
1
1
1
1
1
1
1
1
1
1
1
1
1
1
1
1
1
1
1
1
1
1
1
1
1
1
1
1
1
1
1
1
1
1
1
1
1
1
1
1
1
1
1
1
1
1
1
1
1
1
1
1
1
1
1
1
1
1
1
1
1
1
1
1
1
1
1
1
1
1
1
1
1
1
1
1
1
1
1
1
1
1
1
1
1
1
1
1
1
1
1
1
1
1
1
1
1
1
1
1
1
1
1
1
1
1
1
1
1
1
1
1
1
1
1
1
1
1
1
1
1
1
1
1
1
1
1
1
1
1
1
1
1
1
1
1
1
1
1
1
1
1
1
1
1
1
1
1
1
1
1
1
1
1
1
1
1
1
1
1
1
1
1
1
1
1
1
1
1
1
1
1
1
1
1
1
1
1
1
1
1
1
1
1
1
1
1
1
1
1
1
1
1
1
1
1
1
1
1
1
1
1
1
1
1
1
1
1
1
1
1
1
1
1
1
1
1
1
1
1
1
1
1
1
1
1
1
1
1
1
1
1
1
1
1
1
1
1
1
1
1
1
1
1
1
1
1
1
1
1
1
1
1
1
1
1
1
1
1
1
1
1
1
1
1
1
1
1
1
1
1
1
1
1
1
1
1
1
1
1
1
1
1
1
1
1
1
1
1
1
1
1
1
1
1
1
1
1
1
1
1
1
1
1
1
1
1
1
1
1
1
1
1
1
1
1
1
1
1
1
1
1
1
1
1
1
1
1
1
1
1
1
1
1
1
1
1
1
1
1
1
1
1
1
1
1
1
1
1
1
1
1
1
1
1
1
1
1
1
1
1
1
1
1
1
1
1
1
1
1
1
1
1
1
1
1
1
1
1
1
1
1
1
1
1
1
1
1
1
1
1
1
1
1
1
1
1
1
1
1
1
1
1
1
1
1
1
1
1
1
1
1
1
1
1
1
1
1
1
1
1
1
1
1
1
1
1
1
1
1
1
1
1
1
1
1
1
1
1
1
1
1
1
1
1
1
1
1
1
1
1
1
1
1
1
1
1
1
1
1
1
1
1
1
1
1
1
1
1
1
1
1
1
1
1
1
1
1
1
1
1
1
1
1
1
1
1
1
1
1
1
1
1
1
1
1
1
1
1
1
1
1
1
1
1
1
1
1
1
1
1
1
1
1
1
1
1
1
1
1
1
1
1
1
1
1
1
1
1
1
1
1
1
1
1
1
1
1
1
1
1
1
1
1
1
1
1
1
1
1
1
1
1
1
1
1
1
1
1
1
1
1
1
1
1
1
1
1
1
1
1
1
1
1
1
1
1
1
1
1
1
1
1
1
1
1
1
1
1
1
1
1
1
1
1
1
1
1
1
1
1
1
1
1
1
1
1
1
1
1
1
1
1
1
1
1
1
1
1
1
1
1
1
1
1
1
1
1
1
1
1
1
1
1
1
1
1
1
1
1
1
1
1
1
1
1
1
1
1
1
1
1
1
1
1
1
1
1
1
1
1
1
1
1
1
1
1
1
1
1
1
1
1
1
1
1
1
1
1
1
1
1
1
1
1
1
1
1
1
1
1
1
1
1
1
1
1
1
1
1
1
1
1
1
1
1
1
1
1
1
1
1
1
1
1
1
1
1
1
1
1
1
1
1
1
1
1
1
1
1
1
1
1
1
1
1
1
1
1
1
1
1
1
1
1
1
1
1
1
1
1
1
1
1
1
1
1
1
1
1
1
1
1
1
1
1
1
1
1
1
1
1
1
1
1
1
1
1
1
1
1
1
1
1
1
1
1
1
1
1
1
1
1
1
1
1
1
1
1
1
1
1
1
1
1
1
1
1
1
1
1
1
1
1
1
1
1
1
1
1
1
1
1
1
1
1
1
1
1
1
1
1
1
1
1
1
1
1
1
1
1
1
1
1
1
1
1
1
1
1
1
1
1
1
1
1
1
1
1
1
1
1
1
1
1
1
1
1
1
1
1
1
1
1
1
1
1
1
1
1
1
1
1
1
1
1
1
1
1
1
1
1
1
1
1
1
1
1
1
1
1
1
1
1
1
1
1
1
1
1
1
1
1
1
1
1
1
1
1
1
1
1
1
1
1
1
1
1
1
1
1
1
1
1
1
1
1
1
1
1
1
1
1
1
1
1
1
1
1
1
1
1
1
1
1
1
1
1
1
1
1
1
1
1
1
1
1
1
1
1
1
1
1
1
1
1
1
1
1
1
1
1
1
1
1
1
1
1
1
1
1
1
1
1
1
1
1
1
1
1
1
1
1
1
1
1
1
1
1
1
1
1
1
1
1
1
1
1
1
1
1
1
1
1
1
1
1
1
1
1
1
1
1
1
1
1
1
1
1
1
1
1
1
1
1
1
1
1
1
1
1
1
1
1
1
1
1
1
1
1
1
1
1
1
1
1
1
1
1
1
1
1
1
1
1
1
1
1
1
1
1
1
1
1
1
1
1
1
1
1
1
1
1
1
1
1
1
1
1
1
1
1
1
1
1
1
1
1
1
1
1
1
1
1
1
1
1
1
1
1
1
1
1
1
1
1
1
1
1
1
1
1
1
1
1
1
1
1
1
1
1
1
1
1
1
1
1
1
1
1
1
1
1
1
1
1
1
1
1
1
1
1
1
1
1
1
1
1
1
1
1
1
1
1
1
1
1
1
1
1
1
1
1
1
1
1
1
1
1
1
1
1
1
1
1
1
1
1
1
1
1
1
1
1
1
1
1
1
1
1
1
1
1
1
1
1
1
1
1
1
1
1
1
1
1
1
1
1
1
1
1
1
1
1
1
1
1
1
1
1
1
1
1
1
1
1
1
1
1
1
1
1
1
1
1
1
1
1
1
1
1
1
1
1
1
1
1
1
1
1
1
1
1
1
1
1
1
1
1
1
1
1
1
1
1
1
1
1
1
1
1
1
1
1
1
1
1
1
1
1
1
1
1
1
1
1
1
1
1
1
1
1
1
1
1
1
1
1
1
1
1
1
1
1
1
1
1
1
1
1
1
1
1
1
1
1
1
1
1
1
1
1
1
1
1
1
1
1
1
1
1
1
1
1
1
1
1
1
1
1
1
1
1
1
1
1
1
1
1
1
1
1
1
1
1
1
1
1
1
1
1
1
1
1
1
1
1
1
1
1
1
1
1
1
1
1
1
1
1
1
1
1
1
1
1
1
1
1
1
1
1
1
1
1
1
1
1
1
1
1
1
1
1
1
1
1
1
1
1
1
1
1
1
1
1
1
1
1
1
1
1
1
1
1
1
1
1
1
1
1
1
1
1
1
1
1
1
1
1
1
1
1
1
1
1
1
1
1
1
1
1
1
1
1
1
1
1
1
1
1
1
1
1
1
1
1
1
1
1
1
1
1
1
1
1
1
1
1
1
1
1
1
1
1
1
1
1
1
1
1
1
1
1
1
1
1
1
1
1
1
1
1
1
1
1
1
1
1
1
1
1
1
1
1
1
1
1
1
1
1
1
1
1
1
1
1
1
1
1
1
1
1
1
1
1
1
1
1
1
1
1
1
1
1
1
1
1
1
1
1
1
1
1
1
1
1
1
1
1
1
1
1
1
1
1
1
1
1
1
1
1
1
1
1
1
1
1
1
1
1
1
1
1
1
1
1
1
1
1
1
1
1
1
1
1
1
1
1
1
1
1
1
1
1
1
1
1
1
1
1
1
1
1
1
1
1
1
1
1
1
1
1
1
1
1
1
1
1
1
1
1
1
1
1
1
1
1
1
1
1
1
1
1
1
1
1
1
1
1
1
1
1
1
1
1
1
1
1
1
1
1
1
1
1
1
1
1
1
1
1
1
1
1
1
1
1
1
1
1
1
1
1
1
1
1
1
1
1
1
1
1
1
1
1
1
1
1
1
1
1
1
1
1
1
1
1
1
1
1
1
1
1
1
1
1
1
1
1
1
1
1
1
1
1
1
1
1
1
1
1
1
1
1
1
1
1
1
1
1
1
1
1
1
1
1
1
1
1
1
1
1
1
1
1
1
1
1
1
1
1
1
1
1
1
1
1
1
1
1
1
1
1
1
1
1
1
1
1
1
1
1
1
1
1
1
1
1
1
1
1
1
1
1
1
1
1
1
1
1
1
1
1
1
1
1
1
1
1
1
1
1
1
1
1
1
1
1
1
1
1
1
1
1
1
1
1
1
1
1
1
1
1
1
1
1
1
1
1
1
1
1
1
1
1
1
1
1
1
1
1
1
1
1
1
1
1
1
1
1
1
1
1
1
1
1
1
1
1
1
1
1
1
1
1
1
1
1
1
1
1
1
1
1
1
1
1
1
1
1
1
1
1
1
1
1
1
1
1
1
1
1
1
1
1
1
1
1
1
1
1
1
1
1
1
1
1
1
1
1
1
1
1
1
1
1
1
1
1
1
1
1
1
1
1
1
1
1
1
1
1
1
1
1
1
1
1
1
1
1
1
1
1
1
1
1
1
1
1
1
1
1
1
1
1
1
1
1
1
1
1
1
1
1
1
1
1
1
1
1
1
1
1
1
1
1
1
1
1
1
1
1
1
1
1
1
1
1
1
1
1
1
1
1
1
1
1
1
1
1
1
1
1
1
1
1
1
1
1
1
1
1
1
1
1
1
1
1
1
1
1
1
1
1
1
1
1
1
1
1
1
1
1
1
1
1
1
1
1
1
1
1
1
1
1
1
1
1
1
1
1
1
1
1
1
1
1
1
1
1
1
1
1
1
1
1
1
1
1
1
1
1
1
1
1
1
1
1
1
1
1
1
1
1
1
1
1
1
1
1
1
1
1
1
1
1
1
1
1
1
1
1
1
1
1
1
1
1
1
1
1
1
1
1
1
1
1
1
1
1
1
1
1
1
1
1
1
1
1
1
1
1
1
1
1
1
1
1
1
1
1
1
1
1
1
1
1
1
1
1
1
1
1
1
1
1
1
1
1
1
1
1
1
1
1
1
1
1
1
1
1
1
1
1
1
1
1
1
1
1
1
1
1
1
1
1
1
1
1
1
1
1
1
1
1
1
1
1
1
1
1
1
1
1
1
1
1
1
1
1
1
1
1
1
1
1
1
1
1
1
1
1
1
1
1
1
1
1
1
1
1
1
1
1
1
1
1
1
1
1
1
1
1
1
1
1
1
1
1
1
1
1
1
1
1
1
1
1
1
1
1
1
1
1
1
1
1
1
1
1
1
1
1
1
1
1
1
1
1
1
1
1
1
1
1
1
1
1
1
1
1
1
1
1
1
1
1
1
1
1
1
1
1
1
1
1
1
1
1
1
1
1
1
1
1
1
1
1
1
1
1
1
1
1
1
1
1
1
1
1
1
1
1
1
1
1
1
1
1
1
1
1
1
1
1
1
1
1
1
1
1
1
1
1
1
1
1
1
1
1
1
1
1
1
1
1
1
1
1
1
1
1
1
1
1
1
1
1
1
1
1
1
1
1
1
1
1
1
1
1
1
1
1
1
1
1
1
1
1
1
1
1
1
1
1
1
1
1
1
1
1
1
1
1
1
1
1
1
1
1
1
1
1
1
1
1
1
1
1
1
1
1
1
1
1
1
1
1
1
1
1
1
1
1
1
1
1
1
1
1
1
1
1
1
1
1
1
1
1
1
1
1
1
1
1
1
1
1
1
1
1
1
1
1
1
1
1
1
1
1
1
1
1
1
1
1
1
1
1
1
1
1
1
1
1
1
1
1
1
1
1
1
1
1
1
1
1
1
1
1
1
1
1
1
1
1
1
1
1
1
1
1
1
1
1
1
1
1
1
1
1
1
1
1
1
1
1
1
1
1
1
1
1
1
1
1
1
1
1
1
1
1
1
1
1
1
1
1
1
1
1
1
1
1
1
1
1
1
1
1
1
1
1
1
1
1
1
1
1
1
1
1
1
1
1
1
1
1
1
1
1
1
1
1
1
1
1
1
1
1
1
1
1
1
1
1
1
1
1
1
1
1
1
1
1
1
1
1
1
1
1
1
1
1
1
1
1
1
1
1
1
1
1
1
1
1
1
1
1
1
1
1
1
1
1
1
1
1
1
1
1
1
1
1
1
1
1
1
1
1
1
1
1
1
1
1
1
1
1
1
1
1
1
1
1
1
1
1
1
1
1
1
1
1
1
1
1
1
1
1
1
1
1
1
1
1
1
1
1
1
1
1
1
1
1
1
1
1
1
1
1
1
1
1
1
1
1
1
1
1
1
1
1
1
1
1
1
1
1
1
1
1
1
1
1
1
1
1
1
1
1
1
1
1
1
1
1
1
1
1
1
1
1
1
1
1
1
1
1
1
1
1
1
1
1
1
1
1
1
1
1
1
1
1
1
1
1
1
1
1
1
1
1
1
1
1
1
1
1
1
1
1
1
1
1
1
1
1
1
1
1
1
1
1
1
1
1
1
1
1
1
1
1
1
1
1
1
1
1
1
1
1
1
1
1
1
1
1
1
1
1
1
1
1
1
1
1
1
1
1
1
1
1
1
1
1
1
1
1
1
1
1
1
1
1
1
1
1
1
1
1
1
1
1
1
1
1
1
1
1
1
1
1
1
1
1
1
1
1
1
1
1
1
1
1
1
1
1
1
1
1
1
1
1
1
1
1
1
1
1
1
1
1
1
1
1
1
1
1
1
1
1
1
1
1
1
1
1
1
1
1
1
1
1
1
1
1
1
1
1
1
1
1
1
1
1
1
1
1
1
1
1
1
1
1
1
1
1
1
1
1
1
1
1
1
1
1
1
1
1
1
1
1
1
1
1
1
1
1
1
1
1
1
1
1
1
1
1
1
1
1
1
1
1
1
1
1
1
1
1
1
1
1
1
1
1
1
1
1
1
1
1
1
1
1
1
1
1
1
1
1
1
1
1
1
1
1
1
1
1
1
1
1
1
1
1
1
1
1
1
1
1
1
1
1
1
1
1
1
1
1
1
1
1
1
1
1
1
1
1
1
1
1
1
1
1
1
1
1
1
1
1
1
1
1
1
1
1
1
1
1
1
1
1
1
1
1
1
1
1
1
1
1
1
1
1
1
1
1
1
1
1
1
1
1
1
1
1
1
1
1
1
1
1
1
1
1
1
1
1
1
1
1
1
1
1
1
1
1
1
1
1
1
1
1
1
1
1
1
1
1
1
1
1
1
1
1
1
1
1
1
1
1
1
1
1
1
1
1
1
1
1
1
1
1
1
1
1
1
1
1
1
1
1
1
1
1
1
1
1
1
1
1
1
1
1
1
1
1
1
1
1
1
1
1
1
1
1
1
1
1
1
1
1
1
1
1
1
1
1
1
1
1
1
1
1
1
1
1
1
1
1
1
1
1
1
1
1
1
1
1
1
1
1
1
1
1
1
1
1
1
1
1
1
1
1
1
1
1
1
1
1
1
1
1
1
1
1
1
1
1
1
1
1
1
1
1
1
1
1
1
1
1
1
1
1
1
1
1
1
1
1
1
1
1
1
1
1
1
1
1
1
1
1
1
1
1
1
1
1
1
1
1
1
1
1
1
1
1
1
1
1
1
1
1
1
1
1
1
1
1
1
1
1
1
1
1
1
1
1
1
1
1
1
1
1
1
1
1
1
1
1
1
1
1
1
1
1
1
1
1
1
1
1
1
1
1
1
1
1
1
1
1
1
1
1
1
1
1
1
1
1
1
1
1
1
1
1
1
1
1
1
1
1
1
1
1
1
1
1
1
1
1
1
1
1
1
1
1
1
1
1
1
1
1
1
1
1
1
1
1
1
1
1
1
1
1
1
1
1
1
1
1
1
1
1
1
1
1
1
1
1
1
1
1
1
1
1
1
1
1
1
1
1
1
1
1
1
1
1
1
1
1
1
1
1
1
1
1
1
1
1
1
1
1
1
1
1
1
1
1
1
1
1
1
1
1
1
1
1
1
1
1
1
1
1
1
1
1
1
1
1
1
1
1
1
1
1
1
1
1
1
1
1
1
1
1
1
1
1
1
1
1
1
1
1
1
1
1
1
1
1
1
1
1
1
1
1
1
1
1
1
1
1
1
1
1
1
1
1
1
1
1
1
1
1
1
1
1
1
1
1
1
1
1
1
1
1
1
1
1
1
1
1
1
1
1
1
1
1
1
1
1
1
1
1
1
1
1
1
1
1
1
1
1
1
1
1
1
1
1
1
1
1
1
1
1
1
1
1
1
1
1
1
1
1
1
1
1
1
1
1
1
1
1
1
1
1
1
1
1
1
1
1
1
1
1
1
1
1
1
1
1
1
1
1
1
1
1
1
1
1
1
1
1
1
1
1
1
1
1
1
1
1
1
1
1
1
1
1
1
1
1
1
1
1
1
1
1
1
1
1
1
1
1
1
1
1
1
1
1
1
1
1
1
1
1
1
1
1
1
1
1
1
1
1
1
1
1
1
1
1
1
1
1
1
1
1
1
1
1
1
1
1
1
1
1
1
1
1
1
1
1
1
1
1
1
1
1
1
1
1
1
1
1
1
1
1
1
1
1
1
1
1
1
1
1
1
1
1
1
1
1
1
1
1
1
1
1
1
1
1
1
1
1
1
1
1
1
1
1
1
1
1
1
1
1
1
1
1
1
1
1
1
1
1
1
1
1
1
1
1
1
1
1
1
1
1
1
1
1
1
1
1
1
1
1
1
1
1
1
1
1
1
1
1
1
1
1
1
1
1
1
1
1
1
1
1
1
1
1
1
1
1
1
1
1
1
1
1
1
1
1
1
1
1
1
1
1
1
1
1
1
1
1
1
1
1
1
1
1
1
1
1
1
1
1
1
1
1
1
1
1
1
1
1
1
1
1
1
1
1
1
1
1
1
1
1
1
1
1
1
1
1
1
1
1
1
1
1
1
1
1
1
1
1
1
1
1
1
1
1
1
1
1
1
1
1
1
1
1
1
1
1
1
1
1
1
1
1
1
1
1
1
1
1
1
1
1
1
1
1
1
1
1
1
1
1
1
1
1
1
1
1
1
1
1
1
1
1
1
1
2
2
2
2
2
2
2
2
2
2
2
2
2
2
2
2
2
2
2
2
2
2
2
2
2

SCALARS EROSION_STATUS int 1
LOOKUP_TABLE default
1
1
1
1
1
1
1
1
1
1
1
1
1
1
1
1
1
1
1
1
1
1
1
1
1
1
1
1
1
1
1
1
1
1
1
1
1
1
1
1
1
1
1
1
1
1
1
1
1
1
1
1
1
1
1
1
1
1
1
1
1
1
1
1
1
1
1
1
1
1
1
1
1
1
1
1
1
1
1
1
1
1
1
1
1
1
1
1
1
1
1
1
1
1
1
1
1
1
1
1
1
1
1
1
1
1
1
1
1
1
1
1
1
1
1
1
1
1
1
1
1
1
1
1
1
1
1
1
1
1
1
1
1
1
1
1
1
1
1
1
1
1
1
1
1
1
1
1
1
1
1
1
1
1
1
1
1
1
1
1
1
1
1
1
1
1
1
1
1
1
1
1
1
1
1
1
1
1
1
1
1
1
1
1
1
1
1
1
1
1
1
1
1
1
1
1
1
1
1
1
1
1
1
1
1
1
1
1
1
1
1
1
1
1
1
1
1
1
1
1
1
1
1
1
1
1
1
1
1
1
1
1
1
1
1
1
1
1
1
1
1
1
1
1
1
1
1
1
1
1
1
1
1
1
1
1
1
1
1
1
1
1
1
1
1
1
1
1
1
1
1
1
1
1
1
1
1
1
1
1
1
1
1
1
1
1
1
1
1
1
1
1
1
1
1
1
1
1
1
1
1
1
1
1
1
1
1
1
1
1
1
1
1
1
1
1
1
1
1
1
1
1
1
1
1
1
1
1
1
1
1
1
1
1
1
1
1
1
1
1
1
1
1
1
1
1
1
1
1
1
1
1
1
1
1
1
1
1
1
1
1
1
1
1
1
1
1
1
1
1
1
1
1
1
1
1
1
1
1
1
1
1
1
1
1
1
1
1
1
1
1
1
1
1
1
1
1
1
1
1
1
1
1
1
1
1
1
1
1
1
1
1
1
1
1
1
1
1
1
1
1
1
1
1
1
1
1
1
1
1
1
1
1
1
1
1
1
1
1
1
1
1
1
1
1
1
1
1
1
1
1
1
1
1
1
1
1
1
1
1
1
1
1
1
1
1
1
1
1
1
1
1
1
1
1
1
1
1
1
1
1
1
1
1
1
1
1
1
1
1
1
1
1
1
1
1
1
1
1
1
1
1
1
1
1
1
1
1
1
1
1
1
1
1
1
1
1
1
1
1
1
1
1
1
1
1
1
1
1
1
1
1
1
1
1
1
1
1
1
1
1
1
1
1
1
1
1
1
1
1
1
1
1
1
1
1
1
1
1
1
1
1
1
1
1
1
1
1
1
1
1
1
1
1
1
1
1
1
1
1
1
1
1
1
1
1
1
1
1
1
1
1
1
1
1
1
1
1
1
1
1
1
1
1
1
1
1
1
1
1
1
1
1
1
1
1
1
1
1
1
1
1
1
1
1
1
1
1
1
1
1
1
1
1
1
1
1
1
1
1
1
1
1
1
1
1
1
1
1
1
1
1
1
1
1
1
1
1
1
1
1
1
1
1
1
1
1
1
1
1
1
1
1
1
1
1
1
1
1
1
1
1
1
1
1
1
1
1
1
1
1
1
1
1
1
1
1
1
1
1
1
1
1
1
1
1
1
1
1
1
1
1
1
1
1
1
1
1
1
1
1
1
1
1
1
1
1
1
1
1
1
1
1
1
1
1
1
1
1
1
1
1
1
1
1
1
1
1
1
1
1
1
1
1
1
1
1
1
1
1
1
1
1
1
1
1
1
1
1
1
1
1
1
1
1
1
1
1
1
1
1
1
1
1
1
1
1
1
1
1
1
1
1
1
1
1
1
1
1
1
1
1
1
1
1
1
1
1
1
1
1
1
1
1
1
1
1
1
1
1
1
1
1
1
1
1
1
1
1
1
1
1
1
1
1
1
1
1
1
1
1
1
1
1
1
1
1
1
1
1
1
1
1
1
1
1
1
1
1
1
1
1
1
1
1
1
1
1
1
1
1
1
1
1
1
1
1
1
1
1
1
1
1
1
1
1
1
1
1
1
1
1
1
1
1
1
1
1
1
1
1
1
1
1
1
1
1
1
1
1
1
1
1
1
1
1
1
1
1
1
1
1
1
1
1
1
1
1
1
1
1
1
1
1
1
1
1
1
1
1
1
1
1
1
1
1
1
1
1
1
1
1
1
1
1
1
1
1
1
1
1
1
1
1
1
1
1
1
1
1
1
1
1
1
1
1
1
1
1
1
1
1
1
1
1
1
1
1
1
1
1
1
1
1
1
1
1
1
1
1
1
1
1
1
1
1
1
1
1
1
1
1
1
1
1
1
1
1
1
1
1
1
1
1
1
1
1
1
1
1
1
1
1
1
1
1
1
1
1
1
1
1
1
1
1
1
1
1
1
1
1
1
1
1
1
1
1
1
1
1
1
1
1
1
1
1
1
1
1
1
1
1
1
1
1
1
1
1
1
1
1
1
1
1
1
1
1
1
1
1
1
1
1
1
1
1
1
1
1
1
1
1
1
1
1
1
1
1
1
1
1
1
1
1
1
1
1
1
1
1
1
1
1
1
1
1
1
1
1
1
1
1
1
1
1
1
1
1
1
1
1
1
1
1
1
1
1
1
1
1
1
1
1
1
1
1
1
1
1
1
1
1
1
1
1
1
1
1
1
1
1
1
1
1
1
1
1
1
1
1
1
1
1
1
1
1
1
1
1
1
1
1
1
1
1
1
1
1
1
1
1
1
1
1
1
1
1
1
1
1
1
1
1
1
1
1
1
1
1
1
1
1
1
1
1
1
1
1
1
1
1
1
1
1
1
1
1
1
1
1
1
1
1
1
1
1
1
1
1
1
1
1
1
1
1
1
1
1
1
1
1
1
1
1
1
1
1
1
1
1
1
1
1
1
1
1
1
1
1
1
1
1
1
1
1
1
1
1
1
1
1
1
1
1
1
1
1
1
1
1
1
1
1
1
1
1
1
1
1
1
1
1
1
1
1
1
1
1
1
1
1
1
1
1
1
1
1
1
1
1
1
1
1
1
1
1
1
1
1
1
1
1
1
1
1
1
1
1
1
1
1
1
1
1
1
1
1
1
1
1
1
1
1
1
1
1
1
1
1
1
1
1
1
1
1
1
1
1
1
1
1
1
1
1
1
1
1
1
1
1
1
1
1
1
1
1
1
1
1
1
1
1
1
1
1
1
1
1
1
1
1
1
1
1
1
1
1
1
1
1
1
1
1
1
1
1
1
1
1
1
1
1
1
1
1
1
1
1
1
1
1
1
1
1
1
1
1
1
1
1
1
1
1
1
1
1
1
1
1
1
1
1
1
1
1
1
1
1
1
1
1
1
1
1
1
1
1
1
1
1
1
1
1
1
1
1
1
1
1
1
1
1
1
1
1
1
1
1
1
1
1
1
1
1
1
1
1
1
1
1
1
1
1
1
1
1
1
1
1
1
1
1
1
1
1
1
1
1
1
1
1
1
1
1
1
1
1
1
1
1
1
1
1
1
1
1
1
1
1
1
1
1
1
1
1
1
1
1
1
1
1
1
1
1
1
1
1
1
1
1
1
1
1
1
1
1
1
1
1
1
1
1
1
1
1
1
1
1
1
1
1
1
1
1
1
1
1
1
1
1
1
1
1
1
1
1
1
1
1
1
1
1
1
1
1
1
1
1
1
1
1
1
1
1
1
1
1
1
1
1
1
1
1
1
1
1
1
1
1
1
1
1
1
1
1
1
1
1
1
1
1
1
1
1
1
1
1
1
1
1
1
1
1
1
1
1
1
1
1
1
1
1
1
1
1
1
1
1
1
1
1
1
1
1
1
1
1
1
1
1
1
1
1
1
1
1
1
1
1
1
1
1
1
1
1
1
1
1
1
1
1
1
1
1
1
1
1
1
1
1
1
1
1
1
1
1
1
1
1
1
1
1
1
1
1
1
1
1
1
1
1
1
1
1
1
1
1
1
1
1
1
1
1
1
1
1
1
1
1
1
1
1
1
1
1
1
1
1
1
1
1
1
1
1
1
1
1
1
1
1
1
1
1
1
1
1
1
1
1
1
1
1
1
1
1
1
1
1
1
1
1
1
1
1
1
1
1
1
1
1
1
1
1
1
1
1
1
1
1
1
1
1
1
1
1
1
1
1
1
1
1
1
1
1
1
1
1
1
1
1
1
1
1
1
1
1
1
1
1
1
1
1
1
1
1
1
1
1
1
1
1
1
1
1
1
1
1
1
1
1
1
1
1
1
1
1
1
1
1
1
1
1
1
1
1
1
1
1
1
1
1
1
1
1
1
1
1
1
1
1
1
1
1
1
1
1
1
1
1
1
1
1
1
1
1
1
1
1
1
1
1
1
1
1
1
1
1
1
1
1
1
1
1
1
1
1
1
1
1
1
1
1
1
1
1
1
1
1
1
1
1
1
1
1
1
1
1
1
1
1
1
1
1
1
1
1
1
1
1
1
1
1
1
1
1
1
1
1
1
1
1
1
1
1
1
1
1
1
1
1
1
1
1
1
1
1
1
1
1
1
1
1
1
1
1
1
1
1
1
1
1
1
1
1
1
1
1
1
1
1
1
1
1
1
1
1
1
1
1
1
1
1
1
1
1
1
1
1
1
1
1
1
1
1
1
1
1
1
1
1
1
1
1
1
1
1
1
1
1
1
1
1
1
1
1
1
1
1
1
1
1
1
1
1
1
1
1
1
1
1
1
1
1
1
1
1
1
1
1
1
1
1
1
1
1
1
1
1
1
1
1
1
1
1
1
1
1
1
1
1
1
1
1
1
1
1
1
1
1
1
1
1
1
1
1
1
1
1
1
1
1
1
1
1
1
1
1
1
1
1
1
1
1
1
1
1
1
1
1
1
1
1
1
1
1
1
1
1
1
1
1
1
1
1
1
1
1
1
1
1
1
1
1
1
1
1
1
1
1
1
1
1
1
1
1
1
1
1
1
1
1
1
1
1
1
1
1
1
1
1
1
1
1
1
1
1
1
1
1
1
1
1
1
1
1
1
1
1
1
1
1
1
1
1
1
1
1
1
1
1
1
1
1
1
1
1
1
1
1
1
1
1
1
1
1
1
1
1
1
1
1
1
1
1
1
1
1
1
1
1
1
1
1
1
1
1
1
1
1
1
1
1
1
1
1
1
1
1
1
1
1
1
1
1
1
1
1
1
1
1
1
1
1
1
1
1
1
1
1
1
1
1
1
1
1
1
1
1
1
1
1
1
1
1
1
1
1
1
1
1
1
1
1
1
1
1
1
1
1
1
1
1
1
1
1
1
1
1
1
1
1
1
1
1
1
1
1
1
1
1
1
1
1
1
1
1
1
1
1
1
1
1
1
1
1
1
1
1
1
1
1
1
1
1
1
1
1
1
1
1
1
1
1
1
1
1
1
1
1
1
1
1
1
1
1
1
1
1
1
1
1
1
1
1
1
1
1
1
1
1
1
1
1
1
1
1
1
1
1
1
1
1
1
1
1
1
1
1
1
1
1
1
1
1
1
1
1
1
1
1
1
1
1
1
1
1
1
1
1
1
1
1
1
1
1
1
1
1
1
1
1
1
1
1
1
1
1
1
1
1
1
1
1
1
1
1
1
1
1
1
1
1
1
1
1
1
1
1
1
1
1
1
1
1
1
1
1
1
1
1
1
1
1
1
1
1
1
1
1
1
1
1
1
1
1
1
1
1
1
1
1
1
1
1
1
1
1
1
1
1
1
1
1
1
1
1
1
1
1
1
1
1
1
1
1
1
1
1
1
1
1
1
1
1
1
1
1
1
1
1
1
1
1
1
1
1
1
1
1
1
1
1
1
1
1
1
1
1
1
1
1
1
1
1
1
1
1
1
1
1
1
1
1
1
1
1
1
1
1
1
1
1
1
1
1
1
1
1
1
1
1
1
1
1
1
1
1
1
1
1
1
1
1
1
1
1
1
1
1
1
1
1
1
1
1
1
1
1
1
1
1
1
1
1
1
1
1
1
1
1
1
1
1
1
1
1
1
1
1
1
1
1
1
1
1
1
1
1
1
1
1
1
1
1
1
1
1
1
1
1
1
1
1
1
1
1
1
1
1
1
1
1
1
1
1
1
1
1
1
1
1
1
1
1
1
1
1
1
1
1
1
1
1
1
1
1
1
1
1
1
1
1
1
1
1
1
1
1
1
1
1
1
1
1
1
1
1
1
1
1
1
1
1
1
1
1
1
1
1
1
1
1
1
1
1
1
1
1
1
1
1
1
1
1
1
1
1
1
1
1
1
1
1
1
1
1
1
1
1
1
1
1
1
1
1
1
1
1
1
1
1
1
1
1
1
1
1
1
1
1
1
1
1
1
1
1
1
1
1
1
1
1
1
1
1
1
1
1
1
1
1
1
1
1
1
1
1
1
1
1
1
1
1
1
1
1
1
1
1
1
1
1
1
1
1
1
1
1
1
1
1
1
1
1
1
1
1
1
1
1
1
1
1
1
1
1
1
1
1
1
1
1
1
1
1
1
1
1
1
1
1
1
1
1
1
1
1
1
1
1
1
1
1
1
1
1
1
1
1
1
1
1
1
1
1
1
1
1
1
1
1
1
1
1
1
1
1
1
1
1
1
1
1
1
1
1
1
1
1
1
1
1
1
1
1
1
1
1
1
1
1
1
1
1
1
1
1
1
1
1
1
1
1
1
1
1
1
1
1
1
1
1
1
1
1
1
1
1
1
1
1
1
1
1
1
1
1
1
1
1
1
1
1
1
1
1
1
1
1
1
1
1
1
1
1
1
1
1
1
1
1
1
1
1
1
1
1
1
1
1
1
1
1
1
1
1
1
1
1
1
1
1
1
1
1
1
1
1
1
1
1
1
1
1
1
1
1
1
1
1
1
1
1
1
1
1
1
1
1
1
1
1
1
1
1
1
1
1
1
1
1
1
1
1
1
1
1
1
1
1
1
1
1
1
1
1
1
1
1
1
1
1
1
1
1
1
1
1
1
1
1
1
1
1
1
1
1
1
1
1
1
1
1
1
1
1
1
1
1
1
1
1
1
1
1
1
1
1
1
1
1
1
1
1
1
1
1
1
1
1
1
1
1
1
1
1
1
1
1
1
1
1
1
1
1
1
1
1
1
1
1
1
1
1
1
1
1
1
1
1
1
1
1
1
1
1
1
1
1
1
1
1
1
1
1
1
1
1
1
1
1
1
1
1
1
1
1
1
1
1
1
1
1
1
1
1
1
1
1
1
1
1
1
1
1
1
1
1
1
1
1
1
1
1
1
1
1
1
1
1
1
1
1
1
1
1
1
1
1
1
1
1
1
1
1
1
1
1
1
1
1
1
1
1
1
1
1
1
1
1
1
1
1
1
1
1
1
1
1
1
1
1
1
1
1
1
1
1
1
1
1
1
1
1
1
1
1
1
1
1
1
1
1
1
1
1
1
1
1
1
1
1
1
1
1
1
1
1
1
1
1
1
1
1
1
1
1
1
1
1
1
1
1
1
1
1
1
1
1
1
1
1
1
1
1
1
1
1
1
1
1
1
1
1
1
1
1
1
1
1
1
1
1
1
1
1
1
1
1
1
1
1
1
1
1
1
1
1
1
1
1
1
1
1
1
1
1
1
1
1
1
1
1
1
1
1
1
1
1
1
1
1
1
1
1
1
1
1
1
1
1
1
1
1
1
1
1
1
1
1
1
1
1
1
1
1
1
1
1
1
1
1
1
1
1
1
1
1
1
1
1
1
1
1
1
1
1
1
1
1
1
1
1
1
1
1
1
1
1
1
1
1
1
1
1
1
1
1
1
1
1
1
1
1
1
1
1
1
1
1
1
1
1
1
1
1
1
1
1
1
1
1
1
1
1
1
1
1
1
1
1
1
1
1
1
1
1
1
1
1
1
1
1
1
1
1
1
1
1
1
1
1
1
1
1
1
1
1
1
1
1
1
1
1
1
1
1
1
1
1
1
1
1
1
1
1
1
1
1
1
1
1
1
1
1
1
1
1
1
1
1
1
1
1
1
1
1
1
1
1
1
1
1
1
1
1
1
1
1
1
1
1
1
1
1
1
1
1
1
1
1
1
1
1
1
1
1
1
1
1
1
1
1
1
1
1
1
1
1
1
1
1
1
1
1
1
1
1
1
1
1
1
1
1
1
1
1
1
1
1
1
1
1
1
1
1
1
1
1
1
1
1
1
1
1
1
1
1
1
1
1
1
1
1
1
1
1
1
1
1
1
1
1
1
1
1
1
1
1
1
1
1
1
1
1
1
1
1
1
1
1
1
1
1
1
1
1
1
1
1
1
1
1
1
1
1
1
1
1
1
1
1
1
1
1
1
1
1
1
1
1
1
1
1
1
1
1
1
1
1
1
1
1
1
1
1
1
1
1
1
1
1
1
1
1
1
1
1
1
1
1
1
1
1
1
1
1
1
1
1
1
1
1
1
1
1
1
1
1
1
1
1
1
1
1
1
1
1
1
1
1
1
1
1
1
1
1
1
1
1
1
1
1
1
1
1
1
1
1
1
1
1
1
1
1
1
1
1
1
1
1
1
1
1
1
1
1
1
1
1
1
1
1
1
1
1
1
1
1
1
1
1
1
1
1
1
1
1
1
1
1
1
1
1
1
1
1
1
1
1
1
1
1
1
1
1
1
1
1
1
1
1
1
1
1
1
1
1
1
1
1
1
1
1
1
1
1
1
1
1
1
1
1
1
1
1
1
1
1
1
1
1
1
1
1
1
1
1
1
1
1
1
1
1
1
1
1
1
1
1
1
1
1
1
1
1
1
1
1
1
1
1
1
1
1
1
1
1
1
1
1
1
1
1
1
1
1
1
1
1
1
1
1
1
1
1
1
1
1
1
1
1
1
1
1
1
1
1
1
1
1
1
1
1
1
1
1
1
1
1
1
1
1
1
1
1
1
1
1
1
1
1
1
1
1
1
1
1
1
1
1
1
1
1
1
1
1
1
1
1
1
1
1
1
1
1
1
1
1
1
1
1
1
1
1
1
1
1
1
1
1
1
1
1
1
1
1
1
1
1
1
1
1
1
1
1
1
1
1
1
1
1
1
1
1
1
1
1
1
1
1
1
1
1
1
1
1
1
1
1
1
1
1
1
1
1
1
1
1
1
1
1
1
1
1
1
1
1
1
1
1
1
1
1
1
1
1
1
1
1
1
1
1
1
1
1
1
1
1
1
1
1
1
1
1
1
1
1
1
1
1
1
1
1
1
1
1
1
1
1
1
1
1
1
1
1
1
1
1
1
1
1
1
1
1
1
1
1
1
1
1
1
1
1
1
1
1
1
1
1
1
1
1
1
1
1
1
1
1
1
1
1
1
1
1
1
1
1
1
1
1
1
1
1
1
1
1
1
1
1
1
1
1
1
1
1
1
1
1
1
1
1
1
1
1
1
1
1
1
1
1
1
1
1
1
1
1
1
1
1
1
1
1
1
1
1
1
1
1
1
1
1
1
1
1
1
1
1
1
1
1
1
1
1
1
1
1
1
1
1
1
1
1
1
1
1
1
1
1
1
1
1
1
1
1
1
1
1
1
1
1
1
1
1
1
1
1
1
1
1
1
1
1
1
1
1
1
1
1
1
1
1
1
1
1
1
1
1
1
1
1
1
1
1
1
1
1
1
1
1
1
1
1
1
1
1
1
1
1
1
1
1
1
1
1
1
1
1
1
1
1
1
1
1
1
1
1
1
1
1
1
1
1
1
1
1
1
1
1
1
1
1
1
1
1
1
1
1
1
1
1
1
1
1
1
1
1
1
1
1
1
1
1
1
1
1
1
1
1
1
1
1
1
1
1
1
1
1
1
1
1
1
1
1
1
1
1
1
1
1
1
1
1
1
1
1
1
1
1
1
1
1
1
1
1
1
1
1
1
1
1
1
1
1
1
1
1
1
1
1
1
1
1
1
1
1
1
1
1
1
1
1
1
1
1
1
1
1
1
1
1
1
1
1
1
1
1
1
1
1
1
1
1
1
1
1
1
1
1
1
1
1
1
1
1
1
1
1
1
1
1
1
1
1
1
1
1
1
1
1
1
1
1
1
1
1
1
1
1
1
1
1
1
1
1
1
1
1
1
1
1
1
1
1
1
1
1
1
1
1
1
1
1
1
1
1
1
1
1
1
1
1
1
1
1
1
1
1
1
1
1
1
1
1
1
1
1
1
1
1
1
1
1
1
1
1
1
1
1
1
1
1
1
1
1
1
1
1
1
1
1
1
1
1
1
1
1
1
1
1
1
1
1
1
1
1
1
1
1
1
1
1
1
1
1
1
1
1
1
1
1
1
1
1
1
1
1
1
1
1
1
1
1
1
1
1
1
1
1
1
1
1
1
1
1
1
1
1
1
1
1
1
1
1
1
1
1
1
1
1
1
1
1
1
1
1
1
1
1
1
1
1
1
1
1
1
1
1
1
1
1
1
1
1
1
1
1
1
1
1
1
1
1
1
1
1
1
1
1
1
1
1
1
1
1
1
1
1
1
1
1
1
1
1
1
1
1
1
1
1
1
1
1
1
1
1
1
1
1
1
1
1
1
1
1
1
1
1
1
1
1
1
1
1
1
1
1
1
1
1
1
1
1
1
1
1
1
1
1
1
1
1
1
1
1
1
1
1
1
1
1
1
1
1
1
1
1
1
1
1
1
1
1
1
1
1
1
1
1
1
1
1
1
1
1
1
1
1
1
1
1
1
1
1
1
1
1
1
1
1
1
1
1
1
1
1
1
1
1
1
1
1
1
1
1
1
1
1
1
1
1
1
1
1
1
1
1
1
1
1
1
1
1
1
1
1
1
1
1
1
1
1
1
1
1
1
1
1
1
1
1
1
1
1
1
1
1
1
1
1
1
1
1
1
1
1
1
1
1
1
1
1
1
1
1
1
1
1
1
1
1
1
1
1
1
1
1
1
1
1
1
1
1
1
1
1
1
1
1
1
1
1
1
1
1
1
1
1
1
1
1
1
1
1
1
1
1
1
1
1
1
1
1
1
1
1
1
1
1
1
1
1
1
1
1
1
1
1
1
1
1
1
1
1
1
1
1
1
1
1
1
1
1
1
1
1
1
1
1
1
1
1
1
1
1
1
1
1
1
1
1
1
1
1
1
1
1
1
1
1
1
1
1
1
1
1
1
1
1
1
1
1
1
1
1
1
1
1
1
1
1
1
1
1
1
1
1
1
1
1
1
1
1
1
1
1
1
1
1
1
1
1
1
1
1
1
1
1
1
1
1
1
1
1
1
1
1
1
1
1
1
1
1
1
1
1
1
1
1
1
1
1
1
1
1
1
1
1
1
1
1
1
1
1
1
1
1
1
1
1
1
1
1
1
1
1
1
1
1
1
1
1
1
1
1
1
1
1
1
1
1
1
1
1
1
1
1
1
1
1
1
1
1
1
1
1
1
1
1
1
1
1
1
1
1
1
1
1
1
1
1
1
1
1
1
1
1
1
1
1
1
1
1
1
1
1
1
1
1
1
1
1
1
1
1
1
1
1
1
1
1
1
1
1
1
1
1
1
1
1
1
1
1
1
1
1
1
1
1
1
1
1
1
1
1
1
1
1
1
1
1
1
1
1
1
1
1
1
1
1
1
1
1
1
1
1
1
1
1
1
1
1
1
1
1
1
1
1
1
1
1
1
1
1
1
1
1
1
1
1
1
1
1
1
1
1
1
1
1
1
1
1
1
1
1
1
1
1
1
1
1
1
1
1
1
1
1
1
1
1
1
1
1
1
1
1
1
1
1
1
1
1
1
1
1
1
1
1
1
1
1
1
1
1
1
1
1
1
1
1
1
1
1
1
1
1
1
1
1
1
1
1
1
1
1
1
1
1
1
1
1
1
1
1
1
1
1
1
1
1
1
1
1
1
1
1
1
1
1
1
1
1
1
1
1
1
1
1
1
1
1
1
1
1
1
1
1
1
1
1
1
1
1
1
1
1
1
1
1
1
1
1
1
1
1
1
1
1
1
1
1
1
1
1
1
1
1
1
1
1
1
1
1
1
1
1
1
1
1
1
1
1
1
1
1
1
1
1
1
1
1
1
1
1
1
1
1
1
1
1
1
1
1
1
1
1
1
1
1
1
1
1
1
1
1
1
1
1
1
1
1
1
1
1
1
1
1
1
1
1
1
1
1
1
1
1
1
1
1
1
1
1
1
1
1
1
1
1
1
1
1
1
1
1
1
1
1
1
1
1
1
1
1
1
1
1
1
1
1
1
1
1
1
1
1
1
1
1
1
1
1
1
1
1
1
1
1
1
1
1
1
1
1
1
1
1
1
1
1
1
1
1
1
1
1
1
1
1
1
1
1
1
1
1
1
1
1
1
1
1
1
1
1
1
1
1
1
1
1
1
1
1
1
1
1
1
1
1
1
1
1
1
1
1
1
1
1
1
1
1
1
1
1
1
1
1
1
1
1
1
1
1
1
1
1
1
1
1
1
1
1
1
1
1
1
1
1
1
1
1
1
1
1
1
1
1
1
1
1
1
1
1
1
1
1
1
1
1
1
1
1
1
1
1
1
1
1
1
1
1
1
1
1
1
1
1
1
1
1
1
1
1
1
1
1
1
1
1
1
1
1
1
1
1
1
1
1
1
1
1
1
1
1
1
1
1
1
1
1
1
1
1
1
1
1
1
1
1
1
1
1
1
1
1
1
1
1
1
1
1
1
1
1
1
1
1
1
1
1
1
1
1
1
1
1
1
1
1
1
1
1
1
1
1
1
1
1
1
1
1
1
1
1
1
1
1
1
1
1
1
1
1
1
1
1
1
1
1
1
1
1
1
1
1
1
1
1
1
1
1
1
1
1
1
1
1
1
1
1
1
1
1
1
1
1
1
1
1
1
1
1
1
1
1
1
1
1
1
1
1
1
1
1
1
1
1
1
1
1
1
1
1
1
1
1
1
1
1
1
1
1
1
1
1
1
1
1
1
1
1
1
1
1
1
1
1
1
1
1
1
1
1
1
1
1
1
1
1
1
1
1
1
1
1
1
1
1
1
1
1
1
1
1
1
1
1
1
1
1
1
1
1
1
1
1
1
1
1
1
1
1
1
1
1
1
1
1
1
1
1
1
1
1
1
1
1
1
1
1
1
1
1
1
1
1
1
1
1
1
1
1
1
1
1
1
1
1
1
1
1
1
1
1
1
1
1
1
1
1
1
1
1
1
1
1
1
1
1
1
1
1
1
1
1
1
1
1
1
1
1
1
1
1
1
1
1
1
1
1
1
1
1
1
1
1
1
1
1
1
1
1
1
1
1
1
1
1
1
1
1
1
1
1
1
1
1
1
1
1
1
1
1
1
1
1
1
1
1
1
1
1
1
1
1
1
1
1
1
1
1
1
1
1
1
1
1
1
1
1
1
1
1
1
1
1
1
1
1
1
1
1
1
1
1
1
1
1
1
1
1
1
1
1
1
1
1
1
1
1
1
1
1
1
1
1
1
1
1
1
1
1
1
1
1
1
1
1
1
1
1
1
1
1
1
1
1
1
1
1
1
1
1
1
1
1
1
1
1
1
1
1
1
1
1
1
1
1
1
1
1
1
1
1
1
1
1
1
1
1
1
1
1
1
1
1
1
1
1
1
1
1
1
1
1
1
1
1
1
1
1
1
1
1
1
1
1
1
1
1
1
1
1
1
1
1
1
1
1
1
1
1
1
1
1
1
1
1
1
1
1
1
1
1
1
1
1
1
1
1
1
1
1
1
1
1
1
1
1
1
1
1
1
1
1
1
1
1
1
1
1
1
1
1
1
1
1
1
1
1
1
1
1
1
1
1
1
1
1
1
1
1
1
1
1
1
1
1
1
1
1
1
1
1
1
1
1
1
1
1
1
1
1
1
1
1
1
1
1
1
1
1
1
1
1
1
1
1
1
1
1
1
1
1
1
1
1
1
1
1
1
1
1
1
1
1
1
1
1
1
1
1
1
1
1
1
1
1
1
1
1
1
1
1
1
1
1
1
1
1
1
1
1
1
1
1
1
1
1
1
1
1
1
1
1
1
1
1
1
1
1
1
1
1
1
1
1
1
1
1
1
1
1
1
1
1
1
1
1
1
1
1
1
1
1
1
1
1
1
1
1
1
1
1
1
1
1
1
1
1
1
1
1
1
1
1
1
1
1
1
1
1
1
1
1
1
1
1
1
1
1
1
1
1
1
1
1
1
1
1
1
1
1
1
1
1
1
1
1
1
1
1
1
1
1
1
1
1
1
1
1
1
1
1
1
1
1
1
1
1
1
1
1
1
1
1
1
1
1
1
1
1
1
1
1
1
1
1
1
1
1
1
1
1
1
1
1
1
1
1
1
1
1
1
1
1
1
1
1
1
1
1
1
1
1
1
1
1
1
1
1
1
1
1
1
1
1
1
1
1
1
1
1
1
1
1
1
1
1
1
1
1
1
1
1
1
1
1
1
1
1
1
1
1
1
1
1
1
1
1
1
1
1
1
1
1
1
1
1
1
1
1
1
1
1
1
1
1
1
1
1
1
1
1
1
1
1
1
1
1
1
1
1
1
1
1
1
1
1
1
1
1
1
1
1
1
1
1
1
1
1
1
1
1
1
1
1
1
1
1
1
1
1
1
1
1
1
1
1
1
1
1
1
1
1
1
1
1
1
1
1
1
1
1
1
1
1
1
1
1
1
1
1
1
1
1
1
1
1
1
1
1
1
1
1
1
1
1
1
1
1
1
1
1
1
1
1
1
1
1
1
1
1
1
1
1
1
1
1
1
1
1
1
1
1
1
1
1
1
1
1
1
1
1
1
1
1
1
1
1
1
1
1
1
1
1
1
1
1
1
1
1
1
1
1
1
1
1
1
1
1
1
1
1
1
1
1
1
1
1
1
1
1
1
1
1
1
1
1
1
1
1
1
1
1
1
1
1
1
1
1
1
1
1
1
1
1
1
1
1
1
1
1
1
1
1
1
1
1
1
1
1
1
1
1
1
1
1
1
1
1
1
1
1
1
1
1
1
1
1
1
1
1
1
1
1
1
1
1
1
1
1
1
1
1
1
1
1
1
1
1
1
1
1
1
1
1
1
1
1
1
1
1
1
1
1
1
1
1
1
1
1
1
1
1
1
1
1
1
1
1
1
1
1
1
1
1
1
1
1
1
1
1
1
1
1
1
1
1
1
1
1
1
1
1
1
1
1
1
1
1
1
1
1
1
1
1
1
1
1
1
1
1
1
1
1
1
1
1
1
1
1
1
1
1
1
1
1
1
1
1
1
1
1
1
1
1
1
1
1
1
1
1
1
1
1
1
1
1
1
1
1
1
1
1
1
1
1
1
1
1
1
1
1
1
1
1
1
1
1
1
1
1
1
1
1
1
1
1
1
1
1
1
1
1
1
1
1
1
1
1
1
1
1
1
1
1
1
1
1
1
1
1
1
1
1
1
1
1
1
1
1
1
1
1
1
1
1
1
1
1
1
1
1
1
1
1
1
1
1
1
1
1
1
1
1
1
1
1
1
1
1
1
1
1
1
1
1
1
1
1
1
1
1
1
1
1
1
1
1
1
1
1
1
1
1
1
1
1
1
1
1
1
1
1
1
1
1
1
1
1
1
1
1
1
1
1
1
1
1
1
1
1
1
1
1
1
1
1
1
1
1
1
1
1
1
1
1
1
1
1
1
1
1
1
1
1
1
1
1
1
1
1
1
1
1
1
1
1
1
1
1
1
1
1
1
1
1
1
1
1
1
1
1
1
1
1
1
1
1
1
1
1
1
1
1
1
1
1
1
1
1
1
1
1
1
1
1
1
1
1
1
1
1
1
1
1
1
1
1
1
1
1
1
1
1
1
1
1
1
1
1
1
1
1
1
1
1
1
1
1
1
1
1
1
1
1
1
1
1
1
1
1
1
1
1
1
1
1
1
1
1
1
1
1
1
1
1
1
1
1
1
1
1
1
1
1
1
1
1
1
1
1
1
1
1
1
1
1
1
1
1
1
1
1
1
1
1
1
1
1
1
1
1
1
1
1
1
1
1
1
1
1
1
1
1
1
1
1
1
1
1
1
1
1
1
1
1
1
1
1
1
1
1
1
1
1
1
1
1
1
1
1
1
1
1
1
1
1
1
1
1
1
1
1
1
1
1
1
1
1
1
1
1
1
1
1
1
1
1
1
1
1
1
1
1
1
1
1
1
1
1
1
1
1
1
1
1
1
1
1
1
1
1
1
1
1
1
1
1
1
1
1
1
1
1
1
1
1
1
1
1
1
1
1
1
1
1
1
1
1
1
1
1
1
1
1
1
1
1
1
1
1
1
1
1
1
1
1
1
1
1
1
1
1
1
1
1
1
1
1
1
1
1
1
1
1
1
1
1
1
1
1
1
1
1
1
1
1
1
1
1
1
1
1
1
1
1
1
1
1
1
1
1
1
1
1
1
1
1
1
1
1
1
1
1
1
1
1
1
1
1
1
1
1
1
1
1
1
1
1
1
1
1
1
1
1
1
1
1
1
1
1
1
1
1
1
1
1
1
1
1
1
1
1
1
1
1
1
1
1
1
1
1
1
1
1
1
1
1
1
1
1
1
1
1
1
1
1
1
1
1
1
1
1
1
1
1
1
1
1
1
1
1
1
1
1
1
1
1
1
1
1
1
1
1
1
1
1
1
1
1
1
1
1
1
1
1
1
1
1
1
1
1
1
1
1
1
1
1
1
1
1
1
1
1
1
1
1
1
1
1
1
1
1
1
1
1
1
1
1
1
1
1
1
1
1
1
1
1
1
1
1
1
1
1
1
1
1
1
1
1
1
1
1
1
1
1
1
1
1
1
1
1
1
1
1
1
1
1
1
1
1
1
1
1
1
1
1
1
1
1
1
1
1
1
1
1
1
1
1
1
1
1
1
1
1
1
1
1
1
1
1
1
1
1
1
1
1
1
1
1
1
1
1
1
1
1
1
1
1
1
1
1
1
1
1
1
1
1
1
1
1
1
1
1
1
1
1
1
1
1
1
1
1
1
1
1
1
1
1
1
1
1
1
1
1
1
1
1
1
1
1
1
1
1
1
1
1
1
1
1
1
1
1
1
1
1
1
1
1
1
1
1
1
1
1
1
1
1
1
1
1
1
1
1
1
1
1
1
1
1
1
1
1
1
1
1
1
1
1
1
1
1
1
1
1
1
1
1
1
1
1
1
1
1
1
1
1
1
1
1
1
1
1
1
1
1
1
1
1
1
1
1
1
1
1
1
1
1
1
1
1
1
1
1
1
1
1
1
1
1
1
1
1
1
1
1
1
1
1
1
1
1
1
1
1
1
1
1
1
1
1
1
1
1
1
1
1
1
1
1
1
1
1
1
1
1
1
1
1
1
1
1
1
1
1
1
1
1
1
1
1
1
1
1
1
1
1
1
1
1
1
1
1
1
1
1
1
1
1
1
1
1
1
1
1
1
1
1
1
1
1
1
1
1
1
1
1
1
1
1
1
1
1
1
1
1
1
1
1
1
1
1
1
1
1
1
1
1
1
1
1
1
1
1
1
1
1
1
1
1
1
1
1
1
1
1
1
1
1
1
1
1
1
1
1
1
1
1
1
1
1
1
1
1
1
1
1
1
1
1
1
1
1
1
1
1
1
1
1
1
1
1
1
1
1
1
1
1
1
1
1
1
1
1
1
1
1
1
1
1
1
1
1
1
1
1
1
1
1
1
1
1
1
1
1
1
1
1
1
1
1
1
1
1
1
1
1
1
1
1
1
1
1
1
1
1
1
1
1
1
1
1
1
1
1
1
1
1
1
1
1
1
1
1
1
1
1
1
1
1
1
1
1
1
1
1
1
1
1
1
1
1
1
1
1
1
1
1
1
1
1
1
1
1
1
1
1
1
1
1
1
1
1
1
1
1
1
1
1
1
1
1
1
1
1
1
1
1
1
1
1
1
1
1
1
1
1
1
1
1
1
1
1
1
1
1
1
1
1
1
1
1
1
1
1
1
1
1
1
1
1
1
1
1
1
1
1
1
1
1
1
1
1
1
1
1
1
1
1
1
1
1
1
1
1
1
1
1
1
1
1
1
1
1
1
1
1
1
1
1
1
1
1
1
1
1
1
1
1
1
1
1
1
1
1
1
1
1
1
1
1
1
1
1
1
1
1
1
1
1
1
1
1
1
1
1
1
1
1
1
1
1
1
1
1
1
1
1
1
1
1
1
1
1
1
1
1
1
1
1
1
1
1
1
1
1
1
1
1
1
1
1
1
1
1
1
1
1
1
1
1
1
1
1
1
1
1
1
1
1
1
1
1
1
1
1
1
1
1
1
1
1
1
1
1
1
1
1
1
1
1
1
1
1
1
1
1
1
1
1
1
1
1
1
1
1
1
1
1
1
1
1
1
1
1
1
1
1
1
1
1
1
1
1
1
1
1
1
1
1
1
1
1
1
1
1
1
1
1
1
1
1
1
1
1
1
1
1
1
1
1
1
1
1
1
1
1
1
1
1
1
1
1
1
1
1
1
1
1
1
1
1
1
1
1
1
1
1
1
1
1
1
1
1
1
1
1
1
1
1
1
1
1
1
1
1
1
1
1
1
1
1
1
1
1
1
1
1
1
1
1
1
1
1
1
1
1
1
1
1
1
1
1
1
1
1
1
1
1
1
1
1
1
1
1
1
1
1
1
1
1
1
1
1
1
1
1
1
1
1
1
1
1
1
1
1
1
1
1
1
1
1
1
1
1
1
1
1
1
1
1
1
1
1
1
1
1
1
1
1
1
1
1
1
1
1
1
1
1
1
1
1
1
1
1
1
1
1
1
1
1
1
1
1
1
1
1
1
1
1
1
1
1
1
1
1
1
1
1
1
1
1
1
1
1
1
1
1
1
1
1
1
1
1
1
1
1
1
1
1
1
1
1
1
1
1
1
1
1
1
1
1
1
1
1
1
1
1
1
1
1
1
1
1
1
1
1
1
1
1
1
1
1
1
1
1
1
1
1
1
1
1
1
1
1
1
1
1
1
1
1
1
1
1
1
1
1
1
1
1
1
1
1
1
1
1
1
1
1
1
1
1
1
1
1
1
1
1
1
1
1
1
1
1
1
1
1
1
1
1
1
1
1
1
1
1
1
1
1
1
1
1
1
1
1
1
1
1
1
1
1
1
1
1
1
1
1
1
1
1
1
1
1
1
1
1
1
1
1
1
1
1
1
1
1
1
1
1
1
1
1
1
1
1
1
1
1
1
1
1
1
1
1
1
1
1
1
1
1
1
1
1
1
1
1
1
1
1
1
1
1
1
1
1
1
1
1
1
1
1
1
1
1
1
1
1
1
1
1
1
1
1
1
1
1
1
1
1
1
1
1
1
1
1
1
1
1
1
1
1
1
1
1
1
1
1
1
1
1
1
1
1
1
1
1
1
1
1
1
1
1
1
1
1
1
1
1
1
1
1
1
1
1
1
1
1
1
1
1
1
1
1
1
1
1
1
1
1
1
1
1
1
1
1
1
1
1
1
1
1
1
1
1
1
1
1
1
1
1
1
1
1
1
1
1
1
1
1
1
1
1
1
1
1
1
1
1
1
1
1
1
1
1
1
1
1
1
1
1
1
1
1
1
1
1
1
1
1
1
1
1
1
1
1
1
1
1
1
1
1
1
1
1
1
1
1
1
1
1
1
1
1
1
1
1
1
1
1
1
1
1
1
1
1
1
1
1
1
1
1
1
1
1
1
1
1
1
1
1
1
1
1
1
1
1
1
1
1
1
1
1
1
1
1
1
1
1
1
1
1
1
1
1
1
1
1
1
1
1
1
1
1
1
1
1
1
1
1
1
1
1
1
1
1
1
1
1
1
1
1
1
1
1
1
1
1
1
1
1
1
1
1
1
1
1
1
1
1
1
1
1
1
1
1
1
1
1
1
1
1
1
1
1
1
1
1
1
1
1
1
1
1
1
1
1
1
1
1
1
1
1
1
1
1
1
1
1
1
1
1
1
1
1
1
1
1
1
1
1
1
1
1
1
1
1
1
1
1
1
1
1
1
1
1
1
1
1
1
1
1
1
1
1
1
1
1
1
1
1
1
1
1
1
1
1
1
1
1
1
1
1
1
1
1
1
1
1
1
1
1
1
1
1
1
1
1
1
1
1
1
1
1
1
1
1
1
1
1
1
1
1
1
1
1
1
1
1
1
1
1
1
1
1
1
1
1
1
1
1
1
1
1
1
1
1
1
1
1
1
1
1
1
1
1
1
1
1
1
1
1
1
1
1
1
1
1
1
1
1
1
1
1
1
1
1
1
1
1
1
1
1
1
1
1
1
1
1
1
1
1
1
1
1
1
1
1
1
1
1
1
1
1
1
1
1
1
1
1
1
1
1
1
1
1
1
1
1
1
1
1
1
1
1
1
1
1
1
1
1
1
1
1
1
1
1
1
1
1
1
1
1
1
1
1
1
1
1
1
1
1
1
1
1
1
1
1
1
1
1
1
1
1
1
1
1
1
1
1
1
1
1
1
1
1
1
1
1
1
1
1
1
1
1
1
1
1
1
1
1
1
1
1
1
1
1
1
1
1
1
1
1
1
1
1
1
1
1
1
1
1
1
1
1
1
1
1
1
1
1
1
1
1
1
1
1
1
1
1
1
1
1
1
1
1
1
1
1
1
1
1
1
1
1
1
1
1
1
1
1
1
1
1
1
1
1
1
1
1
1
1
1
1
1
1
1
1
1
1
1
1
1
1
1
1
1
1
1
1
1
1
1
1
1
1
1
1
1
1
1
1
1
1
1
1
1
1
1
1
1
1
1
1
1
1
1
1
1
1
1
1
1
1
1
1
1
1
1
1
1
1
1
1
1
1
1
1
1
1
1
1
1
1
1
1
1
1
1
1
1
1
1
1
1
1
1
1
1
1
1
1
1
1
1
1
1
1
1
1
1
1
1
1
1
1
1
1
1
1
1
1
1
1
1
1
1
1
1
1
1
1
1
1
1
1
1
1
1
1
1
1
1
1
1
1
1
1
1
1
1
1
1
1
1
1
1
1
1
1
1
1
1
1
1
1
1
1
1
1
1
1
1
1
1
1
1
1
1
1
1
1
1
1
1
1
1
1
1
1
1
1
1
1
1
1
1
1
1
1
1
1
1
1
1
1
1
1
1
1
1
1
1
1
1
1
1
1
1
1
1
1
1
1
1
1
1
1
1
1
1
1
1
1
1
1
1
1
1
1
1
1
1
1
1
1
1
1
1
1
1
1
1
1
1
1
1
1
1
1
1
1
1
1
1
1
1
1
1
1
1
1
1
1
1
1
1
1
1
1
1
1
1
1
1
1
1
1
1
1
1
1
1
1
1
1
1
1
1
1
1
1
1
1
1
1
1
1
1
1
1
1
1
1
1
1
1
1
1
1
1
1
1
1
1
1
1
1
1
1
1
1
1
1
1
1
1
1
1
1
1
1
1
1
1
1
1
1
1
1
1
1
1
1
1
1
1
1
1
1
1
1
1
1
1
1
1
1
1
1
1
1
1
1
1
1
1
1
1
1
1
1
1
1
1
1
1
1
1
1
1
1
1
1
1
1
1
1
1
1
1
1
1
1
1
1
1
1
1
1
1
1
1
1
1
1
1
1
1
1
1
1
1
1
1
1
1
1
1
1
1
1
1
1
1
1
1
1
1
1
1
1
1
1
1
1
1
1
1
1
1
1
1
1
1
1
1
1
1
1
1
1
1
1
1
1
1
1
1
1
1
1
1
1
1
1
1
1
1
1
1
1
1
1
1
1
1
1
1
1
1
1
1
1
1
1
1
1
1
1
1
1
1
1
1
1
1
1
1
1
1
1
1
1
1
1
1
1
1
1
1
1
1
1
1
1
1
1
1
1
1
1
1
1
1
1
1
1
1
1
1
1
1
1
1
1
1
1
1
1
1
1
1
1
1
1
1
1
1
1
1
1
1
1
1
1
1
1
1
1
1
1
1
1
1
1
1
1
1
1
1
1
1
1
1
1
1
1
1
1
1
1
1
1
1
1
1
1
1
1
1
1
1
1
1
1
1
1
1
1
1
1
1
1
1
1
1
1
1
1
1
1
1
1
1
1
1
1
1
1
1
1
1
1
1
1
1
1
1
1
1
1
1
1
1
1
1
1
1
1
1
1
1
1
1
1
1
1
1
1
1
1
1
1
1
1
1
1
1
1
1
1
1
1
1
1
1
1
1
1
1
1
1
1
1
1
1
1
1
1
1
1
1
1
1
1
1
1
1
1
1
1
1
1
1
1
1
1
1
1
1
1
1
1
1
1
1
1
1
1
1
1
1
1
1
1
1
1
1
1
1
1
1
1
1
1
1
1
1
1
1
1
1
1
1
1
1
1
1
1
1
1
1
1
1
1
1
1
1
1
1
1
1
1
1
1
1
1
1
1
1
1
1
1
1
1
1
1
1
1
1
1
1
1
1
1
1
1
1
1
1
1
1
1
1
1
1
1
1
1
1
1
1
1
1
1
1
1
1
1
1
1
1
1
1
1
1
1
1
1
1
1
1
1
1
1
1
1
1
1
1
1
1
1
1
1
1
1
1
1
1
1
1
1
1
1
1
1
1
1
1
1
1
1
1
1
1
1
1
1
1
1
1
1
1
1
1
1
1
1
1
1
1
1
1
1
1
0
0
0
0
0
0
0
0
0
0
0
0
0
0
0
0
0
0
0
0
0
0
0
0
0

SCALARS 1DELEM_Plastic_Strain float 1
LOOKUP_TABLE default
0
0
0
0
0
0
0
0
0
0
0
0
0
0
0
0
0
0
0
0
0
0
0
0
0
0
0
0
0
0
0
0
0
0
0
0
0
0
0
0
0
0
0
0
0
0
0
0
0
0
0
0
0
0
0
0
0
0
0
0
0
0
0
0
0
0
0
0
0
0
0
0
0
0
0
0
0
0
0
0
0
0
0
0
0
0
0
0
0
0
0
0
0
0
0
0
0
0
0
0
0
0
0
0
0
0
0
0
0
0
0
0
0
0
0
0
0
0
0
0
0
0
0
0
0
0
0
0
0
0
0
0
0
0
0
0
0
0
0
0
0
0
0
0
0
0
0
0
0
0
0
0
0
0
0
0
0
0
0
0
0
0
0
0
0
0
0
0
0
0
0
0
0
0
0
0
0
0
0
0
0
0
0
0
0
0
0
0
0
0
0
0
0
0
0
0
0
0
0
0
0
0
0
0
0
0
0
0
0
0
0
0
0
0
0
0
0
0
0
0
0
0
0
0
0
0
0
0
0
0
0
0
0
0
0
0
0
0
0
0
0
0
0
0
0
0
0
0
0
0
0
0
0
0
0
0
0
0
0
0
0
0
0
0
0
0
0
0
0
0
0
0
0
0
0
0
0
0
0
0
0
0
0
0
0
0
0
0
0
0
0
0
0
0
0
0
0
0
0
0
0
0
0
0
0
0
0
0
0
0
0
0
0
0
0
0
0
0
0
0
0
0
0
0
0
0
0
0
0
0
0
0
0
0
0
0
0
0
0
0
0
0
0
0
0
0
0
0
0
0
0
0
0
0
0
0
0
0
0
0
0
0
0
0
0
0
0
0
0
0
0
0
0
0
0
0
0
0
0
0
0
0
0
0
0
0
0
0
0
0
0
0
0
0
0
0
0
0
0
0
0
0
0
0
0
0
0
0
0
0
0
0
0
0
0
0
0
0
0
0
0
0
0
0
0
0
0
0
0
0
0
0
0
0
0
0
0
0
0
0
0
0
0
0
0
0
0
0
0
0
0
0
0
0
0
0
0
0
0
0
0
0
0
0
0
0
0
0
0
0
0
0
0
0
0
0
0
0
0
0
0
0
0
0
0
0
0
0
0
0
0
0
0
0
0
0
0
0
0
0
0
0
0
0
0
0
0
0
0
0
0
0
0
0
0
0
0
0
0
0
0
0
0
0
0
0
0
0
0
0
0
0
0
0
0
0
0
0
0
0
0
0
0
0
0
0
0
0
0
0
0
0
0
0
0
0
0
0
0
0
0
0
0
0
0
0
0
0
0
0
0
0
0
0
0
0
0
0
0
0
0
0
0
0
0
0
0
0
0
0
0
0
0
0
0
0
0
0
0
0
0
0
0
0
0
0
0
0
0
0
0
0
0
0
0
0
0
0
0
0
0
0
0
0
0
0
0
0
0
0
0
0
0
0
0
0
0
0
0
0
0
0
0
0
0
0
0
0
0
0
0
0
0
0
0
0
0
0
0
0
0
0
0
0
0
0
0
0
0
0
0
0
0
0
0
0
0
0
0
0
0
0
0
0
0
0
0
0
0
0
0
0
0
0
0
0
0
0
0
0
0
0
0
0
0
0
0
0
0
0
0
0
0
0
0
0
0
0
0
0
0
0
0
0
0
0
0
0
0
0
0
0
0
0
0
0
0
0
0
0
0
0
0
0
0
0
0
0
0
0
0
0
0
0
0
0
0
0
0
0
0
0
0
0
0
0
0
0
0
0
0
0
0
0
0
0
0
0
0
0
0
0
0
0
0
0
0
0
0
0
0
0
0
0
0
0
0
0
0
0
0
0
0
0
0
0
0
0
0
0
0
0
0
0
0
0
0
0
0
0
0
0
0
0
0
0
0
0
0
0
0
0
0
0
0
0
0
0
0
0
0
0
0
0
0
0
0
0
0
0
0
0
0
0
0
0
0
0
0
0
0
0
0
0
0
0
0
0
0
0
0
0
0
0
0
0
0
0
0
0
0
0
0
0
0
0
0
0
0
0
0
0
0
0
0
0
0
0
0
0
0
0
0
0
0
0
0
0
0
0
0
0
0
0
0
0
0
0
0
0
0
0
0
0
0
0
0
0
0
0
0
0
0
0
0
0
0
0
0
0
0
0
0
0
0
0
0
0
0
0
0
0
0
0
0
0
0
0
0
0
0
0
0
0
0
0
0
0
0
0
0
0
0
0
0
0
0
0
0
0
0
0
0
0
0
0
0
0
0
0
0
0
0
0
0
0
0
0
0
0
0
0
0
0
0
0
0
0
0
0
0
0
0
0
0
0
0
0
0
0
0
0
0
0
0
0
0
0
0
0
0
0
0
0
0
0
0
0
0
0
0
0
0
0
0
0
0
0
0
0
0
0
0
0
0
0
0
0
0
0
0
0
0
0
0
0
0
0
0
0
0
0
0
0
0
0
0
0
0
0
0
0
0
0
0
0
0
0
0
0
0
0
0
0
0
0
0
0
0
0
0
0
0
0
0
0
0
0
0
0
0
0
0
0
0
0
0
0
0
0
0
0
0
0
0
0
0
0
0
0
0
0
0
0
0
0
0
0
0
0
0
0
0
0
0
0
0
0
0
0
0
0
0
0
0
0
0
0
0
0
0
0
0
0
0
0
0
0
0
0
0
0
0
0
0
0
0
0
0
0
0
0
0
0
0
0
0
0
0
0
0
0
0
0
0
0
0
0
0
0
0
0
0
0
0
0
0
0
0
0
0
0
0
0
0
0
0
0
0
0
0
0
0
0
0
0
0
0
0
0
0
0
0
0
0
0
0
0
0
0
0
0
0
0
0
0
0
0
0
0
0
0
0
0
0
0
0
0
0
0
0
0
0
0
0
0
0
0
0
0
0
0
0
0
0
0
0
0
0
0
0
0
0
0
0
0
0
0
0
0
0
0
0
0
0
0
0
0
0
0
0
0
0
0
0
0
0
0
0
0
0
0
0
0
0
0
0
0
0
0
0
0
0
0
0
0
0
0
0
0
0
0
0
0
0
0
0
0
0
0
0
0
0
0
0
0
0
0
0
0
0
0
0
0
0
0
0
0
0
0
0
0
0
0
0
0
0
0
0
0
0
0
0
0
0
0
0
0
0
0
0
0
0
0
0
0
0
0
0
0
0
0
0
0
0
0
0
0
0
0
0
0
0
0
0
0
0
0
0
0
0
0
0
0
0
0
0
0
0
0
0
0
0
0
0
0
0
0
0
0
0
0
0
0
0
0
0
0
0
0
0
0
0
0
0
0
0
0
0
0
0
0
0
0
0
0
0
0
0
0
0
0
0
0
0
0
0
0
0
0
0
0
0
0
0
0
0
0
0
0
0
0
0
0
0
0
0
0
0
0
0
0
0
0
0
0
0
0
0
0
0
0
0
0
0
0
0
0
0
0
0
0
0
0
0
0
0
0
0
0
0
0
0
0
0
0
0
0
0
0
0
0
0
0
0
0
0
0
0
0
0
0
0
0
0
0
0
0
0
0
0
0
0
0
0
0
0
0
0
0
0
0
0
0
0
0
0
0
0
0
0
0
0
0
0
0
0
0
0
0
0
0
0
0
0
0
0
0
0
0
0
0
0
0
0
0
0
0
0
0
0
0
0
0
0
0
0
0
0
0
0
0
0
0
0
0
0
0
0
0
0
0
0
0
0
0
0
0
0
0
0
0
0
0
0
0
0
0
0
0
0
0
0
0
0
0
0
0
0
0
0
0
0
0
0
0
0
0
0
0
0
0
0
0
0
0
0
0
0
0
0
0
0
0
0
0
0
0
0
0
0
0
0
0
0
0
0
0
0
0
0
0
0
0
0
0
0
0
0
0
0
0
0
0
0
0
0
0
0
0
0
0
0
0
0
0
0
0
0
0
0
0
0
0
0
0
0
0
0
0
0
0
0
0
0
0
0
0
0
0
0
0
0
0
0
0
0
0
0
0
0
0
0
0
0
0
0
0
0
0
0
0
0
0
0
0
0
0
0
0
0
0
0
0
0
0
0
0
0
0
0
0
0
0
0
0
0
0
0
0
0
0
0
0
0
0
0
0
0
0
0
0
0
0
0
0
0
0
0
0
0
0
0
0
0
0
0
0
0
0
0
0
0
0
0
0
0
0
0
0
0
0
0
0
0
0
0
0
0
0
0
0
0
0
0
0
0
0
0
0
0
0
0
0
0
0
0
0
0
0
0
0
0
0
0
0
0
0
0
0
0
0
0
0
0
0
0
0
0
0
0
0
0
0
0
0
0
0
0
0
0
0
0
0
0
0
0
0
0
0
0
0
0
0
0
0
0
0
0
0
0
0
0
0
0
0
0
0
0
0
0
0
0
0
0
0
0
0
0
0
0
0
0
0
0
0
0
0
0
0
0
0
0
0
0
0
0
0
0
0
0
0
0
0
0
0
0
0
0
0
0
0
0
0
0
0
0
0
0
0
0
0
0
0
0
0
0
0
0
0
0
0
0
0
0
0
0
0
0
0
0
0
0
0
0
0
0
0
0
0
0
0
0
0
0
0
0
0
0
0
0
0
0
0
0
0
0
0
0
0
0
0
0
0
0
0
0
0
0
0
0
0
0
0
0
0
0
0
0
0
0
0
0
0
0
0
0
0
0
0
0
0
0
0
0
0
0
0
0
0
0
0
0
0
0
0
0
0
0
0
0
0
0
0
0
0
0
0
0
0
0
0
0
0
0
0
0
0
0
0
0
0
0
0
0
0
0
0
0
0
0
0
0
0
0
0
0
0
0
0
0
0
0
0
0
0
0
0
0
0
0
0
0
0
0
0
0
0
0
0
0
0
0
0
0
0
0
0
0
0
0
0
0
0
0
0
0
0
0
0
0
0
0
0
0
0
0
0
0
0
0
0
0
0
0
0
0
0
0
0
0
0
0
0
0
0
0
0
0
0
0
0
0
0
0
0
0
0
0
0
0
0
0
0
0
0
0
0
0
0
0
0
0
0
0
0
0
0
0
0
0
0
0
0
0
0
0
0
0
0
0
0
0
0
0
0
0
0
0
0
0
0
0
0
0
0
0
0
0
0
0
0
0
0
0
0
0
0
0
0
0
0
0
0
0
0
0
0
0
0
0
0
0
0
0
0
0
0
0
0
0
0
0
0
0
0
0
0
0
0
0
0
0
0
0
0
0
0
0
0
0
0
0
0
0
0
0
0
0
0
0
0
0
0
0
0
0
0
0
0
0
0
0
0
0
0
0
0
0
0
0
0
0
0
0
0
0
0
0
0
0
0
0
0
0
0
0
0
0
0
0
0
0
0
0
0
0
0
0
0
0
0
0
0
0
0
0
0
0
0
0
0
0
0
0
0
0
0
0
0
0
0
0
0
0
0
0
0
0
0
0
0
0
0
0
0
0
0
0
0
0
0
0
0
0
0
0
0
0
0
0
0
0
0
0
0
0
0
0
0
0
0
0
0
0
0
0
0
0
0
0
0
0
0
0
0
0
0
0
0
0
0
0
0
0
0
0
0
0
0
0
0
0
0
0
0
0
0
0
0
0
0
0
0
0
0
0
0
0
0
0
0
0
0
0
0
0
0
0
0
0
0
0
0
0
0
0
0
0
0
0
0
0
0
0
0
0
0
0
0
0
0
0
0
0
0
0
0
0
0
0
0
0
0
0
0
0
0
0
0
0
0
0
0
0
0
0
0
0
0
0
0
0
0
0
0
0
0
0
0
0
0
0
0
0
0
0
0
0
0
0
0
0
0
0
0
0
0
0
0
0
0
0
0
0
0
0
0
0
0
0
0
0
0
0
0
0
0
0
0
0
0
0
0
0
0
0
0
0
0
0
0
0
0
0
0
0
0
0
0
0
0
0
0
0
0
0
0
0
0
0
0
0
0
0
0
0
0
0
0
0
0
0
0
0
0
0
0
0
0
0
0
0
0
0
0
0
0
0
0
0
0
0
0
0
0
0
0
0
0
0
0
0
0
0
0
0
0
0
0
0
0
0
0
0
0
0
0
0
0
0
0
0
0
0
0
0
0
0
0
0
0
0
0
0
0
0
0
0
0
0
0
0
0
0
0
0
0
0
0
0
0
0
0
0
0
0
0
0
0
0
0
0
0
0
0
0
0
0
0
0
0
0
0
0
0
0
0
0
0
0
0
0
0
0
0
0
0
0
0
0
0
0
0
0
0
0
0
0
0
0
0
0
0
0
0
0
0
0
0
0
0
0
0
0
0
0
0
0
0
0
0
0
0
0
0
0
0
0
0
0
0
0
0
0
0
0
0
0
0
0
0
0
0
0
0
0
0
0
0
0
0
0
0
0
0
0
0
0
0
0
0
0
0
0
0
0
0
0
0
0
0
0
0
0
0
0
0
0
0
0
0
0
0
0
0
0
0
0
0
0
0
0
0
0
0
0
0
0
0
0
0
0
0
0
0
0
0
0
0
0
0
0
0
0
0
0
0
0
0
0
0
0
0
0
0
0
0
0
0
0
0
0
0
0
0
0
0
0
0
0
0
0
0
0
0
0
0
0
0
0
0
0
0
0
0
0
0
0
0
0
0
0
0
0
0
0
0
0
0
0
0
0
0
0
0
0
0
0
0
0
0
0
0
0
0
0
0
0
0
0
0
0
0
0
0
0
0
0
0
0
0
0
0
0
0
0
0
0
0
0
0
0
0
0
0
0
0
0
0
0
0
0
0
0
0
0
0
0
0
0
0
0
0
0
0
0
0
0
0
0
0
0
0
0
0
0
0
0
0
0
0
0
0
0
0
0
0
0
0
0
0
0
0
0
0
0
0
0
0
0
0
0
0
0
0
0
0
0
0
0
0
0
0
0
0
0
0
0
0
0
0
0
0
0
0
0
0
0
0
0
0
0
0
0
0
0
0
0
0
0
0
0
0
0
0
0
0
0
0
0
0
0
0
0
0
0
0
0
0
0
0
0
0
0
0
0
0
0
0
0
0
0
0
0
0
0
0
0
0
0
0
0
0
0
0
0
0
0
0
0
0
0
0
0
0
0
0
0
0
0
0
0
0
0
0
0
0
0
0
0
0
0
0
0
0
0
0
0
0
0
0
0
0
0
0
0
0
0
0
0
0
0
0
0
0
0
0
0
0
0
0
0
0
0
0
0
0
0
0
0
0
0
0
0
0
0
0
0
0
0
0
0
0
0
0
0
0
0
0
0
0
0
0
0
0
0
0
0
0
0
0
0
0
0
0
0
0
0
0
0
0
0
0
0
0
0
0
0
0
0
0
0
0
0
0
0
0
0
0
0
0
0
0
0
0
0
0
0
0
0
0
0
0
0
0
0
0
0
0
0
0
0
0
0
0
0
0
0
0
0
0
0
0
0
0
0
0
0
0
0
0
0
0
0
0
0
0
0
0
0
0
0
0
0
0
0
0
0
0
0
0
0
0
0
0
0
0
0
0
0
0
0
0
0
0
0
0
0
0
0
0
0
0
0
0
0
0
0
0
0
0
0
0
0
0
0
0
0
0
0
0
0
0
0
0
0
0
0
0
0
0
0
0
0
0
0
0
0
0
0
0
0
0
0
0
0
0
0
0
0
0
0
0
0
0
0
0
0
0
0
0
0
0
0
0
0
0
0
0
0
0
0
0
0
0
0
0
0
0
0
0
0
0
0
0
0
0
0
0
0
0
0
0
0
0
0
0
0
0
0
0
0
0
0
0
0
0
0
0
0
0
0
0
0
0
0
0
0
0
0
0
0
0
0
0
0
0
0
0
0
0
0
0
0
0
0
0
0
0
0
0
0
0
0
0
0
0
0
0
0
0
0
0
0
0
0
0
0
0
0
0
0
0
0
0
0
0
0
0
0
0
0
0
0
0
0
0
0
0
0
0
0
0
0
0
0
0
0
0
0
0
0
0
0
0
0
0
0
0
0
0
0
0
0
0
0
0
0
0
0
0
0
0
0
0
0
0
0
0
0
0
0
0
0
0
0
0
0
0
0
0
0
0
0
0
0
0
0
0
0
0
0
0
0
0
0
0
0
0
0
0
0
0
0
0
0
0
0
0
0
0
0
0
0
0
0
0
0
0
0
0
0
0
0
0
0
0
0
0
0
0
0
0
0
0
0
0
0
0
0
0
0
0
0
0
0
0
0
0
0
0
0
0
0
0
0
0
0
0
0
0
0
0
0
0
0
0
0
0
0
0
0
0
0
0
0
0
0
0
0
0
0
0
0
0
0
0
0
0
0
0
0
0
0
0
0
0
0
0
0
0
0
0
0
0
0
0
0
0
0
0
0
0
0
0
0
0
0
0
0
0
0
0
0
0
0
0
0
0
0
0
0
0
0
0
0
0
0
0
0
0
0
0
0
0
0
0
0
0
0
0
0
0
0
0
0
0
0
0
0
0
0
0
0
0
0
0
0
0
0
0
0
0
0
0
0
0
0
0
0
0
0
0
0
0
0
0
0
0
0
0
0
0
0
0
0
0
0
0
0
0
0
0
0
0
0
0
0
0
0
0
0
0
0
0
0
0
0
0
0
0
0
0
0
0
0
0
0
0
0
0
0
0
0
0
0
0
0
0
0
0
0
0
0
0
0
0
0
0
0
0
0
0
0
0
0
0
0
0
0
0
0
0
0
0
0
0
0
0
0
0
0
0
0
0
0
0
0
0
0
0
0
0
0
0
0
0
0
0
0
0
0
0
0
0
0
0
0
0
0
0
0
0
0
0
0
0
0
0
0
0
0
0
0
0
0
0
0
0
0
0
0
0
0
0
0
0
0
0
0
0
0
0
0
0
0
0
0
0
0
0
0
0
0
0
0
0
0
0
0
0
0
0
0
0
0
0
0
0
0
0
0
0
0
0
0
0
0
0
0
0
0
0
0
0
0
0
0
0
0
0
0
0
0
0
0
0
0
0
0
0
0
0
0
0
0
0
0
0
0
0
0
0
0
0
0
0
0
0
0
0
0
0
0
0
0
0
0
0
0
0
0
0
0
0
0
0
0
0
0
0
0
0
0
0
0
0
0
0
0
0
0
0
0
0
0
0
0
0
0
0
0
0
0
0
0
0
0
0
0
0
0
0
0
0
0
0
0
0
0
0
0
0
0
0
0
0
0
0
0
0
0
0
0
0
0
0
0
0
0
0
0
0
0
0
0
0
0
0
0
0
0
0
0
0
0
0
0
0
0
0
0
0
0
0
0
0
0
0
0
0
0
0
0
0
0
0
0
0
0
0
0
0
0
0
0
0
0
0
0
0
0
0
0
0
0
0
0
0
0
0
0
0
0
0
0
0
0
0
0
0
0
0
0
0
0
0
0
0
0
0
0
0
0
0
0
0
0
0
0
0
0
0
0
0
0
0
0
0
0
0
0
0
0
0
0
0
0
0
0
0
0
0
0
0
0
0
0
0
0
0
0
0
0
0
0
0
0
0
0
0
0
0
0
0
0
0
0
0
0
0
0
0
0
0
0
0
0
0
0
0
0
0
0
0
0
0
0
0
0
0
0
0
0
0
0
0
0
0
0
0
0
0
0
0
0
0
0
0
0
0
0
0
0
0
0
0
0
0
0
0
0
0
0
0
0
0
0
0
0
0
0
0
0
0
0
0
0
0
0
0
0
0
0
0
0
0
0
0
0
0
0
0
0
0
0
0
0
0
0
0
0
0
0
0
0
0
0
0
0
0
0
0
0
0
0
0
0
0
0
0
0
0
0
0
0
0
0
0
0
0
0
0
0
0
0
0
0
0
0
0
0
0
0
0
0
0
0
0
0
0
0
0
0
0
0
0
0
0
0
0
0
0
0
0
0
0
0
0
0
0
0
0
0
0
0
0
0
0
0
0
0
0
0
0
0
0
0
0
0
0
0
0
0
0
0
0
0
0
0
0
0
0
0
0
0
0
0
0
0
0
0
0
0
0
0
0
0
0
0
0
0
0
0
0
0
0
0
0
0
0
0
0
0
0
0
0
0
0
0
0
0
0
0
0
0
0
0
0
0
0
0
0
0
0
0
0
0
0
0
0
0
0
0
0
0
0
0
0
0
0
0
0
0
0
0
0
0
0
0
0
0
0
0
0
0
0
0
0
0
0
0
0
0
0
0
0
0
0
0
0
0
0
0
0
0
0
0
0
0
0
0
0
0
0
0
0
0
0
0
0
0
0
0
0
0
0
0
0
0
0
0
0
0
0
0
0
0
0
0
0
0
0
0
0
0
0
0
0
0
0
0
0
0
0
0
0
0
0
0
0
0
0
0
0
0
0
0
0
0
0
0
0
0
0
0
0
0
0
0
0
0
0
0
0
0
0
0
0
0
0
0
0
0
0
0
0
0
0
0
0
0
0
0
0
0
0
0
0
0
0
0
0
0
0
0
0
0
0
0
0
0
0
0
0
0
0
0
0
0
0
0
0
0
0
0
0
0
0
0
0
0
0
0
0
0
0
0
0
0
0
0
0
0
0
0
0
0
0
0
0
0
0
0
0
0
0
0
0
0
0
0
0
0
0
0
0
0
0
0
0
0
0
0
0
0
0
0
0
0
0
0
0
0
0
0
0
0
0
0
0
0
0
0
0
0
0
0
0
0
0
0
0
0
0
0
0
0
0
0
0
0
0
0
0
0
0
0
0
0
0
0
0
0
0
0
0
0
0
0
0
0
0
0
0
0
0
0
0
0
0
0
0
0
0
0
0
0
0
0
0
0
0
0
0
0
0
0
0
0
0
0
0
0
0
0
0
0
0
0
0
0
0
0
0
0
0
0
0
0
0
0
0
0
0
0
0
0
0
0
0
0
0
0
0
0
0
0
0
0
0
0
0
0
0
0
0
0
0
0
0
0
0
0
0
0
0
0
0
0
0
0
0
0
0
0
0
0
0
0
0
0
0
0
0
0
0
0
0
0
0
0
0
0
0
0
0
0
0
0
0
0
0
0
0
0
0
0
0
0
0
0
0
0
0
0
0
0
0
0
0
0
0
0
0
0
0
0
0
0
0
0
0
0
0
0
0
0
0
0
0
0
0
0
0
0
0
0
0
0
0
0
0
0
0
0
0
0
0
0
0
0
0
0
0
0
0
0
0
0
0
0
0
0
0
0
0
0
0
0
0
0
0
0
0
0
0
0
0
0
0
0
0
0
0
0
0
0
0
0
0
0
0
0
0
0
0
0
0
0
0
0
0
0
0
0
0
0
0
0
0
0
0
0
0
0
0
0
0
0
0
0
0
0
0
0
0
0
0
0
0
0
0
0
0
0
0
0
0
0
0
0
0
0
0
0
0
0
0
0
0
0
0
0
0
0
0
0
0
0
0
0
0
0
0
0
0
0
0
0
0
0
0
0
0
0
0
0
0
0
0
0
0
0
0
0
0
0
0
0
0
0
0
0
0
0
0
0
0
0
0
0
0
0
0
0
0
0
0
0
0
0
0
0
0
0
0
0
0
0
0
0
0
0
0
0
0
0
0
0
0
0
0
0
0
0
0
0
0
0
0
0
0
0
0
0
0
0
0
0
0
0
0
0
0
0
0
0
0
0
0
0
0
0
0
0
0
0
0
0
0
0
0
0
0
0
0
0
0
0
0
0
0
0
0
0
0
0
0
0
0
0
0
0
0
0
0
0
0
0
0
0
0
0
0
0
0
0
0
0
0
0
0
0
0
0
0
0
0
0
0
0
0
0
0
0
0
0
0
0
0
0
0
0
0
0
0
0
0
0
0
0
0
0
0
0
0
0
0
0
0
0
0
0
0
0
0
0
0
0
0
0
0
0
0
0
0
0
0
0
0
0
0
0
0
0
0
0
0
0
0
0
0
0
0
0
0
0
0
0
0
0
0
0
0
0
0
0
0
0
0
0
0
0
0
0
0
0
0
0
0
0
0
0
0
0
0
0
0
0
0
0
0
0
0
0
0
0
0
0
0
0
0
0
0
0
0
0
0
0
0
0
0
0
0
0
0
0
0
0
0
0
0
0
0
0
0
0
0
0
0
0
0
0
0
0
0
0
0
0
0
0
0
0
0
0
0
0
0
0
0
0
0
0
0
0
0
0
0
0
0
0
0
0
0
0
0
0
0
0
0
0
0
0
0
0
0
0
0
0
0
0
0
0
0
0
0
0
0
0
0
0
0
0
0
0
0
0
0
0
0
0
0
0
0
0
0
0
0
0
0
0
0
0
0
0
0
0
0
0
0
0
0
0
0
0
0
0
0
0
0
0
0
0
0
0
0
0
0
0
0
0
0
0
0
0
0
0
0
0
0
0
0
0
0
0
0
0
0
0
0
0
0
0
0
0
0
0
0
0
0
0
0
0
0
0
0
0
0
0
0
0
0
0
0
0
0
0
0
0
0
0
0
0
0
0
0
0
0
0
0
0
0
0
0
0
0
0
0
0
0
0
0
0
0
0
0
0
0
0
0
0
0
0
0
0
0
0
0
0
0
0
0
0
0
0
0
0
0
0
0
0
0
0
0
0
0
0
0
0
0
0
0
0
0
0
0
0
0
0
0
0
0
0
0
0
0
0
0
0
0
0
0
0
0
0
0
0
0
0
0
0
0
0
0
0
0
0
0
0
0
0
0
0
0
0
0
0
0
0
0
0
0
0
0
0
0
0
0
0
0
0
0
0
0
0
0
0
0
0
0
0
0
0
0
0
0
0
0
0
0
0
0
0
0
0
0
0
0
0
0
0
0
0
0
0
0
0
0
0
0
0
0
0
0
0
0
0
0
0
0
0
0
0
0
0
0
0
0
0
0
0
0
0
0
0
0
0
0
0
0
0
0
0
0
0
0
0
0
0
0
0
0
0
0
0
0
0
0
0
0
0
0
0
0
0
0
0
0
0
0
0
0
0
0
0
0
0
0
0
0
0
0
0
0
0
0
0
0
0
0
0
0
0
0
0
0
0
0
0
0
0
0
0
0
0
0
0
0
0
0
0
0
0
0
0
0
0
0
0
0
0
0
0
0
0
0
0
0
0
0
0
0
0
0
0
0
0
0
0
0
0
0
0
0
0
0
0
0
0
0
0
0
0
0
0
0
0
0
0
0
0
0
0
0
0
0
0
0
0
0
0
0
0
0
0
0
0
0
0
0
0
0
0
0
0
0
0
0
0
0
0
0
0
0
0
0
0
0
0
0
0
0
0
0
0
0
0
0
0
0
0
0
0
0
0
0
0
0
0
0
0
0
0
0
0
0
0
0
0
0
0
0
0
0
0
0
0
0
0
0
0
0
0
0
0
0
0
0
0
0
0
0
0
0
0
0
0
0
0
0
0
0
0
0
0
0
0
0
0
0
0
0
0
0
0
0
0
0
0
0
0
0
0
0
0
0
0
0
0
0
0
0
0
0
0
0
0
0
0
0
0
0
0
0
0
0
0
0
0
0
0
0
0
0
0
0
0
0
0
0
0
0
0
0
0
0
0
0
0
0
0
0
0
0
0
0
0
0
0
0
0
0
0
0
0
0
0
0
0
0
0
0
0
0
0
0
0
0
0
0
0
0
0
0
0
0
0
0
0
0
0
0
0
0
0
0
0
0
0
0
0
0
0
0
0
0
0
0
0
0
0
0
0
0
0
0
0
0
0
0
0
0
0
0
0
0
0
0
0
0
0
0
0
0
0
0
0
0
0
0
0
0
0
0
0
0
0
0
0
0
0
0
0
0
0
0
0
0
0
0
0
0
0
0
0
0
0
0
0
0
0
0
0
0
0
0
0
0
0
0
0
0
0
0
0
0
0
0
0
0
0
0
0
0
0
0
0
0
0
0
0
0
0
0
0
0
0
0
0
0
0
0
0
0
0
0
0
0
0
0
0
0
0
0
0
0
0
0
0
0
0
0
0
0
0
0
0
0
0
0
0
0
0
0
0
0
0
0
0
0
0
0
0
0
0
0
0
0
0
0
0
0
0
0
0
0
0
0
0
0
0
0
0
0
0
0
0
0
0
0
0
0
0
0
0
0
0
0
0
0
0
0
0
0
0
0
0
0
0
0
0
0
0
0
0
0
0
0
0
0
0
0
0
0
0
0
0
0
0
0
0
0
0
0
0
0
0
0
0
0
0
0
0
0
0
0
0
0
0
0
0
0
0
0
0
0
0
0
0
0
0
0
0
0
0
0
0
0
0
0
0
0
0
0
0
0
0
0
0
0
0
0
0
0
0
0
0
0
0
0
0
0
0
0
0
0
0
0
0
0
0
0
0
0
0
0
0
0
0
0
0
0
0
0
0
0
0
0
0
0
0
0
0
0
0
0
0
0
0
0
0
0
0
0
0
0
0
0
0
0
0
0
0
0
0
0
0
0
0
0
0
0
0
0
0
0
0
0
0
0
0
0
0
0
0
0
0
0
0
0
0
0
0
0
0
0
0
0
0
0
0
0
0
0
0
0
0
0
0
0
0
0
0
0
0
0
0
0
0
0
0
0
0
0
0
0
0
0
0
0
0
0
0
0
0
0
0
0
0
0
0
0
0
0
0
0
0
0
0
0
0
0
0
0
0
0
0
0
0
0
0
0
0
0
0
0
0
0
0
0
0
0
0
0
0
0
0
0
0
0
0
0
0
0
0
0
0
0
0
0
0
0
0
0
0
0
0
0
0
0
0
0
0
0
0
0
0
0
0
0
0
0
0
0
0
0
0
0
0
0
0
0
0
0
0
0
0
0
0
0
0
0
0
0
0
0
0
0
0
0
0
0
0
0
0
0
0
0
0
0
0
0
0
0
0
0
0
0
0
0
0
0
0
0
0
0
0
0
0
0
0
0
0
0
0
0
0
0
0
0
0
0
0
0
0
0
0
0
0
0
0
0
0
0
0
0
0
0
0
0
0
0
0
0
0
0
0
0
0
0
0
0
0
0
0
0
0
0
0
0
0
0
0
0
0
0
0
0
0
0
0
0
0
0
0
0
0
0
0
0
0
0
0
0
0
0
0
0
0
0
0
0
0
0
0
0
0
0
0
0
0
0
0
0
0
0
0
0
0
0
0
0
0
0
0
0
0
0
0
0
0
0
0
0
0
0
0
0
0
0
0
0
0
0
0
0
0
0
0
0
0
0
0
0
0
0
0
0
0
0
0
0
0
0
0
0
0
0
0
0
0
0
0
0
0
0
0
0
0
0
0
0
0
0
0
0
0
0
0
0
0
0
0
0
0
0
0
0
0
0
0
0
0
0
0
0
0
0
0
0
0
0
0
0
0
0
0
0
0
0
0
0
0
0
0
0
0
0
0
0
0
0
0
0
0
0
0
0
0
0
0
0
0
0
0
0
0
0
0
0
0
0
0
0
0
0
0
0
0
0
0
0
0
0
0
0
0
0
0
0
0
0
0
0
0
0
0
0
0
0
0
0
0
0
0
0
0
0
0
0
0
0
0
0
0
0
0
0
0
0
0
0
0
0
0
0
0
0
0
0
0
0
0
0
0
0
0
0
0
0
0
0
0
0
0
0
0
0
0
0
0
0
0
0
0
0
0
0
0
0
0
0
0
0
0
0
0
0
0
0
0
0
0
0
0
0
0
0
0
0
0
0
0
0
0
0
0
0
0
0
0
0
0
0
0
0
0
0
0
0
0
0
0
0
0
0
0
0
0
0
0
0
0
0
0
0
0
0
0
0
0
0
0
0
0
0
0
0
0
0
0
0
0
0
0
0
0
0
0
0
0
0
0
0
0
0
0
0
0
0
0
0
0
0
0
0
0
0
0
0
0
0
0
0
0
0
0
0
0
0
0
0
0
0
0
0
0
0
0
0
0
0
0
0
0
0
0
0
0
0
0
0
0
0
0
0
0
0
0
0
0
0
0
0
0
0
0
0
0
0
0
0
0
0
0
0
0
0
0
0
0
0
0
0
0
0
0
0
0
0
0
0
0
0
0
0
0
0
0
0
0
0
0
0
0
0
0
0
0
0
0
0
0
0
0
0
0
0
0
0
0
0
0
0
0
0
0
0
0
0
0
0
0
0
0
0
0
0
0
0
0
0
0
0
0
0
0
0
0
0
0
0
0
0
0
0
0
0
0
0
0
0
0
0
0
0
0
0
0
0
0
0
0
0
0
0
0
0
0
0
0
0
0
0
0
0
0
0
0
0
0
0
0
0
0
0
0
0
0
0
0
0
0
0
0
0
0
0
0
0
0
0
0
0
0
0
0
0
0
0
0
0
0
0
0
0
0
0
0
0
0
0
0
0
0
0
0
0
0
0
0
0
0
0
0
0
0
0
0
0
0
0
0
0
0
0
0
0
0
0
0
0
0
0
0
0
0
0
0
0
0
0
0
0
0
0
0
0
0
0
0
0
0
0
0
0
0
0
0
0
0
0
0
0
0
0
0
0
0
0
0
0
0
0
0
0
0
0
0
0
0
0
0
0
0
0
0
0
0
0
0
0
0
0
0
0
0
0
0
0
0
0
0
0
0
0
0
0
0
0
0
0
0
0
0
0
0
0
0
0
0
0
0
0
0
0
0
0
0
0
0
0
0
0
0
0
0
0
0
0
0
0
0
0
0
0
0
0
0
0
0
0
0
0
0
0
0
0
0
0
0
0
0
0
0
0
0
0
0
0
0
0
0
0
0
0
0
0
0
0
0
0
0
0
0
0
0
0
0
0
0
0
0
0
0
0
0
0
0
0
0
0
0
0
0
0
0
0
0
0
0
0
0
0
0
0
0
0
0
0
0
0
0
0
0
0
0
0
0
0
0
0
0
0
0
0
0
0
0
0
0
0
0
0
0
0
0
0
0
0
0
0
0
0
0
0
0
0
0
0
0
0
0
0
0
0
0
0
0
0
0
0
0
0
0
0
0
0
0
0
0
0
0
0
0
0
0
0
0
0
0
0
0
0
0
0
0
0
0
0
0
0
0
0
0
0
0
0
0
0
0
0
0
0
0
0
0
0
0
0
0
0
0
0
0
0
0
0
0
0
0
0
0
0
0
0
0
0
0
0
0
0
0
0
0
0
0
0
0
0
0
0
0
0
0
0
0
0
0
0
0
0
0
0
0
0
0
0
0
0
0
0
0
0
0
0
0
0
0
0
0
0
0
0
0
0
0
0
0
0
0
0
0
0
0
0
0
0
0
0
0
0
0
0
0
0
0
0
0
0
0
0
0
0
0
0
0
0
0
0
0
0
0
0
0
0
0
0
0
0
0
0
0
0
0
0
0
0
0
0
0
0
0
0
0
0
0
0
0
0
0
0
0
0
0
0
0
0
0
0
0
0
0
0
0
0
0
0
0
0
0
0
0
0
0
0
0
0
0
0
0
0
0
0
0
0
0
0
0
0
0
0
0
0
0
0
0
0
0
0
0
0
0
0
0
0
0
0
0
0
0
0
0
0
0
0
0
0
0
0
0
0
0
0
0
0
0
0
0
0
0
0
0
0
0
0
0
0
0
0
0
0
0
0
0
0
0
0
0
0
0
0
0
0
0
0
0
0
0
0
0
0
0
0
0
0
0
0
0
0
0
0
0
0
0
0
0
0
0
0
0
0
0
0
0
0
0
0
0
0
0
0
0
0
0
0
0
0
0
0
0
0
0
0
0
0
0
0
0
0
0
0
0
0
0
0
0
0
0
0
0
0
0
0
0
0
0
0
0
0
0
0
0
0
0
0
0
0
0
0
0
0
0
0
0
0
0
0
0
0
0
0
0
0
0
0
0
0
0
0
0
0
0
0
0
0
0
0
0
0
0
0
0
0
0
0
0
0
0
0
0
0
0
0
0
0
0
0
0
0
0
0
0
0
0
0
0
0
0
0
0
0
0
0
0
0
0
0
0
0
0
0
0
0
0
0
0
0
0
0
0
0
0
0
0
0
0
0
0
0
0
0
0
0
0
0
0
0
0
0
0
0
0
0
0
0
0
0
0
0
0
0
0
0
0
0
0
0
0
0
0
0
0
0
0
0
0
0
0
0
0
0
0
0
0
0
0
0
0
0
0
0
0
0
0
0
0
0
0
0
0
0
0
0
0
0
0
0
0
0
0
0
0
0
0
0
0
0
0
0
0
0
0
0
0
0
0
0
0
0
0
0
0
0
0
0
0
0
0
0
0
0
0
0
0
0
0
0
0
0
0
0
0
0
0
0
0
0
0
0
0
0
0
0
0
0
0
0
0
0
0
0
0
0
0
0
0
0
0
0
0
0
0
0
0
0
0
0
0
0
0
0
0
0
0
0
0
0
0
0
0
0
0
0
0
0
0
0
0
0
0
0
0
0
0
0
0
0
0
0
0
0
0
0
0
0
0
0
0
0
0
0
0
0
0
0
0
0
0
0
0
0
0
0
0
0
0
0
0
0
0
0
0
0
0
0
0
0
0
0
0
0
0
0
0
0
0
0
0
0
0
0
0
0
0
0
0
0
0
0
0
0
0
0
0
0
0
0
0
0
0
0
0
0
0
0
0
0
0
0
0
0
0
0
0
0
0
0
0
0
0
0
0
0
0
0
0
0
0
0
0
0
0
0
0
0
0
0
0
0
0
0
0
0
0
0
0
0
0
0
0
0
0
0
0
0
0
0
0
0
0
0
0
0
0
0
0
0
0
0
0
0
0
0
0
0
0
0
0
0
0
0
0
0
0
0
0
0
0
0
0
0
0
0
0
0
0
0
0
0
0
0
0
0
0
0
0
0
0
0
0
0
0
0
0
0
0
0
0
0
0
0
0
0
0
0
0
0
0
0
0
0
0
0
0
0
0
0
0
0
0
0
0
0
0
0
0
0
0
0
0
0
0
0
0
0
0
0
0
0
0
0
0
0
0
0
0
0
0
0
0
0
0
0
0
0
0
0
0
0
0
0
0
0
0
0
0
0
0
0
0
0
0
0
0
0
0
0
0
0
0
0
0
0
0
0
0
0
0
0
0
0
0
0
0
0
0
0
0
0
0
0
0
0
0
0
0
0
0
0
0
0
0
0
0
0
0
0
0
0
0
0
0
0
0
0
0
0
0
0
0
0
0
0
0
0
0
0
0
0
0
0
0
0
0
0
0
0
0
0
0
0
0
0
0
0
0
0
0
0
0
0
0
0
0
0
0
0
0
0
0
0
0
0
0
0
0
0
0
0
0
0
0
0
0
0
0
0
0
0
0
0
0
0
0
0
0
0
0
0
0
0
0
0
0
0
0
0
0
0
0
0
0
0
0
0
0
0
0
0
0
0
0
0
0
0
0
0
0
0
0
0
0
0
0
0
0
0
0
0
0
0
0
0
0
0
0
0
0
0
0
0
0
0
0
0
0
0
0
0
0
0
0
0
0
0
0
0
0
0
0
0
0
0
0
0
0
0
0
0
0
0
0
0
0
0
0
0
0
0
0
0
0
0
0
0
0
0
0
0
0
0
0
0
0
0
0
0
0
0
0
0
0
0
0
0
0
0
0
0
0
0
0
0
0
0
0
0
0
0
0
0
0
0
0
0
0
0
0
0
0
0
0
0
0
0
0
0
0
0
0
0
0
0
0
0
0
0
0
0
0
0
0
0
0
0
0
0
0
0
0
0
0
0
0
0
0
0
0
0
0
0
0
0
0
0
0
0
0
0
0
0
0
0
0
0
0
0
0
0
0
0
0
0
0
0
0
0
0
0
0
0
0
0
0
0
0
0
0
0
0
0
0
0
0
0
0
0
0
0
0
0
0
0
0
0
0
0
0
0
0
0
0
0
0
0
0
0
0
0
0
0
0
0
0
0
0
0
0
0
0
0
0
0
0
0
0
0
0
0
0
0
0
0
0
0
0
0
0
0
0
0
0
0
0
0
0
0
0
0
0
0
0
0
0
0
0
0
0
0
0
0
0
0
0
0
0
0
0
0
0
0
0
0
0
0
0
0
0
0
0
0
0
0
0
0
0
0
0
0
0
0
0
0
0
0
0
0
0
0
0
0
0
0
0
0
0
0
0
0
0
0
0
0
0
0
0
0
0
0
0
0
0
0
0
0
0
0
0
0
0
0
0
0
0
0
0
0
0
0
0
0
0
0
0
0
0
0
0
0
0
0
0
0
0
0
0
0
0
0
0
0
0
0
0
0
0
0
0
0
0
0
0
0
0
0
0
0
0
0
0
0
0
0
0
0
0
0
0
0
0
0
0
0
0
0
0
0
0
0
0
0
0
0
0
0
0
0
0
0
0
0
0
0
0
0
0
0
0
0
0
0
0
0
0
0
0
0
0
0
0
0
0
0
0
0
0
0
0
0
0
0
0
0
0
0
0
0
0
0
0
0
0
0
0
0
0
0
0
0
0
0
0
0
0
0
0
0
0
0
0
0
0
0
0
0
0
0
0
0
0
0
0
0
0
0
0
0
0
0
0
0
0
0
0
0
0
0
0
0
0
0
0
0
0
0
0
0
0
0
0
0
0
0
0
0
0
0
0
0
0
0
0
0
0
0
0
0
0
0
0
0
0
0
0
0
0
0
0
0
0
0
0
0
0
0
0
0
0
0
0
0
0
0
0
0
0
0
0
0
0
0
0
0
0
0
0
0
0
0
0
0
0
0
0
0
0
0
0
0
0
0
0
0
0
0
0
0
0
0
0
0
0
0
0
0
0
0
0
0
0
0
0
0
0
0
0
0
0
0
0
0
0
0
0
0
0
0
0
0
0
0
0
0
0
0
0
0
0
0
0
0
0
0
0
0
0
0
0
0
0
0
0
0
0
0
0
0
0
0
0
0
0
0
0
0
0
0
0
0
0
0
0
0
0
0
0
0
0
0
0
0
0
0
0
0
0
0
0
0
0
0
0
0
0
0
0
0
0
0
0
0
0
0
0
0
0
0
0
0
0
0
0
0
0
0
0
0
0
0
0
0
0
0
0
0
0
0
0
0
0
0
0
0
0
0
0
0
0
0
0
0
0
0
0
0
0
0
0
0
0
0
0
0
0
0
0
0
0
0
0
0
0
0
0
0
0
0
0
0
0
0
0
0
0
0
0
0
0
0
0
0
0
0
0
0
0
0
0
0
0
0
0
0
0
0
0
0
0
0
0
0
0
0
0
0
0
0
0
0
0
0
0
0
0
0
0
0
0
0
0
0
0
0
0
0
0
0
0
0
0
0
0
0
0
0
0
0
0
0
0
0
0
0
0
0
0
0
0
0
0
0
0
0
0
0
0
0
0
0
0
0
0
0
0
0
0
0
0
0
0
0
0
0
0
0
0
0
0
0
0
0
0
0
0
0
0
0
0
0
0
0
0
0
0
0
0
0
0
0
0
0
0
0
0
0
0
0
0
0
0
0
0
0
0
0
0
0
0
0
0
0
0
0
0
0
0
0
0
0
0
0
0
0
0
0
0
0
0
0
0
0
0
0
0
0
0
0
0
0
0
0
0
0
0
0
0
0
0
0
0
0
0
0
0
0
0
0
0
0
0
0
0
0
0
0
0
0
0
0
0
0
0
0
0
0
0
0
0
0
0
0
0
0
0
0
0
0
0
0
0
0
0
0
0
0
0
0
0
0
0
0
0
0
0
0
0
0
0
0
0
0
0
0
0
0
0
0
0
0
0
0
0
0
0
0
0
0
0
0
0
0
0
0
0
0
0
0
0
0
0
0
0
0
0
0
0
0
0
0
0
0
0
0
0
0
0
0
0
0
0
0
0
0
0
0
0
0
0
0
0
0
0
0
0
0
0
0
0
0
0
0
0
0
0
0
0
0
0
0
0
0
0
0
0
0
0
0
0
0
0
0
0
0
0
0
0
0
0
0
0
0
0
0
0
0
0
0
0
0
0
0
0
0
0
0
0
0
0
0
0
0
0
0
0
0
0
0
0
0
0
0
0
0
0
0
0
0
0
0
0
0
0
0
0
0
0
0
0
0
0
0
0
0
0
0
0
0
0
0
0
0
0
0
0
0
0
0
0
0
0
0
0
0
0
0
0
0
0
0
0
0
0
0
0
0
0
0
0
0
0
0
0
0
0
0
0
0
0
0
0
0
0
0
0
0
0
0
0
0
0
0
0
0
0
0
0
0
0
0
0
0
0
0
0
0
0
0
0
0
0
0
0
0
0
0
0
0
0
0
0
0
0
0
0
0
0
0
0
0
0
0
0
0
0
0
0
0
0
0
0
0
0
0
0
0
0
0
0
0
0
0
0
0
0
0
0
0
0
0
0
0
0
0
0
0
0
0
0
0
0
0
0
0
0
0
0
0
0
0
0
0
0
0
0
0
0
0
0
0
0
0
0
0
0
0
0
0
0
0
0
0
0
0
0
0
0
0
0
0
0
0
0
0
0
0
0
0
0
0
0
0
0
0
0
0
0
0
0
0
0
0
0
0
0
0
0
0
0
0
0
0
0
0
0
0
0
0
0
0
0
0
0
0
0
0
0
0
0
0
0
0
0
0
0
0
0
0
0
0
0
0
0
0
0
0
0
0
0
0
0
0
0
0
0
0
0
0
0
0
0
0
0
0
0
0
0
0
0
0
0
0
0
0
0
0
0
0
0
0
0
0
0
0
0
0
0
0
0
0
0
0
0
0
0
0
0
0
0
0
0
0
0
0
0
0
0
0
0
0
0
0
0
0
0
0
0
0
0
0
0
0
0
0
0
0
0
0
0
0
0
0
0
0
0
0
0
0
0
0
0
0
0
0
0
0
0
0
0
0
0
0
0
0
0
0
0
0
0
0
0
0
0
0
0
0
0
0
0
0
0
0
0
0
0
0
0
0
0
0
0
0
0
0
0
0
0
0
0
0
0
0
0
0
0
0
0
0
0

SCALARS 1DELEM_Specific_Energy float 1
LOOKUP_TABLE default
0
0
0
0
0
0
0
0
0
0
0
0
0
0
0
0
0
0
0
0
0
0
0
0
0
0
0
0
0
0
0
0
0
0
0
0
0
0
0
0
0
0
0
0
0
0
0
0
0
0
0
0
0
0
0
0
0
0
0
0
0
0
0
0
0
0
0
0
0
0
0
0
0
0
0
0
0
0
0
0
0
0
0
0
0
0
0
0
0
0
0
0
0
0
0
0
0
0
0
0
0
0
0
0
0
0
0
0
0
0
0
0
0
0
0
0
0
0
0
0
0
0
0
0
0
0
0
0
0
0
0
0
0
0
0
0
0
0
0
0
0
0
0
0
0
0
0
0
0
0
0
0
0
0
0
0
0
0
0
0
0
0
0
0
0
0
0
0
0
0
0
0
0
0
0
0
0
0
0
0
0
0
0
0
0
0
0
0
0
0
0
0
0
0
0
0
0
0
0
0
0
0
0
0
0
0
0
0
0
0
0
0
0
0
0
0
0
0
0
0
0
0
0
0
0
0
0
0
0
0
0
0
0
0
0
0
0
0
0
0
0
0
0
0
0
0
0
0
0
0
0
0
0
0
0
0
0
0
0
0
0
0
0
0
0
0
0
0
0
0
0
0
0
0
0
0
0
0
0
0
0
0
0
0
0
0
0
0
0
0
0
0
0
0
0
0
0
0
0
0
0
0
0
0
0
0
0
0
0
0
0
0
0
0
0
0
0
0
0
0
0
0
0
0
0
0
0
0
0
0
0
0
0
0
0
0
0
0
0
0
0
0
0
0
0
0
0
0
0
0
0
0
0
0
0
0
0
0
0
0
0
0
0
0
0
0
0
0
0
0
0
0
0
0
0
0
0
0
0
0
0
0
0
0
0
0
0
0
0
0
0
0
0
0
0
0
0
0
0
0
0
0
0
0
0
0
0
0
0
0
0
0
0
0
0
0
0
0
0
0
0
0
0
0
0
0
0
0
0
0
0
0
0
0
0
0
0
0
0
0
0
0
0
0
0
0
0
0
0
0
0
0
0
0
0
0
0
0
0
0
0
0
0
0
0
0
0
0
0
0
0
0
0
0
0
0
0
0
0
0
0
0
0
0
0
0
0
0
0
0
0
0
0
0
0
0
0
0
0
0
0
0
0
0
0
0
0
0
0
0
0
0
0
0
0
0
0
0
0
0
0
0
0
0
0
0
0
0
0
0
0
0
0
0
0
0
0
0
0
0
0
0
0
0
0
0
0
0
0
0
0
0
0
0
0
0
0
0
0
0
0
0
0
0
0
0
0
0
0
0
0
0
0
0
0
0
0
0
0
0
0
0
0
0
0
0
0
0
0
0
0
0
0
0
0
0
0
0
0
0
0
0
0
0
0
0
0
0
0
0
0
0
0
0
0
0
0
0
0
0
0
0
0
0
0
0
0
0
0
0
0
0
0
0
0
0
0
0
0
0
0
0
0
0
0
0
0
0
0
0
0
0
0
0
0
0
0
0
0
0
0
0
0
0
0
0
0
0
0
0
0
0
0
0
0
0
0
0
0
0
0
0
0
0
0
0
0
0
0
0
0
0
0
0
0
0
0
0
0
0
0
0
0
0
0
0
0
0
0
0
0
0
0
0
0
0
0
0
0
0
0
0
0
0
0
0
0
0
0
0
0
0
0
0
0
0
0
0
0
0
0
0
0
0
0
0
0
0
0
0
0
0
0
0
0
0
0
0
0
0
0
0
0
0
0
0
0
0
0
0
0
0
0
0
0
0
0
0
0
0
0
0
0
0
0
0
0
0
0
0
0
0
0
0
0
0
0
0
0
0
0
0
0
0
0
0
0
0
0
0
0
0
0
0
0
0
0
0
0
0
0
0
0
0
0
0
0
0
0
0
0
0
0
0
0
0
0
0
0
0
0
0
0
0
0
0
0
0
0
0
0
0
0
0
0
0
0
0
0
0
0
0
0
0
0
0
0
0
0
0
0
0
0
0
0
0
0
0
0
0
0
0
0
0
0
0
0
0
0
0
0
0
0
0
0
0
0
0
0
0
0
0
0
0
0
0
0
0
0
0
0
0
0
0
0
0
0
0
0
0
0
0
0
0
0
0
0
0
0
0
0
0
0
0
0
0
0
0
0
0
0
0
0
0
0
0
0
0
0
0
0
0
0
0
0
0
0
0
0
0
0
0
0
0
0
0
0
0
0
0
0
0
0
0
0
0
0
0
0
0
0
0
0
0
0
0
0
0
0
0
0
0
0
0
0
0
0
0
0
0
0
0
0
0
0
0
0
0
0
0
0
0
0
0
0
0
0
0
0
0
0
0
0
0
0
0
0
0
0
0
0
0
0
0
0
0
0
0
0
0
0
0
0
0
0
0
0
0
0
0
0
0
0
0
0
0
0
0
0
0
0
0
0
0
0
0
0
0
0
0
0
0
0
0
0
0
0
0
0
0
0
0
0
0
0
0
0
0
0
0
0
0
0
0
0
0
0
0
0
0
0
0
0
0
0
0
0
0
0
0
0
0
0
0
0
0
0
0
0
0
0
0
0
0
0
0
0
0
0
0
0
0
0
0
0
0
0
0
0
0
0
0
0
0
0
0
0
0
0
0
0
0
0
0
0
0
0
0
0
0
0
0
0
0
0
0
0
0
0
0
0
0
0
0
0
0
0
0
0
0
0
0
0
0
0
0
0
0
0
0
0
0
0
0
0
0
0
0
0
0
0
0
0
0
0
0
0
0
0
0
0
0
0
0
0
0
0
0
0
0
0
0
0
0
0
0
0
0
0
0
0
0
0
0
0
0
0
0
0
0
0
0
0
0
0
0
0
0
0
0
0
0
0
0
0
0
0
0
0
0
0
0
0
0
0
0
0
0
0
0
0
0
0
0
0
0
0
0
0
0
0
0
0
0
0
0
0
0
0
0
0
0
0
0
0
0
0
0
0
0
0
0
0
0
0
0
0
0
0
0
0
0
0
0
0
0
0
0
0
0
0
0
0
0
0
0
0
0
0
0
0
0
0
0
0
0
0
0
0
0
0
0
0
0
0
0
0
0
0
0
0
0
0
0
0
0
0
0
0
0
0
0
0
0
0
0
0
0
0
0
0
0
0
0
0
0
0
0
0
0
0
0
0
0
0
0
0
0
0
0
0
0
0
0
0
0
0
0
0
0
0
0
0
0
0
0
0
0
0
0
0
0
0
0
0
0
0
0
0
0
0
0
0
0
0
0
0
0
0
0
0
0
0
0
0
0
0
0
0
0
0
0
0
0
0
0
0
0
0
0
0
0
0
0
0
0
0
0
0
0
0
0
0
0
0
0
0
0
0
0
0
0
0
0
0
0
0
0
0
0
0
0
0
0
0
0
0
0
0
0
0
0
0
0
0
0
0
0
0
0
0
0
0
0
0
0
0
0
0
0
0
0
0
0
0
0
0
0
0
0
0
0
0
0
0
0
0
0
0
0
0
0
0
0
0
0
0
0
0
0
0
0
0
0
0
0
0
0
0
0
0
0
0
0
0
0
0
0
0
0
0
0
0
0
0
0
0
0
0
0
0
0
0
0
0
0
0
0
0
0
0
0
0
0
0
0
0
0
0
0
0
0
0
0
0
0
0
0
0
0
0
0
0
0
0
0
0
0
0
0
0
0
0
0
0
0
0
0
0
0
0
0
0
0
0
0
0
0
0
0
0
0
0
0
0
0
0
0
0
0
0
0
0
0
0
0
0
0
0
0
0
0
0
0
0
0
0
0
0
0
0
0
0
0
0
0
0
0
0
0
0
0
0
0
0
0
0
0
0
0
0
0
0
0
0
0
0
0
0
0
0
0
0
0
0
0
0
0
0
0
0
0
0
0
0
0
0
0
0
0
0
0
0
0
0
0
0
0
0
0
0
0
0
0
0
0
0
0
0
0
0
0
0
0
0
0
0
0
0
0
0
0
0
0
0
0
0
0
0
0
0
0
0
0
0
0
0
0
0
0
0
0
0
0
0
0
0
0
0
0
0
0
0
0
0
0
0
0
0
0
0
0
0
0
0
0
0
0
0
0
0
0
0
0
0
0
0
0
0
0
0
0
0
0
0
0
0
0
0
0
0
0
0
0
0
0
0
0
0
0
0
0
0
0
0
0
0
0
0
0
0
0
0
0
0
0
0
0
0
0
0
0
0
0
0
0
0
0
0
0
0
0
0
0
0
0
0
0
0
0
0
0
0
0
0
0
0
0
0
0
0
0
0
0
0
0
0
0
0
0
0
0
0
0
0
0
0
0
0
0
0
0
0
0
0
0
0
0
0
0
0
0
0
0
0
0
0
0
0
0
0
0
0
0
0
0
0
0
0
0
0
0
0
0
0
0
0
0
0
0
0
0
0
0
0
0
0
0
0
0
0
0
0
0
0
0
0
0
0
0
0
0
0
0
0
0
0
0
0
0
0
0
0
0
0
0
0
0
0
0
0
0
0
0
0
0
0
0
0
0
0
0
0
0
0
0
0
0
0
0
0
0
0
0
0
0
0
0
0
0
0
0
0
0
0
0
0
0
0
0
0
0
0
0
0
0
0
0
0
0
0
0
0
0
0
0
0
0
0
0
0
0
0
0
0
0
0
0
0
0
0
0
0
0
0
0
0
0
0
0
0
0
0
0
0
0
0
0
0
0
0
0
0
0
0
0
0
0
0
0
0
0
0
0
0
0
0
0
0
0
0
0
0
0
0
0
0
0
0
0
0
0
0
0
0
0
0
0
0
0
0
0
0
0
0
0
0
0
0
0
0
0
0
0
0
0
0
0
0
0
0
0
0
0
0
0
0
0
0
0
0
0
0
0
0
0
0
0
0
0
0
0
0
0
0
0
0
0
0
0
0
0
0
0
0
0
0
0
0
0
0
0
0
0
0
0
0
0
0
0
0
0
0
0
0
0
0
0
0
0
0
0
0
0
0
0
0
0
0
0
0
0
0
0
0
0
0
0
0
0
0
0
0
0
0
0
0
0
0
0
0
0
0
0
0
0
0
0
0
0
0
0
0
0
0
0
0
0
0
0
0
0
0
0
0
0
0
0
0
0
0
0
0
0
0
0
0
0
0
0
0
0
0
0
0
0
0
0
0
0
0
0
0
0
0
0
0
0
0
0
0
0
0
0
0
0
0
0
0
0
0
0
0
0
0
0
0
0
0
0
0
0
0
0
0
0
0
0
0
0
0
0
0
0
0
0
0
0
0
0
0
0
0
0
0
0
0
0
0
0
0
0
0
0
0
0
0
0
0
0
0
0
0
0
0
0
0
0
0
0
0
0
0
0
0
0
0
0
0
0
0
0
0
0
0
0
0
0
0
0
0
0
0
0
0
0
0
0
0
0
0
0
0
0
0
0
0
0
0
0
0
0
0
0
0
0
0
0
0
0
0
0
0
0
0
0
0
0
0
0
0
0
0
0
0
0
0
0
0
0
0
0
0
0
0
0
0
0
0
0
0
0
0
0
0
0
0
0
0
0
0
0
0
0
0
0
0
0
0
0
0
0
0
0
0
0
0
0
0
0
0
0
0
0
0
0
0
0
0
0
0
0
0
0
0
0
0
0
0
0
0
0
0
0
0
0
0
0
0
0
0
0
0
0
0
0
0
0
0
0
0
0
0
0
0
0
0
0
0
0
0
0
0
0
0
0
0
0
0
0
0
0
0
0
0
0
0
0
0
0
0
0
0
0
0
0
0
0
0
0
0
0
0
0
0
0
0
0
0
0
0
0
0
0
0
0
0
0
0
0
0
0
0
0
0
0
0
0
0
0
0
0
0
0
0
0
0
0
0
0
0
0
0
0
0
0
0
0
0
0
0
0
0
0
0
0
0
0
0
0
0
0
0
0
0
0
0
0
0
0
0
0
0
0
0
0
0
0
0
0
0
0
0
0
0
0
0
0
0
0
0
0
0
0
0
0
0
0
0
0
0
0
0
0
0
0
0
0
0
0
0
0
0
0
0
0
0
0
0
0
0
0
0
0
0
0
0
0
0
0
0
0
0
0
0
0
0
0
0
0
0
0
0
0
0
0
0
0
0
0
0
0
0
0
0
0
0
0
0
0
0
0
0
0
0
0
0
0
0
0
0
0
0
0
0
0
0
0
0
0
0
0
0
0
0
0
0
0
0
0
0
0
0
0
0
0
0
0
0
0
0
0
0
0
0
0
0
0
0
0
0
0
0
0
0
0
0
0
0
0
0
0
0
0
0
0
0
0
0
0
0
0
0
0
0
0
0
0
0
0
0
0
0
0
0
0
0
0
0
0
0
0
0
0
0
0
0
0
0
0
0
0
0
0
0
0
0
0
0
0
0
0
0
0
0
0
0
0
0
0
0
0
0
0
0
0
0
0
0
0
0
0
0
0
0
0
0
0
0
0
0
0
0
0
0
0
0
0
0
0
0
0
0
0
0
0
0
0
0
0
0
0
0
0
0
0
0
0
0
0
0
0
0
0
0
0
0
0
0
0
0
0
0
0
0
0
0
0
0
0
0
0
0
0
0
0
0
0
0
0
0
0
0
0
0
0
0
0
0
0
0
0
0
0
0
0
0
0
0
0
0
0
0
0
0
0
0
0
0
0
0
0
0
0
0
0
0
0
0
0
0
0
0
0
0
0
0
0
0
0
0
0
0
0
0
0
0
0
0
0
0
0
0
0
0
0
0
0
0
0
0
0
0
0
0
0
0
0
0
0
0
0
0
0
0
0
0
0
0
0
0
0
0
0
0
0
0
0
0
0
0
0
0
0
0
0
0
0
0
0
0
0
0
0
0
0
0
0
0
0
0
0
0
0
0
0
0
0
0
0
0
0
0
0
0
0
0
0
0
0
0
0
0
0
0
0
0
0
0
0
0
0
0
0
0
0
0
0
0
0
0
0
0
0
0
0
0
0
0
0
0
0
0
0
0
0
0
0
0
0
0
0
0
0
0
0
0
0
0
0
0
0
0
0
0
0
0
0
0
0
0
0
0
0
0
0
0
0
0
0
0
0
0
0
0
0
0
0
0
0
0
0
0
0
0
0
0
0
0
0
0
0
0
0
0
0
0
0
0
0
0
0
0
0
0
0
0
0
0
0
0
0
0
0
0
0
0
0
0
0
0
0
0
0
0
0
0
0
0
0
0
0
0
0
0
0
0
0
0
0
0
0
0
0
0
0
0
0
0
0
0
0
0
0
0
0
0
0
0
0
0
0
0
0
0
0
0
0
0
0
0
0
0
0
0
0
0
0
0
0
0
0
0
0
0
0
0
0
0
0
0
0
0
0
0
0
0
0
0
0
0
0
0
0
0
0
0
0
0
0
0
0
0
0
0
0
0
0
0
0
0
0
0
0
0
0
0
0
0
0
0
0
0
0
0
0
0
0
0
0
0
0
0
0
0
0
0
0
0
0
0
0
0
0
0
0
0
0
0
0
0
0
0
0
0
0
0
0
0
0
0
0
0
0
0
0
0
0
0
0
0
0
0
0
0
0
0
0
0
0
0
0
0
0
0
0
0
0
0
0
0
0
0
0
0
0
0
0
0
0
0
0
0
0
0
0
0
0
0
0
0
0
0
0
0
0
0
0
0
0
0
0
0
0
0
0
0
0
0
0
0
0
0
0
0
0
0
0
0
0
0
0
0
0
0
0
0
0
0
0
0
0
0
0
0
0
0
0
0
0
0
0
0
0
0
0
0
0
0
0
0
0
0
0
0
0
0
0
0
0
0
0
0
0
0
0
0
0
0
0
0
0
0
0
0
0
0
0
0
0
0
0
0
0
0
0
0
0
0
0
0
0
0
0
0
0
0
0
0
0
0
0
0
0
0
0
0
0
0
0
0
0
0
0
0
0
0
0
0
0
0
0
0
0
0
0
0
0
0
0
0
0
0
0
0
0
0
0
0
0
0
0
0
0
0
0
0
0
0
0
0
0
0
0
0
0
0
0
0
0
0
0
0
0
0
0
0
0
0
0
0
0
0
0
0
0
0
0
0
0
0
0
0
0
0
0
0
0
0
0
0
0
0
0
0
0
0
0
0
0
0
0
0
0
0
0
0
0
0
0
0
0
0
0
0
0
0
0
0
0
0
0
0
0
0
0
0
0
0
0
0
0
0
0
0
0
0
0
0
0
0
0
0
0
0
0
0
0
0
0
0
0
0
0
0
0
0
0
0
0
0
0
0
0
0
0
0
0
0
0
0
0
0
0
0
0
0
0
0
0
0
0
0
0
0
0
0
0
0
0
0
0
0
0
0
0
0
0
0
0
0
0
0
0
0
0
0
0
0
0
0
0
0
0
0
0
0
0
0
0
0
0
0
0
0
0
0
0
0
0
0
0
0
0
0
0
0
0
0
0
0
0
0
0
0
0
0
0
0
0
0
0
0
0
0
0
0
0
0
0
0
0
0
0
0
0
0
0
0
0
0
0
0
0
0
0
0
0
0
0
0
0
0
0
0
0
0
0
0
0
0
0
0
0
0
0
0
0
0
0
0
0
0
0
0
0
0
0
0
0
0
0
0
0
0
0
0
0
0
0
0
0
0
0
0
0
0
0
0
0
0
0
0
0
0
0
0
0
0
0
0
0
0
0
0
0
0
0
0
0
0
0
0
0
0
0
0
0
0
0
0
0
0
0
0
0
0
0
0
0
0
0
0
0
0
0
0
0
0
0
0
0
0
0
0
0
0
0
0
0
0
0
0
0
0
0
0
0
0
0
0
0
0
0
0
0
0
0
0
0
0
0
0
0
0
0
0
0
0
0
0
0
0
0
0
0
0
0
0
0
0
0
0
0
0
0
0
0
0
0
0
0
0
0
0
0
0
0
0
0
0
0
0
0
0
0
0
0
0
0
0
0
0
0
0
0
0
0
0
0
0
0
0
0
0
0
0
0
0
0
0
0
0
0
0
0
0
0
0
0
0
0
0
0
0
0
0
0
0
0
0
0
0
0
0
0
0
0
0
0
0
0
0
0
0
0
0
0
0
0
0
0
0
0
0
0
0
0
0
0
0
0
0
0
0
0
0
0
0
0
0
0
0
0
0
0
0
0
0
0
0
0
0
0
0
0
0
0
0
0
0
0
0
0
0
0
0
0
0
0
0
0
0
0
0
0
0
0
0
0
0
0
0
0
0
0
0
0
0
0
0
0
0
0
0
0
0
0
0
0
0
0
0
0
0
0
0
0
0
0
0
0
0
0
0
0
0
0
0
0
0
0
0
0
0
0
0
0
0
0
0
0
0
0
0
0
0
0
0
0
0
0
0
0
0
0
0
0
0
0
0
0
0
0
0
0
0
0
0
0
0
0
0
0
0
0
0
0
0
0
0
0
0
0
0
0
0
0
0
0
0
0
0
0
0
0
0
0
0
0
0
0
0
0
0
0
0
0
0
0
0
0
0
0
0
0
0
0
0
0
0
0
0
0
0
0
0
0
0
0
0
0
0
0
0
0
0
0
0
0
0
0
0
0
0
0
0
0
0
0
0
0
0
0
0
0
0
0
0
0
0
0
0
0
0
0
0
0
0
0
0
0
0
0
0
0
0
0
0
0
0
0
0
0
0
0
0
0
0
0
0
0
0
0
0
0
0
0
0
0
0
0
0
0
0
0
0
0
0
0
0
0
0
0
0
0
0
0
0
0
0
0
0
0
0
0
0
0
0
0
0
0
0
0
0
0
0
0
0
0
0
0
0
0
0
0
0
0
0
0
0
0
0
0
0
0
0
0
0
0
0
0
0
0
0
0
0
0
0
0
0
0
0
0
0
0
0
0
0
0
0
0
0
0
0
0
0
0
0
0
0
0
0
0
0
0
0
0
0
0
0
0
0
0
0
0
0
0
0
0
0
0
0
0
0
0
0
0
0
0
0
0
0
0
0
0
0
0
0
0
0
0
0
0
0
0
0
0
0
0
0
0
0
0
0
0
0
0
0
0
0
0
0
0
0
0
0
0
0
0
0
0
0
0
0
0
0
0
0
0
0
0
0
0
0
0
0
0
0
0
0
0
0
0
0
0
0
0
0
0
0
0
0
0
0
0
0
0
0
0
0
0
0
0
0
0
0
0
0
0
0
0
0
0
0
0
0
0
0
0
0
0
0
0
0
0
0
0
0
0
0
0
0
0
0
0
0
0
0
0
0
0
0
0
0
0
0
0
0
0
0
0
0
0
0
0
0
0
0
0
0
0
0
0
0
0
0
0
0
0
0
0
0
0
0
0
0
0
0
0
0
0
0
0
0
0
0
0
0
0
0
0
0
0
0
0
0
0
0
0
0
0
0
0
0
0
0
0
0
0
0
0
0
0
0
0
0
0
0
0
0
0
0
0
0
0
0
0
0
0
0
0
0
0
0
0
0
0
0
0
0
0
0
0
0
0
0
0
0
0
0
0
0
0
0
0
0
0
0
0
0
0
0
0
0
0
0
0
0
0
0
0
0
0
0
0
0
0
0
0
0
0
0
0
0
0
0
0
0
0
0
0
0
0
0
0
0
0
0
0
0
0
0
0
0
0
0
0
0
0
0
0
0
0
0
0
0
0
0
0
0
0
0
0
0
0
0
0
0
0
0
0
0
0
0
0
0
0
0
0
0
0
0
0
0
0
0
0
0
0
0
0
0
0
0
0
0
0
0
0
0
0
0
0
0
0
0
0
0
0
0
0
0
0
0
0
0
0
0
0
0
0
0
0
0
0
0
0
0
0
0
0
0
0
0
0
0
0
0
0
0
0
0
0
0
0
0
0
0
0
0
0
0
0
0
0
0
0
0
0
0
0
0
0
0
0
0
0
0
0
0
0
0
0
0
0
0
0
0
0
0
0
0
0
0
0
0
0
0
0
0
0
0
0
0
0
0
0
0
0
0
0
0
0
0
0
0
0
0
0
0
0
0
0
0
0
0
0
0
0
0
0
0
0
0
0
0
0
0
0
0
0
0
0
0
0
0
0
0
0
0
0
0
0
0
0
0
0
0
0
0
0
0
0
0
0
0
0
0
0
0
0
0
0
0
0
0
0
0
0
0
0
0
0
0
0
0
0
0
0
0
0
0
0
0
0
0
0
0
0
0
0
0
0
0
0
0
0
0
0
0
0
0
0
0
0
0
0
0
0
0
0
0
0
0
0
0
0
0
0
0
0
0
0
0
0
0
0
0
0
0
0
0
0
0
0
0
0
0
0
0
0
0
0
0
0
0
0
0
0
0
0
0
0
0
0
0
0
0
0
0
0
0
0
0
0
0
0
0
0
0
0
0
0
0
0
0
0
0
0
0
0
0
0
0
0
0
0
0
0
0
0
0
0
0
0
0
0
0
0
0
0
0
0
0
0
0
0
0
0
0
0
0
0
0
0
0
0
0
0
0
0
0
0
0
0
0
0
0
0
0
0
0
0
0
0
0
0
0
0
0
0
0
0
0
0
0
0
0
0
0
0
0
0
0
0
0
0
0
0
0
0
0
0
0
0
0
0
0
0
0
0
0
0
0
0
0
0
0
0
0
0
0
0
0
0
0
0
0
0
0
0
0
0
0
0
0
0
0
0
0
0
0
0
0
0
0
0
0
0
0
0
0
0
0
0
0
0
0
0
0
0
0
0
0
0
0
0
0
0
0
0
0
0
0
0
0
0
0
0
0
0
0
0
0
0
0
0
0
0
0
0
0
0
0
0
0
0
0
0
0
0
0
0
0
0
0
0
0
0
0
0
0
0
0
0
0
0
0
0
0
0
0
0
0
0
0
0
0
0
0
0
0
0
0
0
0
0
0
0
0
0
0
0
0
0
0
0
0
0
0
0
0
0
0
0
0
0
0
0
0
0
0
0
0
0
0
0
0
0
0
0
0
0
0
0
0
0
0
0
0
0
0
0
0
0
0
0
0
0
0
0
0
0
0
0
0
0
0
0
0
0
0
0
0
0
0
0
0
0
0
0
0
0
0
0
0
0
0
0
0
0
0
0
0
0
0
0
0
0
0
0
0
0
0
0
0
0
0
0
0
0
0
0
0
0
0
0
0
0
0
0
0
0
0
0
0
0
0
0
0
0
0
0
0
0
0
0
0
0
0
0
0
0
0
0
0
0
0
0
0
0
0
0
0
0
0
0
0
0
0
0
0
0
0
0
0
0
0
0
0
0
0
0
0
0
0
0
0
0
0
0
0
0
0
0
0
0
0
0
0
0
0
0
0
0
0
0
0
0
0
0
0
0
0
0
0
0
0
0
0
0
0
0
0
0
0
0
0
0
0
0
0
0
0
0
0
0
0
0
0
0
0
0
0
0
0
0
0
0
0
0
0
0
0
0
0
0
0
0
0
0
0
0
0
0
0
0
0
0
0
0
0
0
0
0
0
0
0
0
0
0
0
0
0
0
0
0
0
0
0
0
0
0
0
0
0
0
0
0
0
0
0
0
0
0
0
0
0
0
0
0
0
0
0
0
0
0
0
0
0
0
0
0
0
0
0
0
0
0
0
0
0
0
0
0
0
0
0
0
0
0
0
0
0
0
0
0
0
0
0
0
0
0
0
0
0
0
0
0
0
0
0
0
0
0
0
0
0
0
0
0
0
0
0
0
0
0
0
0
0
0
0
0
0
0
0
0
0
0
0
0
0
0
0
0
0
0
0
0
0
0
0
0
0
0
0
0
0
0
0
0
0
0
0
0
0
0
0
0
0
0
0
0
0
0
0
0
0
0
0
0
0
0
0
0
0
0
0
0
0
0
0
0
0
0
0
0
0
0
0
0
0
0
0
0
0
0
0
0
0
0
0
0
0
0
0
0
0
0
0
0
0
0
0
0
0
0
0
0
0
0
0
0
0
0
0
0
0
0
0
0
0
0
0
0
0
0
0
0
0
0
0
0
0
0
0
0
0
0
0
0
0
0
0
0
0
0
0
0
0
0
0
0
0
0
0
0
0
0
0
0
0
0
0
0
0
0
0
0
0
0
0
0
0
0
0
0
0
0
0
0
0
0
0
0
0
0
0
0
0
0
0
0
0
0
0
0
0
0
0
0
0
0
0
0
0
0
0
0
0
0
0
0
0
0
0
0
0
0
0
0
0
0
0
0
0
0
0
0
0
0
0
0
0
0
0
0
0
0
0
0
0
0
0
0
0
0
0
0
0
0
0
0
0
0
0
0
0
0
0
0
0
0
0
0
0
0
0
0
0
0
0
0
0
0
0
0
0
0
0
0
0
0
0
0
0
0
0
0
0
0
0
0
0
0
0
0
0
0
0
0
0
0
0
0
0
0
0
0
0
0
0
0
0
0
0
0
0
0
0
0
0
0
0
0
0
0
0
0
0
0
0
0
0
0
0
0
0
0
0
0
0
0
0
0
0
0
0
0
0
0
0
0
0
0
0
0
0
0
0
0
0
0
0
0
0
0
0
0
0
0
0
0
0
0
0
0
0
0
0
0
0
0
0
0
0
0
0
0
0
0
0
0
0
0
0
0
0
0
0
0
0
0
0
0
0
0
0
0
0
0
0
0
0
0
0
0
0
0
0
0
0
0
0
0
0
0
0
0
0
0
0
0
0
0
0
0
0
0
0
0
0
0
0
0
0
0
0
0
0
0
0
0
0
0
0
0
0
0
0
0
0
0
0
0
0
0
0
0
0
0
0
0
0
0
0
0
0
0
0
0
0
0
0
0
0
0
0
0
0
0
0
0
0
0
0
0
0
0
0
0
0
0
0
0
0
0
0
0
0
0
0
0
0
0
0
0
0
0
0
0
0
0
0
0
0
0
0
0
0
0
0
0
0
0
0
0
0
0
0
0
0
0
0
0
0
0
0
0
0
0
0
0
0
0
0
0
0
0
0
0
0
0
0
0
0
0
0
0
0
0
0
0
0
0
0
0
0
0
0
0
0
0
0
0
0
0
0
0
0
0
0
0
0
0
0
0
0
0
0
0
0
0
0
0
0
0
0
0
0
0
0
0
0
0
0
0
0
0
0
0
0
0
0
0
0
0
0
0
0
0
0
0
0
0
0
0
0
0
0
0
0
0
0
0
0
0
0
0
0
0
0
0
0
0
0
0
0
0
0
0
0
0
0
0
0
0
0
0
0
0
0
0
0
0
0
0
0
0
0
0
0
0
0
0
0
0
0
0
0
0
0
0
0
0
0
0
0
0
0
0
0
0
0
0
0
0
0
0
0
0
0
0
0
0
0
0
0
0
0
0
0
0
0
0
0
0
0
0
0
0
0
0
0
0
0
0
0
0
0
0
0
0
0
0
0
0
0
0
0
0
0
0
0
0
0
0
0
0
0
0
0
0
0
0
0
0
0
0
0
0
0
0
0
0
0
0
0
0
0
0
0
0
0
0
0
0
0
0
0
0
0
0
0
0
0
0
0
0
0
0
0
0
0
0
0
0
0
0
0
0
0
0
0
0
0
0
0
0
0
0
0
0
0
0
0
0
0
0
0
0
0
0
0
0
0
0
0
0
0
0
0
0
0
0
0
0
0
0
0
0
0
0
0
0
0
0
0
0
0
0
0
0
0
0
0
0
0
0
0
0
0
0
0
0
0
0
0
0
0
0
0
0
0
0
0
0
0
0
0
0
0
0
0
0
0
0
0
0
0
0
0
0
0
0
0
0
0
0
0
0
0
0
0
0
0
0
0
0
0
0
0
0
0
0
0
0
0
0
0
0
0
0
0
0
0
0
0
0
0
0
0
0
0
0
0
0
0
0
0
0
0
0
0
0
0
0
0
0
0
0
0
0
0
0
0
0
0
0
0
0
0
0
0
0
0
0
0
0
0
0
0
0
0
0
0
0
0
0
0
0
0
0
0
0
0
0
0
0
0
0
0
0
0
0
0
0
0
0
0
0
0
0
0
0
0
0
0
0
0
0
0
0
0
0
0
0
0
0
0
0
0
0
0
0
0
0
0
0
0
0
0
0
0
0
0
0
0
0
0
0
0
0
0
0
0
0
0
0
0
0
0
0
0
0
0
0
0
0
0
0
0
0
0
0
0
0
0
0
0
0
0
0
0
0
0
0
0
0
0
0
0
0
0
0
0
0
0
0
0
0
0
0
0
0
0
0
0
0
0
0
0
0
0
0
0
0
0
0
0
0
0
0
0
0
0
0
0
0
0
0
0
0
0
0
0
0
0
0
0
0
0
0
0
0
0
0
0
0
0
0
0
0
0
0
0
0
0
0
0
0
0
0
0
0
0
0
0
0
0
0
0
0
0
0
0
0
0
0
0
0
0
0
0
0
0
0
0
0
0
0
0
0
0
0
0
0
0
0
0
0
0
0
0
0
0
0
0
0
0
0
0
0
0
0
0
0
0
0
0
0
0
0
0
0
0
0
0
0
0
0
0
0
0
0
0
0
0
0
0
0
0
0
0
0
0
0
0
0
0
0
0
0
0
0
0
0
0
0
0
0
0
0
0
0
0
0
0
0
0
0
0
0
0
0
0
0
0
0
0
0
0
0
0
0
0
0
0
0
0
0
0
0
0
0
0
0
0
0
0
0
0
0
0
0
0
0
0
0
0
0
0
0
0
0
0
0
0
0
0
0
0
0
0
0
0
0
0
0
0
0
0
0
0
0
0
0
0
0
0
0
0
0
0
0
0
0
0
0
0
0
0
0
0
0
0
0
0
0
0
0
0
0
0
0
0
0
0
0
0
0
0
0
0
0
0
0
0
0
0
0
0
0
0
0
0
0
0
0
0
0
0
0
0
0
0
0
0
0
0
0
0
0
0
0
0
0
0
0
0
0
0
0
0
0
0
0
0
0
0
0
0
0
0
0
0
0
0
0
0
0
0
0
0
0
0
0
0
0
0
0
0
0
0
0
0
0
0
0
0
0
0
0
0
0
0
0
0
0
0
0
0
0
0
0
0
0
0
0
0
0
0
0
0
0
0
0
0
0
0
0
0
0
0
0
0
0
0
0
0
0
0
0
0
0
0
0
0
0
0
0
0
0
0
0
0
0
0
0
0
0
0
0
0
0
0
0
0
0
0
0
0
0
0
0
0
0
0
0
0
0
0
0
0
0
0
0
0
0
0
0
0
0
0
0
0
0
0
0
0
0
0
0
0
0
0
0
0
0
0
0
0
0
0
0
0
0
0
0
0
0
0
0
0
0
0
0
0
0
0
0
0
0
0
0
0
0
0
0
0
0
0
0
0
0
0
0
0
0
0
0
0
0
0
0
0
0
0
0
0
0
0
0
0
0
0
0
0
0
0
0
0
0
0
0
0
0
0
0
0
0
0
0
0
0
0
0
0
0
0
0
0
0
0
0
0
0
0
0
0
0
0
0
0
0
0
0
0
0
0
0
0
0
0
0
0
0
0
0
0
0
0
0
0
0
0
0
0
0
0
0
0
0
0
0
0
0
0
0
0
0
0
0
0
0
0
0
0
0
0
0
0
0
0
0
0
0
0
0
0
0
0
0
0
0
0
0
0
0
0
0
0
0
0
0
0
0
0
0
0
0
0
0
0
0
0
0
0
0
0
0
0
0
0
0
0
0
0
0
0
0
0
0
0
0
0
0
0
0
0
0
0
0
0
0
0
0
0
0
0
0
0
0
0
0
0
0
0
0
0
0
0
0
0
0
0
0
0
0
0
0
0
0
0
0
0
0
0
0
0
0
0
0
0
0
0
0
0
0
0
0
0
0
0
0
0
0
0
0
0
0
0
0
0
0
0
0
0
0
0
0
0
0
0
0
0
0
0
0
0
0
0
0
0
0
0
0
0
0
0
0
0
0
0
0
0
0
0
0
0
0
0
0
0
0
0
0
0
0
0
0
0
0
0
0
0
0
0
0
0
0
0
0
0
0
0
0
0
0
0
0
0
0
0
0
0
0
0
0
0
0
0
0
0
0
0
0
0
0
0
0
0
0
0
0
0
0
0
0
0
0
0
0
0
0
0
0
0
0
0
0
0
0
0
0
0
0
0
0
0
0
0
0
0
0
0
0
0
0
0
0
0
0
0
0
0
0
0
0
0
0
0
0
0
0
0
0
0
0
0
0
0
0
0
0
0
0
0
0
0
0
0
0
0
0
0
0
0
0
0
0
0
0
0
0
0
0
0
0
0
0
0
0
0
0
0
0
0
0
0
0
0
0
0
0
0
0
0
0
0
0
0
0
0
0
0
0
0
0
0
0
0
0
0
0
0
0
0
0
0
0
0
0
0
0
0
0
0
0
0
0
0
0
0
0
0
0
0
0
0
0
0
0
0
0
0
0
0
0
0
0
0
0
0
0
0
0
0
0
0
0
0
0
0
0
0
0
0
0
0
0
0
0
0
0
0
0
0
0
0
0
0
0
0
0
0
0
0
0
0
0
0
0
0
0
0
0
0
0
0
0
0
0
0
0
0
0
0
0
0
0
0
0
0
0
0
0
0
0
0
0
0
0
0
0
0
0
0
0
0
0
0
0
0
0
0
0
0
0
0
0
0
0
0
0
0
0
0
0
0
0
0
0
0
0
0
0
0
0
0
0
0
0
0
0
0
0
0
0
0
0
0
0
0
0
0
0
0
0
0
0
0
0
0
0
0
0
0
0
0
0
0
0
0
0
0
0
0
0
0
0
0
0
0
0
0
0
0
0
0
0
0
0
0
0
0
0
0
0
0
0
0
0
0
0
0
0
0
0
0
0
0
0
0
0
0
0
0
0
0
0
0
0
0
0
0
0
0
0
0
0
0
0
0
0
0
0
0
0
0
0
0
0
0
0
0
0
0
0
0
0
0
0
0
0
0
0
0
0
0
0
0
0
0
0
0
0
0
0
0
0
0
0
0
0
0
0
0
0
0
0
0
0
0
0
0
0
0
0
0
0
0
0
0
0
0
0
0
0
0
0
0
0
0
0
0
0
0
0
0
0
0
0
0
0
0
0
0
0
0
0
0
0
0
0
0
0
0
0
0
0
0
0
0
0
0
0
0
0
0
0
0
0
0
0
0
0
0
0
0
0
0
0
0
0
0
0
0
0
0
0
0
0
0
0
0
0
0
0
0
0
0
0
0
0
0
0
0
0
0
0
0
0
0
0
0
0
0
0
0
0
0
0
0
0
0
0
0
0
0
0
0
0
0
0
0
0
0
0
0
0
0
0
0
0
0
0
0
0
0
0
0
0
0
0
0
0
0
0
0
0
0
0
0
0
0
0
0
0
0
0
0
0
0
0
0
0
0
0
0
0
0
0
0
0
0
0
0
0
0
0
0
0
0
0
0
0
0
0
0
0
0
0
0
0
0
0
0
0
0
0
0
0
0
0
0
0
0
0
0
0
0
0
0
0
0
0
0
0
0
0
0
0
0
0
0
0
0
0
0
0
0
0
0
0
0
0
0
0
0
0
0
0
0
0
0
0
0
0
0
0
0
0
0
0
0
0
0
0
0
0
0
0
0
0
0
0
0
0
0
0
0
0
0
0
0
0
0
0
0
0
0
0
0
0
0
0
0
0
0
0
0
0
0
0
0
0
0
0
0
0
0
0
0
0
0
0
0
0
0
0
0
0
0
0
0
0
0
0
0
0
0
0
0
0
0
0
0
0
0
0
0
0
0
0
0
0
0
0
0
0
0
0
0
0
0
0
0
0
0
0
0
0
0
0
0
0
0
0
0
0
0
0
0
0
0
0
0
0
0
0
0
0
0
0
0
0
0
0
0
0
0
0
0
0
0
0
0
0
0
0
0
0
0
0
0
0
0
0
0
0
0
0
0
0
0
0
0
0
0
0
0
0
0
0
0
0
0
0
0
0
0
0
0
0
0
0
0
0
0
0
0
0
0
0
0
0
0
0
0
0
0
0
0
0
0
0
0
0
0
0
0
0
0
0
0
0
0
0
0
0
0
0
0
0
0
0
0
0
0
0
0
0
0
0
0
0
0
0
0
0
0
0
0
0
0
0
0
0
0
0
0
0
0
0
0
0
0
0
0
0
0
0
0
0
0
0
0
0
0
0
0
0
0
0
0
0
0
0
0
0
0
0
0
0
0
0
0
0
0
0
0
0
0
0
0
0
0
0
0
0
0
0
0
0
0
0
0
0
0
0
0
0
0
0
0
0
0
0
0
0
0
0
0
0
0
0
0
0
0
0
0
0
0
0
0
0
0
0
0
0
0
0
0
0
0
0
0
0
0
0
0
0
0
0
0
0
0
0
0
0
0
0
0
0
0
0
0
0
0
0
0
0
0
0
0
0
0
0
0
0
0
0
0
0
0
0
0
0
0
0
0
0
0
0
0
0
0
0
0
0
0
0
0
0
0
0
0
0
0
0
0
0
0
0
0
0
0
0
0
0
0
0
0
0
0
0
0
0
0
0
0
0
0
0
0
0
0
0
0
0
0
0
0
0
0
0
0
0
0
0
0
0
0
0
0
0
0
0
0
0
0
0
0
0
0
0
0
0
0
0
0
0
0
0
0
0
0
0
0
0
0
0
0
0
0
0
0
0
0
0
0
0
0
0
0
0
0
0
0
0
0
0
0
0
0
0
0
0
0
0
0
0
0
0
0
0
0
0
0
0
0
0
0
0
0
0
0
0
0
0
0
0
0
0
0
0
0
0
0
0
0
0
0
0
0
0
0
0
0
0
0
0
0
0
0
0
0
0
0
0
0
0
0
0
0
0
0
0
0
0
0
0
0
0
0
0
0
0
0
0
0
0
0
0
0
0
0
0
0
0
0
0
0
0
0
0
0
0
0
0
0
0
0
0
0
0
0
0
0
0
0
0
0
0
0
0
0
0
0
0
0
0
0
0
0
0
0
0
0
0
0
0
0
0
0
0
0
0
0
0
0
0
0
0
0
0
0
0
0
0
0
0
0
0
0
0
0
0
0
0
0
0
0
0
0
0
0
0
0
0
0
0
0
0
0
0
0
0
0
0
0
0
0
0
0
0
0
0
0
0
0
0
0
0
0
0
0
0
0
0
0
0
0
0
0
0
0
0
0
0
0
0
0
0
0
0
0
0
0
0
0
0
0
0
0
0
0
0
0
0
0
0
0
0
0
0
0
0
0
0
0
0
0
0
0
0
0
0
0
0
0
0
0
0
0
0
0
0
0
0
0
0
0
0
0
0
0
0
0
0
0
0
0
0
0
0
0
0
0
0
0
0
0
0
0
0
0
0
0
0
0
0
0
0
0
0
0
0
0
0
0
0
0
0
0
0
0
0
0
0
0
0
0
0
0
0
0
0
0
0
0
0
0
0
0
0
0
0
0
0
0
0
0
0
0
0
0
0
0
0
0
0
0
0
0
0
0
0
0
0
0
0
0
0
0
0
0
0
0
0
0
0
0
0
0
0
0
0
0
0
0
0
0
0
0
0
0
0
0
0
0
0
0
0
0
0
0
0
0
0
0
0
0
0
0
0
0
0
0
0
0
0
0
0
0
0
0
0
0
0
0
0
0
0
0
0
0
0
0
0
0
0
0
0
0
0
0
0
0
0
0
0
0
0
0
0
0
0
0
0
0
0
0
0
0
0
0
0
0
0
0
0
0
0
0
0
0
0
0
0
0
0
0
0
0
0
0
0
0
0
0
0
0
0
0
0
0
0
0
0
0
0
0
0
0
0
0
0
0
0
0
0
0
0
0
0
0
0
0
0
0
0
0
0
0
0
0
0
0
0
0
0
0
0
0
0
0
0
0
0
0
0
0
0
0
0
0
0
0
0
0
0
0
0
0
0
0
0
0
0
0
0
0
0
0
0
0
0
0
0
0
0
0
0
0
0
0
0
0
0
0
0
0
0
0
0
0
0
0
0
0
0
0
0
0
0
0
0
0
0
0
0
0
0
0
0
0
0
0
0
0
0
0
0
0
0
0
0
0
0
0
0
0
0
0
0
0
0
0
0
0
0
0
0
0
0
0
0
0
0
0
0
0
0
0
0
0
0
0
0
0
0
0
0
0
0
0
0
0
0
0
0
0
0
0
0
0
0
0
0
0
0
0
0
0
0
0
0
0
0
0
0
0
0
0
0
0
0
0
0
0
0
0
0
0
0
0
0
0
0
0
0
0
0
0
0
0
0
0
0
0
0
0
0
0
0
0
0
0
0
0
0
0
0
0
0
0
0
0
0
0
0
0
0
0
0
0
0
0
0
0
0
0
0
0
0
0
0
0
0
0
0
0
0
0
0
0
0
0
0
0
0
0
0
0
0
0
0
0
0
0
0
0
0
0
0
0
0
0
0
0
0
0
0
0
0
0
0
0
0
0
0
0
0
0
0
0
0
0
0
0
0
0
0
0
0
0
0
0
0
0
0
0
0
0
0
0
0
0
0
0
0
0
0
0
0
0
0
0
0
0
0
0
0
0
0
0
0
0
0
0
0
0
0
0
0
0
0
0
0
0
0
0
0
0
0
0
0
0
0
0
0
0
0
0
0
0
0
0
0
0
0
0
0
0
0
0
0
0
0
0
0
0
0
0
0
0
0
0
0
0
0
0
0
0
0
0
0
0
0
0
0
0
0
0
0
0
0
0
0
0
0
0
0
0
0
0
0
0
0
0
0
0
0
0
0
0
0
0
0
0
0
0
0
0
0
0
0
0
0
0
0
0
0
0
0
0
0
0
0
0
0
0
0
0
0
0
0
0
0
0
0
0
0
0
0
0
0
0
0
0
0
0
0
0
0
0
0
0
0
0
0
0
0
0
0
0
0
0
0
0
0
0
0
0
0
0
0
0
0
0
0
0
0
0
0
0
0
0
0
0
0
0
0
0
0
0
0
0
0
0
0
0
0
0
0
0
0
0
0
0
0
0
0
0
0
0
0
0
0
0
0
0
0
0
0
0
0
0
0
0
0
0
0
0
0
0
0
0
0
0
0
0
0
0
0
0
0
0
0
0
0
0
0
0
0
0
0
0
0
0
0
0
0
0
0
0
0
0
0
0
0
0
0
0
0
0
0
0
0
0
0
0
0
0
0
0
0
0
0
0
0
0
0
0
0
0
0
0
0
0
0
0
0
0
0
0
0
0
0
0
0
0
0
0
0
0
0
0
0
0
0
0
0
0
0
0
0
0
0
0
0
0
0
0
0
0
0
0
0
0
0
0
0
0
0
0
0
0
0
0
0
0
0
0
0
0
0
0
0
0
0
0
0
0
0
0
0
0
0
0
0
0
0
0
0
0
0
0
0
0
0
0
0
0
0
0
0
0
0
0
0
0
0
0
0
0
0
0
0
0
0
0
0
0
0
0
0
0
0
0
0
0
0
0
0
0
0
0
0
0
0
0
0
0
0
0
0
0
0
0
0
0
0
0
0
0
0
0
0
0
0
0
0
0
0
0
0
0
0
0
0
0
0
0
0
0
0
0
0
0
0
0
0
0
0
0
0
0
0
0
0
0
0
0
0
0
0
0
0
0
0
0
0
0
0
0
0
0
0
0
0
0
0
0
0
0
0
0
0
0
0
0
0
0
0
0
0
0
0
0
0
0
0
0
0
0
0
0
0
0
0
0
0
0
0
0
0
0
0
0
0
0
0
0
0
0
0
0
0
0
0
0
0
0
0
0
0
0
0
0
0
0
0
0
0
0
0
0
0
0
0
0
0
0
0
0
0
0
0
0
0
0
0
0
0
0
0
0
0
0
0
0
0
0
0
0
0
0
0
0
0
0
0
0
0
0
0
0
0
0
0
0
0
0
0
0
0
0
0
0
0
0
0
0
0
0
0
0
0
0
0
0
0
0
0
0
0
0
0
0
0
0
0
0
0
0
0
0

SCALARS 2DELEM_Plastic_Strain float 1
LOOKUP_TABLE default
0
0
0
0
0
0
0
0
0
0
0
0
0
0
0
0
0
0
0
0
0
0
0
0
0
0
0
0
0
0
0
0
0
0
0
0
0
0
0
0
0
0
0
0
0
0
0
0
0
0
0
0
0
0
0
0
0
0
0
0
0
0
0
0
0
0
0
0
0
0
0
0
0
0
0
0
0
0
0
0
0
0
0
0
0
0
0
0
0
0
0
0
0
0
0
0
0
0
0
0
0
0
0
0
0
0
0
0
0
0
0
0
0
0
0
0
0
0
0
0
0
0
0
0
0
0
0
0
0
0
0
0
0
0
0
0
0
0
0
0
0
0
0
0
0
0
0
0
0
0
0
0
0
0
0
0
0
0
0
0
0
0
0
0
0
0
0
0
0
0
0
0
0
0
0
0
0
0
0
0
0
0
0
0
0
0
0
0
0
0
0
0
0
0
0
0
0
0
0
0
0
0
0
0
0
0
0
0
0
0
0
0
0
0
0
0
0
0
0
0
0
0
0
0
0
0
0
0
0
0
0
0
0
0
0
0
0
0
0
0
0
0
0
0
0
0
0
0
0
0
0
0
0
0
0
0
0
0
0
0
0
0
0
0
0
0
0
0
0
0
0
0
0
0
0
0
0
0
0
0
0
0
0
0
0
0
0
0
0
0
0
0
0
0
0
0
0
0
0
0
0
0
0
0
0
0
0
0
0
0
0
0
0
0
0
0
0
0
0
0
0
0
0
0
0
0
0
0
0
0
0
0
0
0
0
0
0
0
0
0
0
0
0
0
0
0
0
0
0
0
0
0
0
0
0
0
0
0
0
0
0
0
0
0
0
0
0
0
0
0
0
0
0
0
0
0
0
0
0
0
0
0
0
0
0
0
0
0
0
0
0
0
0
0
0
0
0
0
0
0
0
0
0
0
0
0
0
0
0
0
0
0
0
0
0
0
0
0
0
0
0
0
0
0
0
0
0
0
0
0
0
0
0
0
0
0
0
0
0
0
0
0
0
0
0
0
0
0
0
0
0
0
0
0
0
0
0
0
0
0
0
0
0
0
0
0
0
0
0
0
0
0
0
0
0
0
0
0
0
0
0
0
0
0
0
0
0
0
0
0
0
0
0
0
0
0
0
0
0
0
0
0
0
0
0
0
0
0
0
0
0
0
0
0
0
0
0
0
0
0
0
0
0
0
0
0
0
0
0
0
0
0
0
0
0
0
0
0
0
0
0
0
0
0
0
0
0
0
0
0
0
0
0
0
0
0
0
0
0
0
0
0
0
0
0
0
0
0
0
0
0
0
0
0
0
0
0
0
0
0
0
0
0
0
0
0
0
0
0
0
0
0
0
0
0
0
0
0
0
0
0
0
0
0
0
0
0
0
0
0
0
0
0
0
0
0
0
0
0
0
0
0
0
0
0
0
0
0
0
0
0
0
0
0
0
0
0
0
0
0
0
0
0
0
0
0
0
0
0
0
0
0
0
0
0
0
0
0
0
0
0
0
0
0
0
0
0
0
0
0
0
0
0
0
0
0
0
0
0
0
0
0
0
0
0
0
0
0
0
0
0
0
0
0
0
0
0
0
0
0
0
0
0
0
0
0
0
0
0
0
0
0
0
0
0
0
0
0
0
0
0
0
0
0
0
0
0
0
0
0
0
0
0
0
0
0
0
0
0
0
0
0
0
0
0
0
0
0
0
0
0
0
0
0
0
0
0
0
0
0
0
0
0
0
0
0
0
0
0
0
0
0
0
0
0
0
0
0
0
0
0
0
0
0
0
0
0
0
0
0
0
0
0
0
0
0
0
0
0
0
0
0
0
0
0
0
0
0
0
0
0
0
0
0
0
0
0
0
0
0
0
0
0
0
0
0
0
0
0
0
0
0
0
0
0
0
0
0
0
0
0
0
0
0
0
0
0
0
0
0
0
0
0
0
0
0
0
0
0
0
0
0
0
0
0
0
0
0
0
0
0
0
0
0
0
0
0
0
0
0
0
0
0
0
0
0
0
0
0
0
0
0
0
0
0
0
0
0
0
0
0
0
0
0
0
0
0
0
0
0
0
0
0
0
0
0
0
0
0
0
0
0
0
0
0
0
0
0
0
0
0
0
0
0
0
0
0
0
0
0
0
0
0
0
0
0
0
0
0
0
0
0
0
0
0
0
0
0
0
0
0
0
0
0
0
0
0
0
0
0
0
0
0
0
0
0
0
0
0
0
0
0
0
0
0
0
0
0
0
0
0
0
0
0
0
0
0
0
0
0
0
0
0
0
0
0
0
0
0
0
0
0
0
0
0
0
0
0
0
0
0
0
0
0
0
0
0
0
0
0
0
0
0
0
0
0
0
0
0
0
0
0
0
0
0
0
0
0
0
0
0
0
0
0
0
0
0
0
0
0
0
0
0
0
0
0
0
0
0
0
0
0
0
0
0
0
0
0
0
0
0
0
0
0
0
0
0
0
0
0
0
0
0
0
0
0
0
0
0
0
0
0
0
0
0
0
0
0
0
0
0
0
0
0
0
0
0
0
0
0
0
0
0
0
0
0
0
0
0
0
0
0
0
0
0
0
0
0
0
0
0
0
0
0
0
0
0
0
0
0
0
0
0
0
0
0
0
0
0
0
0
0
0
0
0
0
0
0
0
0
0
0
0
0
0
0
0
0
0
0
0
0
0
0
0
0
0
0
0
0
0
0
0
0
0
0
0
0
0
0
0
0
0
0
0
0
0
0
0
0
0
0
0
0
0
0
0
0
0
0
0
0
0
0
0
0
0
0
0
0
0
0
0
0
0
0
0
0
0
0
0
0
0
0
0
0
0
0
0
0
0
0
0
0
0
0
0
0
0
0
0
0
0
0
0
0
0
0
0
0
0
0
0
0
0
0
0
0
0
0
0
0
0
0
0
0
0
0
0
0
0
0
0
0
0
0
0
0
0
0
0
0
0
0
0
0
0
0
0
0
0
0
0
0
0
0
0
0
0
0
0
0
0
0
0
0
0
0
0
0
0
0
0
0
0
0
0
0
0
0
0
0
0
0
0
0
0
0
0
0
0
0
0
0
0
0
0
0
0
0
0
0
0
0
0
0
0
0
0
0
0
0
0
0
0
0
0
0
0
0
0
0
0
0
0
0
0
0
0
0
0
0
0
0
0
0
0
0
0
0
0
0
0
0
0
0
0
0
0
0
0
0
0
0
0
0
0
0
0
0
0
0
0
0
0
0
0
0
0
0
0
0
0
0
0
0
0
0
0
0
0
0
0
0
0
0
0
0
0
0
0
0
0
0
0
0
0
0
0
0
0
0
0
0
0
0
0
0
0
0
0
0
0
0
0
0
0
0
0
0
0
0
0
0
0
0
0
0
0
0
0
0
0
0
0
0
0
0
0
0
0
0
0
0
0
0
0
0
0
0
0
0
0
0
0
0
0
0
0
0
0
0
0
0
0
0
0
0
0
0
0
0
0
0
0
0
0
0
0
0
0
0
0
0
0
0
0
0
0
0
0
0
0
0
0
0
0
0
0
0
0
0
0
0
0
0
0
0
0
0
0
0
0
0
0
0
0
0
0
0
0
0
0
0
0
0
0
0
0
0
0
0
0
0
0
0
0
0
0
0
0
0
0
0
0
0
0
0
0
0
0
0
0
0
0
0
0
0
0
0
0
0
0
0
0
0
0
0
0
0
0
0
0
0
0
0
0
0
0
0
0
0
0
0
0
0
0
0
0
0
0
0
0
0
0
0
0
0
0
0
0
0
0
0
0
0
0
0
0
0
0
0
0
0
0
0
0
0
0
0
0
0
0
0
0
0
0
0
0
0
0
0
0
0
0
0
0
0
0
0
0
0
0
0
0
0
0
0
0
0
0
0
0
0
0
0
0
0
0
0
0
0
0
0
0
0
0
0
0
0
0
0
0
0
0
0
0
0
0
0
0
0
0
0
0
0
0
0
0
0
0
0
0
0
0
0
0
0
0
0
0
0
0
0
0
0
0
0
0
0
0
0
0
0
0
0
0
0
0
0
0
0
0
0
0
0
0
0
0
0
0
0
0
0
0
0
0
0
0
0
0
0
0
0
0
0
0
0
0
0
0
0
0
0
0
0
0
0
0
0
0
0
0
0
0
0
0
0
0
0
0
0
0
0
0
0
0
0
0
0
0
0
0
0
0
0
0
0
0
0
0
0
0
0
0
0
0
0
0
0
0
0
0
0
0
0
0
0
0
0
0
0
0
0
0
0
0
0
0
0
0
0
0
0
0
0
0
0
0
0
0
0
0
0
0
0
0
0
0
0
0
0
0
0
0
0
0
0
0
0
0
0
0
0
0
0
0
0
0
0
0
0
0
0
0
0
0
0
0
0
0
0
0
0
0
0
0
0
0
0
0
0
0
0
0
0
0
0
0
0
0
0
0
0
0
0
0
0
0
0
0
0
0
0
0
0
0
0
0
0
0
0
0
0
0
0
0
0
0
0
0
0
0
0
0
0
0
0
0
0
0
0
0
0
0
0
0
0
0
0
0
0
0
0
0
0
0
0
0
0
0
0
0
0
0
0
0
0
0
0
0
0
0
0
0
0
0
0
0
0
0
0
0
0
0
0
0
0.00194042
0.00207691
0
0
0
0
0
0
0
0
0
0
0
0
0
0
0
0
0
0
0
0
0
0
0
0
0
0
0
0
0
0
0
0
0
0
0
0
0
0
0
0
0
0
0
0
0
0
0
0
0
0
0
0
0
0
0
0
0
0
0
0
0
0
0
0
0
0
0
0
0
0
0
0
0
0
0
0
0
0
0
0
0
0
0
0
0
0
0
0
0.0019128
0.000724491
0
0
0
0
0
0
0
0
0
0
0
0
0
0
0
0
0
0
0
0
0
0
0
0
0
0
0
0
0
0
0
0
0
0
0
0
0
0
0
0
0
0
0
0
0
0
0
0
0
0
0
0
0
0
0
0
0
0
0
0
0
0
0
0
0
0
0
0
0
0
0
0
0
0
0
0
0
0
0
0
0
0
0
0
0
0
0
0
0.000118362
0.00429028
0.00460766
0.000119582
0
0
0
0
0
0
0
0
0
0
0
0
0
0
0
0
0
0
0
0
0
0
0
0
0
0
0
0
0
0
0
0
0
0
0
0
0
0
0
0
0
0
0
0
0
0
0
0
0
0
0
0
0
0
0
0
0
0
0
0
0
0
0
0
0
0
0
0
0
0
0
0
0
0
0
0
0
0
0
0
0
0
0
0
0
0
0
0
0
0
0
0.00217257
0.002275
0
0
0
0
0
0
0
0
0
0
0
0
0
0
0
0
0
0
0
0
0
0
0
0
0
0
0
0
0
0
0
0
0
0
0
0
0
0
0
0
0
0
0
0
0
0
0
0
0
0
0
0
0
0
0
0
0
0
0
0
0
0
0
0
0
0
0
0
0
0
0
0
0
0
0
0
0
0
0
0
0
0
0
0
0
0
0
0
0
0
0
0
0
0
0
0
0
0
0
0
0
0
0
0
0
0
0
0
0
0
0
0
0
0
0
0
0
0
0
0
0
0
0
0
0
0
0
0
0
0
0
0
0
0
0
0
0
0
0
0
0
0
0
0
0
0
0
0
0
0
0
0
0
0
0
0
0
0
0
0
0
0
0
0
0
0
0
0
0
0
0
0
0
0
0
0
0
0
0
0
0
0
0
0
0
0
0
0
0
0
0
0
0
0
0
0
0
0
0
0
0
0
0
0
0
0
0
0
0
0
0
0
0
0
0
0
0
0
0
0
0
0
0
0
0
0
0
0
0
0
0
0
0
0
0
0
0
0
0
0
0
0
0
0
0
0
0
0
0
0
0
0
0
0
0
0
0
0
0
0
0
0
0
0
0
0
0
0
0
0
0
0
0
0
0
0
0
0
0
0
0
0
0
0
0
0
0
0
0
0
0
0
0
0
0
0
0
0
0
0
0
0
0
0
0
0
0
0
0
0
0
0
0
0
0
0
0
0
0
0
0
0
0
0
0
0
0
0
0
0
0
0
0
0
0
0
0
0
0
0
0
0
0
0
0
0
0
0
0
0
0
0
0
0
0
0
0
0
0
0
0
0
0
0
0
0
0
0
0
0
0
0
0
0
0
0
0
0
0
0
0
0
0
0
0
0
0
0
0
0
0
0
3.81514e-05
0.000400486
0
0
0
0
0
0
0
0
0
0
0
0
0
0
0
0
0
0
0
0
0
0
0
0
0
0
0
0
0
0
0
0
0
0
0
0
0
0
0
0
0
0
0
0
0
0
0
0
0
0
0
0
0
0
0
0
0
0
0
0
0
0
0
0
0
0
0
0
0
0
0
0
0
0
0
0
0
0
0
0
0
0
0
0
0
0
0
0
0
0
0
0
0
0
0
0
0
0
0
0
0
0
0.000227337
4.52215e-05
0
0
0
0
0
0
0
0
0
0
0
0
0
0
0
0
0
0
0
0
0
0
0
0
0
0
0
0
0
0
0
0
0
0
0
0
0
0
0
0
0
0
0
0
0
0
0
0
0
0
0
0
0
0
0
0
0
0
0
0
0
0
0
0
0
0
0
0
0
0
0
0
0
0
0
0
0
0
0
0
0
0
0
0
0
0
0
0
0
0
0
0
0
0
0
0
0
0
0
0
0
0
0
0
0.00206285
0.00189207
0
0
0
0
0
0
0
0
0
0
0
0
0
0
0
0
0
0
0
0
0
0
0
0
0
0
0
0
0
0
0
0
0
0
0
0
0
0
0
0
0
0
0
0
0
0
0
0
0
0
0
0
0
0
0
0
0
0
0
0
0
0
0
0
0
0
0
0
0
0
0
0
0
0
0
0
0
0
0
0
0
0
0
0
0
0
0
0
0
0
0
0
0
0
0
0
0
0
0
0
0
0
0
0
0
0
0.00227908
0.00236482
0
0
0
0
0
0
0
0
0
0
0
0
0
0
0
0
0
0
0
0
0
0
0
0
0
0
0
0
0
0
0
0
0
0
0
0
0
0
0
0
0
0
0
0
0
0
0
0
0
0
0
0
0
0
0
0
0
0
0
0
0
0
0
0
0
0
0
0
0
0
0
0
0
0
0
0
0
0
0
0
0
0
0
0
0
0
0
0
0
0
0
0
0
0
0
0
0
0
0
0
0
0
0
0
0
0
0
0.000403412
0.00594142
0.00660596
0.00067621
0
0
0
0
0
0
0
0
0
0
0
0
0
0
0
0
0
0
0
0
0
0
0
0
0
0
0
0
0
0
0
0
0
0
0
0
0
0
0
0
0
0
0
0
0
0
0
0
0
0
0
0
0
0
0
0
0
0
0
0
0
0
0
0
0
0
0
0
0
0
0
0
0
0
0
0
0
0
0
0
0
0
0
0
0
0
0
0
0
0
0
0
0
0
0
0
0
0
0
0
0
0
0
0
0
0
0
0
0.000118141
0.00348758
0.00363589
0.000112495
0
0
0
0
0
0
0
0
0
0
0
0
0
0
0
0
0
0
0
0
0
0
0
0
0
0
0
0
0
0
0
0
0
0
0
0
0
0
0
0
0
0
0
0
0
0
0
0
0
0
0
0
0
0
0
0
0
0
0
0
0
0
0
0
0
0
0
0
0
0
0
0
0
0
0
0
0
0
0
0
0
0
0
0
0
0
0
0
0
0
0
0
0
0
0
0
0
0
0
0
0
0
0
0
0
0
0
0
0
0
0.00171796
0.00354695
0.000851547
0
0
0
0
0
0
0
0
0
0
0
0
0
0
0
0
0
0
0
0
0
0
0
0
0
0
0
0
0
0
0
0
0
0
0
0
0
0
0
0
0
0
0
0
0
0
0
0
0
0
0
0
0
0
0
0
0
0
0
0
0
0
0
0
0
0
0
0
0
0
0
0
0
0
0
0
0
0
0
0
0
0
0
0
0
0
0
0
0
0
0
0
0
0
0
0
0
0
0
0
0
0
0
0
0
0
0
0
0
0
0
0
0.00169356
0.00666675
0.00999364
0.00201294
6.30121e-05
0
0
0
0
0
0
0
0
0
0
0
0
0
0
0
0
0
0
0
0
0
0
0
0
0
0
0
0
0
0
0
0
0
0
0
0
0
0
0
0
0
0
0
0
0
0
0
0
0
0
0
0
0
0
0
0
0
0
0
0
0
0
0
0
0
0
0
0
0
0
0
0
0
0
0
0
0
0
0
0
0
0
0
0
0
0
0
0
0
0
0
0
0
0
0
0
0
0
0
0
0
0
0
0
0
0
0
0
0
0
0
0
0
0.000586598
0.00415729
0.00664142
0.00152021
7.20569e-05
0
0
0
0
0
0
0
0
0
0
0
0
0
0
0
0
0
0
0
0
0
0
0
0
0
0
0
0
0
0
0
0
0
0
0
0
0
0
0
0
0
0
0
0
0
0
0
0
0
0
0
0
0
0
0
0
0
0
0
0
0
0
0
0
0
0
0
0
0
0
0
0
0
0
0
0
0
0
0
0
0
0
0
0
0
0
0
0
0
0
0
0
0
0
0
0
0
0
0
0
0
0
0
0
0
0
0
0
0
0
0
0
0
0
0
0
0.00118727
0.00373542
0
0
0
0
0
0
0
0
0
0
0
0
0
0
0
0
0
0
0
0
0
0
0
0
0
0
0
0
0
0
0
0
0
0
0
0
0
0
0
0
0
0
0
0
0
0
0
0
0
0
0
0
0
0
0
0
0
0
0
0
0
0
0
0
0
0
0
0
0
0
0
0
0
0
0
0
0
0
0
0
0
0
0
0
0
0
0
0
0
0
0
0
0
0
0
0
0
0
0
0
0
0
0
0
0
0
0
0
0
0
0
0
0
0
0
0
0
0
0
0
0.00154042
0.00205162
0
0
0
0
0
0
0
0
0
0
0
0
0
0
0
0
0
0
0
0
0
0
0
0
0
0
0
0
0
0
0
0
0
0
0
0
0
0
0
0
0
0
0
0
0
0
0
0
0
0
0
0
0
0
0
0
0
0
0
0
0
0
0
0
0
0
0
0
0
0
0
0
0
0
0
0
0
0
0
0
0
0
0
0
0
0
0
0
0
0
0
0
0
0
0
0
0
0
0
0
0
0
0
0
0
0
0
0
0
0
0
0
0
0
0
0
0
0
0
0
0
0
0.00028359
0.00198833
0.000307374
0
0
0
0
0
0
0
0
0
0
0
0
0
0
0
0
0
0
0
0
0
0
0
0
0
0
0
0
0
0
0
0
0
0
0
0
0
0
0
0
0
0
0
0
0
0
0
0
0
0
0
0
0
0
0
0
0
0
0
0
0
0
0
0
0
0
0
0
0
0
0
0
0
0
0
0
0
0
0
0
0
0
0
0
0
0
0
0
0
0
0
0
0
0
0
0
0
0
0
0
0
0
0
0
0
0
0
0
0
0
0
0
0
0
0
0
0
0
0
0
0
0
1.2091e-05
0.000718878
0.00769474
0.00297357
7.00369e-05
0
0
0
0
0
0
0
0
0
0
0
0
0
0
0
0
0
0
0
0
0
0
0
0
0
0
0
0
0
0
0
0
0
0
0
0
0
0
0
0
0
0
0
0
0
0
0
0
0
0
0
0
0
0
0
0
0
0
0
0
0
0
0
0
0
0
0
0
0
0
0
0
0
0
0
0
0
0
0
0
0
0
0
0
0
0
0
0
0
0
0
0
0
0
0
0
0
0
0
0
0
0
0
0
0
0
0
0
0
0
0
0
0
0
0
0
0
0
0
0
0
0
0
0
0.000458541
0.00561958
0.00306488
0
0
0
0
0
0
0
0
0
0
0
0
0
0
0
0
0
0
0
0
0
0
0
0
0
0
0
0
0
0
0
0
0
0
0
0
0
0
0
0
0
0
0
0
0
0
0
0
0
0
0
0
0
0
0
0
0
0
0
0
0
0
0
0
0
0
0
0
0
0
0
0
0
0
0
0
0
0
0
0
0
0
0
0
0
0
0
0
0
0
0
0
0
0
0
0
0
0
0
0
0
0
0
0
0
0
0
0
0
0
0
0
0
0
0
0
0
0
0
0
0
0
0
0
0
0
0
0
0.0034103
0.00156336
0
0
0
0
0
0
0
0
0
0
0
0
0
0
0
0
0
0
0
0
0
0
0
0
0
0
0
0
0
0
0
0
0
0
0
0
0
0
0
0
0
0
0
0
0
0
0
0
0
0
0
0
0
0
0
0
0
0
0
0
0
0
0
0
0
0
0
0
0
0
0
0
0
0
0
0
0
0
0
0
0
0
0
0
0
0
0
0
0
0
0
0
0
0
0
0
0
0
0
0
0
0
0
0
0
0
0
0
0
0
0
0
0
0
0
0
0
0
0
0
0
0
0
0
0
0
0
0
0
0
0.00177582
0.00285049
3.79846e-05
0
0
0
0
0
0
0
0
0
0
0
0
0
0
0
0
0
0
0
0
0
0
0
0
0
0
0
0
0
0
0
0
0
0
0
0
0
0
0
0
0
0
0
0
0
0
0
0
0
0
0
0
0
0
0
0
0
0
0
0
0
0
0
0
0
0
0
0
0
0
0
0
0
0
0
0
0
0
0
0
0
0
0
0
0
0
0
0
0
0
0
0
0
0
0
0
0
0
0
0
0
0
0
0
0
0
0
0
0
0
0
0
0
0
0
0
0
0
0
0
0
0
0
0
0
0
0
0
0
0
0
0.00383832
0.0065819
0.00198046
0
0
0
0
0
0
0
0
0
0
0
0
0
0
0
0
0
0
0
0
0
0
0
0
0
0
0
0
0
0
0
0
0
0
0
0
0
0
0
0
0
0
0
0
0
0
0
0
0
0
0
0
0
0
0
0
0
0
0
0
0
0
0
0
0
0
0
0
0
0
0
0
0
0
0
0
0
0
0
0
0
0
0
0
0
0
0
0
0
0
0
0
0
0
0
0
0
0
0
0
0
0
0
0
0
0
0
0
0
0
0
0
0
0
0
0
0
0
0
0
0
0
0
0
0
0
0
0
0
0
0
0
5.92884e-05
0.00316649
0.0127942
0.00681254
0.0014595
1.32192e-05
0
0
0
0
0
0
0
0
0
0
0
0
0
0
0
0
0
0
0
0
0
0
0
0
0
0
0
0
0
0
0
0
0
0
0
0
0
0
0
0
0
0
0
0
0
0
0
0
0
0
0
0
0
0
0
0
0
0
0
0
0
0
0
0
0
0
0
0
0
0
0
0
0
0
0
0
0
0
0
0
0
0
0
0
0
0
0
0
0
0
0
0
0
0
0
0
0
0
0
0
0
0
0
0
0
0
0
0
0
0
0
0
0
0
0
0
0
0
0
0
0
0
0
0
0
0
0
0
0
0
0
0
0
0.00124173
0.00696654
0.0051169
0.000748132
0
0
0
0
0
0
0
0
0
0
0
0
0
0
0
0
0
0
0
0
0
0
0
0
0
0
0
0
0
0
0
0
0
0
0
0
0
0
0
0
0
0
0
0
0
0
0
0
0
0
0
0
0
0
0
0
0
0
0
0
0
0
0
0
0
0
0
0
0
0
0
0
0
0
0
0
0
0
0
0
0
0
0
0
0
0
0
0
0
0
0
0
0
0
0
0
0
0
0
0
0
0
0
0
0
0
0
0
0
0
0
0
0
0
0
0
0
0
0
0
0
0
0
0
0
0
0
0
0
0
0
0
0
0
0
0
0
0.0051452
0.00679906
0.00370396
0.000516955
0
0
0
0
0
0
0
0
0
0
0
0
0
0
0
0
0
0
0
0
0
0
0
0
0
0
0
0
0
0
0
0
0
0
0
0
0
0
0
0
0
0
0
0
0
0
0
0
0
0
0
0
0
0
0
0
0
0
0
0
0
0
0
0
0
0
0
0
0
0
0
0
0
0
0
0
0
0
0
0
0
0
0
0
0
0
0
0
0
0
0
0
0
0
0
0
0
0
0
0
0
0
0
0
0
0
0
0
0
0
0
0
0
0
0
0
0
0
0
0
0
0
0
0
0
0
0
0
0
0
0
0
0
0
0
0
0
0.000254054
0.00443548
0.0169201
0.00929188
0.0028869
0.000373486
0
0
0
0
0
0
0
0
0
0
0
0
0
0
0
0
0
0
0
0
0
0
0
0
0
0
0
0
0
0
0
0
0
0
0
0
0
0
0
0
0
0
0
0
0
0
0
0
0
0
0
0
0
0
0
0
0
0
0
0
0
0
0
0
0
0
0
0
0
0
0
0
0
0
0
0
0
0
0
0
0
0
0
0
0
0
0
0
0
0
0
0
0
0
0
0
0
0
0
0
0
0
0
0
0
0
0
0
0
0
0
0
0
0
0
0
0
0
0
0
0
0
0
0
0
0
0
0
0
0
0
0
0
0
0
0
0
0
0.000179638
0.00258068
0.0093247
0.0069619
0.00162797
0.000293772
0
0
0
0
0
0
0
0
0
0
0
0
0
0
0
0
0
0
0
0
0
0
0
0
0
0
0
0
0
0
0
0
0
0
0
0
0
0
0
0
0
0
0
0
0
0
0
0
0
0
0
0
0
0
0
0
0
0
0
0
0
0
0
0
0
0
0
0
0
0
0
0
0
0
0
0
0
0
0
0
0
0
0
0
0
0
0
0
0
0
0
0
0
0
0
0
0
0
0
0
0
0
0
0
0
0
0
0
0
0
0
0
0
0
0
0
0
0
0
0
0
0
0
0
0
0
0
0
0
0
0
0
0
0
0
0
0
0
0
0
0
0.000212469
0.00242627
0.00151237
0
0
0
0
0
0
0
0
0
0
0
0
0
0
0
0
0
0
0
0
0
0
0
0
0
0
0
0
0
0
0
0
0
0
0
0
0
0
0
0
0
0
0
0
0
0
0
0
0
0
0
0
0
0
0
0
0
0
0
0
0
0
0
0
0
0
0
0
0
0
0
0
0
0
0
0
0
0
0
0
0
0
0
0
0
0
0
0
0
0
0
0
0
0
0
0
0
0
0
0
0
0
0
0
0
0
0
0
0
0
0
0
0
0
0
0
0
0
0
0
0
0
0
0
0
0
0
0
0
0
0
0
0
0
0
0
0
0
0
0
0
0
0
0
0
5.13509e-05
0.000664419
0.0014311
0.000245047
1.1999e-05
0
0
0
0
0
0
0
0
0
0
0
0
0
0
0
0
0
0
0
0
0
0
0
0
0
0
0
0
0
0
0
0
0
0
0
0
0
0
0
0
0
0
0
0
0
0
0
0
0
0
0
0
0
0
0
0
0
0
0
0
0
0
0
0
0
0
0
0
0
0
0
0
0
0
0
0
0
0
0
0
0
0
0
0
0
0
0
0
0
0
0
0
0
0
0
0
0
0
0
0
0
0
0
0
0
0
0
0
0
0
0
0
0
0
0
0
0
0
0
0
0
0
0
0
0
0
0
0
0
0
0
0
0
0
0
0
0
0
0
0
0
0
0
0
0
0
0.000252281
0.000243332
0.003255
0.00268466
0
0
0
0
0
0
0
0
0
0
0
0
0
0
0
0
0
0
0
0
0
0
0
0
0
0
0
0
0
0
0
0
0
0
0
0
0
0
0
0
0
0
0
0
0
0
0
0
0
0
0
0
0
0
0
0
0
0
0
0
0
0
0
0
0
0
0
0
0
0
0
0
0
0
0
0
0
0
0
0
0
0
0
0
0
0
0
0
0
0
0
0
0
0
0
0
0
0
0
0
0
0
0
0
0
0
0
0
0
0
0
0
0
0
0
0
0
0
0
0
0
0
0
0
0
0
0
0
0
0
0
0
0
0
0
0
0
0
0
0
0
0
0
0
0
0
0
0
0
0
0.00190585
0.00237507
0
0
0
0
0
0
0
0
0
0
0
0
0
0
0
0
0
0
0
0
0
0
0
0
0
0
0
0
0
0
0
0
0
0
0
0
0
0
0
0
0
0
0
0
0
0
0
0
0
0
0
0
0
0
0
0
0
0
0
0
0
0
0
0
0
0
0
0
0
0
0
0
0
0
0
0
0
0
0
0
0
0
0
0
0
0
0
0
0
0
0
0
0
0
0
0
0
0
0
0
0
0
0
0
0
0
0
0
0
0
0
0
0
0
0
0
0
0
0
0
0
0
0
0
0
0
0
0
0
0
0
0
0
0
0
0
0
0
0
0
0
0
0
0
0
0
0
0
0
0
0
0
0
0.00446636
0.00369594
0
0
0
0
0
0
0
0
0
0
0
0
0
0
0
0
0
0
0
0
0
0
0
0
0
0
0
0
0
0
0
0
0
0
0
0
0
0
0
0
0
0
0
0
0
0
0
0
0
0
0
0
0
0
0
0
0
0
0
0
0
0
0
0
0
0
0
0
0
0
0
0
0
0
0
0
0
0
0
0
0
0
0
0
0
0
0
0
0
0
0
0
0
0
0
0
0
0
0
0
0
0
0
0
0
0
0
0
0
0
0
0
0
0
0
0
0
0
0
0
0
0
0
0
0
0
0
0
0
0
0
0
0
0
0
0
0
0
0
0
0
0
0
0
0
0
0
0
0
0
0
0
0
0
0.00168764
0.00562552
0.00355652
0
0
0
0
0
0
0
0
0
0
0
0
0
0
0
0
0
0
0
0
0
0
0
0
0
0
0
0
0
0
0
0
0
0
0
0
0
0
0
0
0
0
0
0
0
0
0
0
0
0
0
0
0
0
0
0
0
0
0
0
0
0
0
0
0
0
0
0
0
0
0
0
0
0
0
0
0
0
0
0
0
0
0
0
0
0
0
0
0
0
0
0
0
0
0
0
0
0
0
0
0
0
0
0
0
0
0
0
0
0
0
0
0
0
0
0
0
0
0
0
0
0
0
0
0
0
0
0
0
0
0
0
0
0
0
0
0
0
0
0
0
0
0
0
0
0
0
0
0
0
0
0
0
0
0
0
0.0049716
0.0050058
0.000987865
0
0
0
0
0
0
0
0
0
0
0
0
0
0
0
0
0
0
0
0
0
0
0
0
0
0
0
0
0
0
0
0
0
0
0
0
0
0
0
0
0
0
0
0
0
0
0
0
0
0
0
0
0
0
0
0
0
0
0
0
0
0
0
0
0
0
0
0
0
0
0
0
0
0
0
0
0
0
0
0
0
0
0
0
0
0
0
0
0
0
0
0
0
0
0
0
0
0
0
0
0
0
0
0
0
0
0
0
0
0
0
0
0
0
0
0
0
0
0
0
0
0
0
0
0
0
0
0
0
0
0
0
0
0
0
0
0
0
0
0
0
0
0
0
0
0
0
0
0
0
0
0
0
0
0
0
0
0.00240627
0.00570087
0.00381527
0.000264607
0
0
0
0
0
0
0
0
0
0
0
0
0
0
0
0
0
0
0
0
0
0
0
0
0
0
0
0
0
0
0
0
0
0
0
0
0
0
0
0
0
0
0
0
0
0
0
0
0
0
0
0
0
0
0
0
0
0
0
0
0
0
0
0
0
0
0
0
0
0
0
0
0
0
0
0
0
0
0
0
0
0
0
0
0
0
0
0
0
0
0
0
0
0
0
0
0
0
0
0
0
0
0
0
0
0
0
0
0
0
0
0
0
0
0
0
0
0
0
0
0
0
0
0
0
0
0
0
0
0
0
0
0
0
0
0
0
0
0
0
0
0
0
0
0
0
0
0
0
0
0
0
0
0
0
0
0
0
0
0.00359811
0.00614223
0.00332946
0
0
0
0
0
0
0
0
0
0
0
0
0
0
0
0
0
0
0
0
0
0
0
0
0
0
0
0
0
0
0
0
0
0
0
0
0
0
0
0
0
0
0
0
0
0
0
0
0
0
0
0
0
0
0
0
0
0
0
0
0
0
0
0
0
0
0
0
0
0
0
0
0
0
0
0
0
0
0
0
0
0
0
0
0
0
0
0
0
0
0
0
0
0
0
0
0
0
0
0
0
0
0
0
0
0
0
0
0
0
0
0
0
0
0
0
0
0
0
0
0
0
0
0
0
0
0
0
0
0
0
0
0
0
0
0
0
0
0
0
0
0
0
0
0
0
0
0
0
0
0
0
0
0
0
0
0
0
0
0
0
0
0.00276192
0.0053841
0.00344151
0.000529096
0
0
0
0
0
0
0
0
0
0
0
0
0
0
0
0
0
0
0
0
0
0
0
0
0
0
0
0
0
0
0
0
0
0
0
0
0
0
0
0
0
0
0
0
0
0
0
0
0
0
0
0
0
0
0
0
0
0
0
0
0
0
0
0
0
0
0
0
0
0
0
0
0
0
0
0
0
0
0
0
0
0
0
0
0
0
0
0
0
0
0
0
0
0
0
0
0
0
0
0
0
0
0
0
0
0
0
0
0
0
0
0
0
0
0
0
0
0
0
0
0
0
0
0
0
0
0
0
0
0
0
0
0
0
0
0
0
0
0
0
0
0
0
0
0
0
0
0
0
0
0
0
0
0
0
0
0
0
0
0
0
0
4.36333e-05
0.00264023
0.00381703
0.002769
0.000473932
0
0
0
0
0
0
0
0
0
0
0
0
0
0
0
0
0
0
0
0
0
0
0
0
0
0
0
0
0
0
0
0
0
0
0
0
0
0
0
0
0
0
0
0
0
0
0
0
0
0
0
0
0
0
0
0
0
0
0
0
0
0
0
0
0
0
0
0
0
0
0
0
0
0
0
0
0
0
0
0
0
0
0
0
0
0
0
0
0
0
0
0
0
0
0
0
0
0
0
0
0
0
0
0
0
0
0
0
0
0
0
0
0
0
0
0
0
0
0
0
0
0
0
0
0
0
0
0
0
0
0
0
0
0
0
0
0
0
0
0
0
0
0
0
0
0
0
0
0
0
0
0
0
0
0
0
0
0
0
0
0
0
0
0
3.53858e-05
0.000322013
0.002229
0.00154385
0.000782595
0
0
0
0
0
0
0
0
0
0
0
0
0
0
0
0
0
0
0
0
0
0
0
0
0
0
0
0
0
0
0
0
0
0
0
0
0
0
0
0
0
0
0
0
0
0
0
0
0
0
0
0
0
0
0
0
0
0
0
0
0
0
0
0
0
0
0
0
0
0
0
0
0
0
0
0
0
0
0
0
0
0
0
0
0
0
0
0
0
0
0
0
0
0
0
0
0
0
0
0
0
0
0
0
0
0
0
0
0
0
0
0
0
0
0
0
0
0
0
0
0
0
0
0
0
0
0
0
0
0
0
0
0
0
0
0
0
0
0
0
0
0
0
0
0
0
0
0
0
0
0
0
0
0
0
0
0
0
0
0
0
0
0
0
0
0
0
0
0
0
0
0
0
0
0
0
0
0
0
0
0
0
0
0
0
0
0
0
0
0
0
0
0
0
0
0
0
0
0
0
0
0
0
0
0
0
0
0
0
0
0
0
0
0
0
0
0
0
0
0
0
0
0
0
0
0
0
0
0
0
0
0
0
0
0
0
0
0
0
0
0
0
0
0
0
0
0
0
0
0
0
0
0
0
0
0
0
0
0
0
0
0
0
0
0
0
0
0
0
0
0
0
0
0
0
0
0
0
0
0
0
0
0
0
0
0
0
0
0
0
0
0
0
0
0
0
0
0
0
0
0
0
0
0
0
0
0
0
0
0
0
0
0
0
0
0
0
0
0
0
0
0
0
0
0
0
0
0
0
0
0
0
0
0
0
0.000231963
0.00036749
0.000106073
0
0
0
0
0
0
0
0
0
0
0
0
0
0
0
0
0
0
0
0
0
0
0
0
0
0
0
0
0
0
0
0
0
0
0
0
0
0
0
0
0
0
0
0
0
0
0
0
0
0
0
0
0
0
0
0
0
0
0
0
0
0
0
0
0
0
0
0
0
0
0
0
0
0
0
0
0
0
0
0
0
0
0
0
0
0
0
0
0
0
0
0
0
0
0
0
0
0
0
0
0
0
0
0
0
0
0
0
0
0
0
0
0
0
0
0
0
0
0
0
0
0
0
0
0
0
0
0
0
0
0
0
0
0
0
0
0
0
0
0
0
0
0
0
0
0
0
0
0
0
0
0
0
0
0
0
0
0
0
0
0
0
0
0
0
0
0
0
0
0
0
0
0
0
0
0
0
0
0
0
0
0
0
0
0
0
0
0
0
0
0
0
0
0
0
0
0
0
0
0
0
0
0
0
0
0
0
0
0
0
0
0
0
0
0
0
0
0
0
0
0
0
0
0
0
0
0
0
0
0
0
0
0
0
0
0
0
0
0
0
0
0
0
0
0
0
0
0
0
0
0
0
0
0
0
0
0
0
0
0
0
0
0
0
0
0
0
0
0
0
0
0
0
0
0
0
0
0
0
0
0
0
0
0
0
0
0
0
0
0
0
0
0
0
0
0
0
0
0
0
0
0
0
0
0
0
0
0
0
0
0
0
0
0
0
0
0
0
0
0
0
0
0
0
0
0
0
0
0
0
0
0
0
0
0
0
0
0
0
0
0
0
0
0
0
0
0
0.000165622
8.1608e-05
0
0
0
0
0
0
0
0
0
0
0
0
0
0
0
0
0
0
0
0
0
0
0
0
0
0
0
0
0
0
0
0
0
0
0
0
0
0
0
0
0
0
0
0
0
0
0
0
0
0
0
0
0
0
0
0
0
0
0
0
0
0
0
0
0
0
0
0
0
0
0
0
0
0
0
0
0
0
0
0
0
0
0
0
0
0
0
0
0
0
0
0
0
0
0
0
0
0
0
0
0
0
0
0
0
0
0
0
0
0
0
0
0
0
0
0
0
0
0
0
0
0
0
0
0
0
0
0
0
0
0
0
0
0
0
0
0
0
0
0
0
0
0
0
0
0
0
0
0
0
0
0
0
0
0
0
0
0
0
0
0
0
0
0
0
0
0
0
0
0
0
0
0
0
0
0
0
0
0
0
0
0
0
0
0
0
0
0
0
0
0
0
0
0
0
0
0
0
0
0
0
0
0
0
0
0
0
0
0
0
0
0
0
0
0
0
0
0
0
0
0
0
0
0
0
0
0
0
0
0
0
0
0
0
0
0
0
0
0
0
0
0
0
0
0
0
0
0
0
0
0
0
0
0
0
0
0
0
0
0
0
0
0
0
0
0
0
0
0
0
0
0
0
0
0
0
0
0
0
0
0
0
0
0
0
0
0
0
0
0
0
0
0
0
0
0
0
0
0
0
0
0
0
0
0
0
0
0
0
0
0
0
0
0
0
0
0
0
0
0
0
0
0
0
0
0
0
0
0
0
0
0
0
0
0
0
0
0
0
0
0
0
0
0
0
0
0
0
0
0
0
0
0
0
0
0
0
0
0
0
0
0
0
0
0
0
0
0
0
0
0
0
0
0
0
0
0
0
0
0
0
0
0
0
0
0
0
0
0
0
0
0
0
0
0
0
0
0
0
0
0
0
0
0
0
0
0
0
0
0
0
0
0
0
0
0
0
0
0
0
0
0
0
0
0
0
0
0
0
0
0
0
0
0
0
0
0
0
0
0
0
0
0
0
0
0
0
0
0
0
0
0
0
0
0
0
0
0
0
0
0
0
0
0
0
0
0
0
0
0
0
0
0
0
0
0
0
0
0
0
0
0
0
0
0
0
0
0
0
0
0
0
0
0
0
0
0
0
0
0
0
0
0
0
0
0
0
0
0
0
0
0
0
0
0
0
0
0
0
0
0
0
0
0
0
0
0
0
0
0
0
0
0
0
0
0
0
0
0
0
0
0
0
0
0
0
0
0
0
0
0
0
0
0
0
0
0
0
0
0
0
0
0
0
0
0
0
0
0
0
0
0
0
0
0
0
0
0
0
0
0
0
0
0
0
0
0
0
0
0
0
0
0
0
0
0
0
0
0
0
0
0
0
0
0
0
0
0
0
0
0
0
0
0
0
0
0
0
0
0
0
0
0
0
0
0
0
0
0
0
0
0
0
0
0
0
0
0
0
0
0
0
0
0
0
0
0
0
0
0
0
0
0
0
0
0
0
0
0
0
0
0
0
0
0
0
0
0
0
0
0
0
0
0
0
0
0
0
0
0
0
0
0
0
0
0
0
0
0
0
0
0
0
0
0
0
0
0
0
0
0
0
0
0
0
0
0
0
0
0
0
0
0
0
0
0
0
0
0
0
0
0
0
0
0
0
0
0
0
0
0
0
0
0
0
0
0
0
0
0
0
0
0
0
0
0
0
0
0
0
0
0
0
0
0
0
0
0
0
0
0
0
0
0
0
0
0
0
0
0
0
0
0
0
0
0
0
0
0
0
0
0
0
0
0
0
0
0
0
0
0
0
0
0
0
0
0
0
0
0
0
0
0
0
0
0
0
0
0
0
0
0
0
0
0
0
0
0
0
0
0
0
0
0
0
0
0
0
0
0
0
0
0
0
0
0
0
0
0
0
0
0
0
0
0
0
0
0
0
0
0
0
0
0
0
0
0
0
0
0
0
0
0
0
0
0
0
0
0
0
0
0
0
0
0
0
0
0
0
0
0
0
0
0
0
0
0
0
0
0
0
0
0
0
0
0
0
0
0
0
0
0
0
0
0
0
0
0
0
0
0
0
0
0
0
0
0
0
0
0
0
0
0
0
0
0
0
0
0
0
0
0
0
0
0
0
0
0
0
0
0
0
0
0
0
0
0
0
0
0
0
0
0
0
0
0
0
0
0
0
0
0
0
0
0
0
0
0
0
0
0
0
0
0
0
0
0
0
0
0
0
0
0
0
0
0
0
0
0
0
0
0
0
0
0
0
0
0
0
0
0
0
0
0
0
0
0
0
0
0
0
0
0
0
0
0
0
0
0
0
0
0
0
0
0
0
0
0
0
0
0
0
0
0
0
0
0
0
0
0
0
0
0
0
0
0
0
0
0
0
0
0
0
0
0
0
0
0
0
0
0
0
0
0
0
0
0
0
0
0
0
0
0
0
0
0
0
0
0
0
0
0
0
0
0
0
0
0
0
0
0
0
0
0
0
0
0
0
0
0
0
0
0
0
0
0
0
0
0
0
0
0
0
0
0
0
0
0
0
0
0
0
0
0
0
0
0
0
0
0
0
0
0
0
0
0
0
0
0
0
0
0
0
0
0
0
0
0
0
0
0
0
0
0
0
0
0
0
0
0
0
0
0
0
0
0
0
0
0
0
0
0
0
0
0
0
0
0
0
0
0
0
0
0
0
0
0
0
0
0
0
0
0
0
0
0
0
0
0
0
0
0
0
0
0
0
0
0
0
0
0
0
0
0
0
0
0
0
0
0
0
0
0
0
0
0
0
0
0
0
0
0
0
0
0
0
0
0
0
0
0
0
0
0
0
0
0
0
0
0
0
0
0
0
0
0
0
0
0
0
0
0
0
0
0
0
0
0
0
0
0
0
0
0
0
0
0
0
0
0
0
0
0
0
0
0
0
0
0
0
0
0
0
0
0
0
0
0
0
0
0
0
0
0
0
0
0
0
0
0
0
0
0
0
0
0
0
0
0
0
0
0
0
0
0
0
0
0
0
0
0
0
0
0
0
0
0
0
0
0
0
0
0
0
0
0
0
0
0
0
0
0
0
0
0
0
0
0
0
0
0
0
0
0
0
0
0
0
0
0
0
0
0
0
0
0
0
0
0
0
0
0
0
0
0
0
0
0
0
0
0
0
0
0
0
0
0
0
0
0
0
0
0
0
0
0
0
0
0
0
0
0
0
0
0
0
0
0
0
0
0
0
0
0
0
0
0
0
0
0
0
0
0
0
0
0
0
0
0
0
0
0
0
0
0
0
0
0
0
0
0
0
0
0
0
0
0
0
0
0
0
0
0
0
0
0
0
0
0
0
0
0
0
0
0
0
0
0
0
0
0
0
0
0
0
0
0
0
0
0
0
0
0
0
0
0
0
0
0
0
0
0
0
0
0
0
0
0
0
0
0
0
0
0
0
0
0
0
0
0
0
0
0
0
0
0
0
0
0
0
0
0
0
0
0
0
0
0
0
0
0
0
0
0
0
0
0
0
0
0
0
0
0
0
0
0
0
0
0
0
0
0
0
0
0
0
0
0
0
0
0
0
0
0
0
0
0
0
0
0
0
0
0
0
0
0
0
0
0
0
0
0
0
0
0
0
0
0
0
0
0
0
0
0
0
0
0
0
0
0
0
0
0
0
0
0
0
0
0
0
0
0
0
0
0
0
0
0
0
0
0
0
0
0
0
0
0
0
0
0
0
0
0
0
0
0
0
0
0
0
0
0
0
0
0
0
0
0
0
0
0
0
0
0
0
0
0
0
0
0
0
0
0
0
0
0
0
0
0
0
0
0
0
0
0
0
0
0
0
0
0
0
0
0
0
0
0
0
0
0
0
0
0
0
0
0
0
0
0
0
0
0
0
0
0
0
0
0
0
0
0
0
0
0
0
0
0
0
0
0
0
0
0
0
0
0
0
0
0
0
0
0
0
0
0
0
0
0
0
0
0
0
0
0
0
0
0
0
0
0
0
0
0
0
0
0
0
0
0
0
0
0
0
0
0
0
0
0
0
0
0
0
0
0
0
0
0
0
0
0
0
0
0
0
0
0
0
0
0
0
0
0
0
0
0
0
0
0
0
0
0
0
0
0
0
0
0
0
0
0
0
0
0
0
0
0
0
0
0
0
0
0
0
0
0
0
0
0
0
0
0
0
0
0
0
0
0
0
0
0
0
0
0
0
0
0
0
0
0
0
0
0
0
0
0
0
0
0
0
0
0
0
0
0
0
0
0
0
0
0
0
0
0
0
0
0
0
0
0
0
0
0
0
0
0
0
0
0
0
0
0
0
0
0
0
0
0
0
0
0
0
0
0
0
0
0
0
0
0
0
0
0
0
0
0
0
0
0
0
0
0
0
0
0
0
0
0
0
0
0
0
0
0
0
0
0
0
0
0
0
0
0
0
0
0
0
0
0
0
0
0
0
0
0
0
0
0
0
0
0
0
0
0
0
0
0
0
0
0
0
0
0
0
0
0
0
0
0
0
0
0
0
0
0
0
0
0
0
0
0
0
0
0
0
0
0
0
0
0
0
0
0
0
0
0
0
0
0
0
0
0
0
0
0
0
0
0
0
0
0
0
0
0
0
0
0
0
0
0
0
0
0
0
0
0
0
0
0
0
0
0
0
0
0
0
0
0
0
0
0
0
0
0
0
0
0
0
0
0
0
0
0
0
0
0
0
0
0
0
0
0
0
0
0
0
0
0
0
0
0
0
0
0
0
0
0
0
0
0
0
0
0
0
0
0
0
0
0
0
0
0
0
0
0
0
0
0
0
0
0
0
0
0
0
0
0
0
0
0
0
0
0
0
0
0
0
0
0
0
0
0
0
0
0
0
0
0
0
0
0
0
0
0
0
0
0
0
0
0
0
0
0
0
0
0
0

SCALARS 2DELEM_Specific_Energy float 1
LOOKUP_TABLE default
0
0
0
0
0
0
0
0
0
0
0
0
0
0
0
0
0
0
0
0
0
0
0
0
0
0
0
0
0
0
0
0
0
0
0
0
0
0
0
0
0.235574
0.214684
0
0.186864
0
0.682704
1.28774
2.3673
0
0.138823
1.24742
0
0.90055
2.74908
3.03933
1.68346
0
0.435059
0.886274
1.02407
0
0.64226
1.84309
1.99877
1.10395
0.677832
0
0.529314
1.51353
1.69845
2.77932
0
0.856192
1.67292
1.51215
0.885142
2.77103
2.04654
0
0.654888
1.822
2.30173
5.3525
4.87017
0
1.05332
2.10263
1.63902
0.375752
1.11261
2.59921
1.4583
0
0.659517
1.91767
1.19043
2.59967
3.96939
1.53766
0
0.902455
2.49473
2.92697
1.2053
1.97122
2.6442
2.8869
3.79297
0
1.02618
1.87549
0.992834
3.2798
2.69485
3.58189
7.1752
0
1.83426
2.75002
4.70169
0.387159
2.49734
1.35332
3.30977
8.07054
5.10869
0
0.611608
1.99035
1.30789
1.33479
1.74529
1.40982
3.17175
3.41987
0
0.846422
1.61306
3.11451
2.31074
3.11698
2.75793
2.89959
2.80278
3.25294
3.022
0
0.999008
1.574
1.63881
0.76189
1.79391
1.61879
4.99945
6.48797
5.39057
0
0.696535
1.58835
2.72621
2.86444
4.88502
2.2187
3.22148
3.20688
1.40367
4.37716
2.83506
0
0.315116
0.63882
0.921129
1.82464
3.02923
1.23812
2.43085
4.65024
6.24703
6.25286
0
1.27365
1.79531
2.53676
2.69812
5.71235
3.1165
3.98198
2.75375
2.98705
3.1241
2.47244
0.716061
0
0.483007
0.419253
0.471107
0.69367
2.19723
1.19432
0.635975
0.996648
1.24957
1.53089
2.888
0
2.95402
1.3975
2.9785
3.54656
6.72869
4.61784
2.43774
4.4243
4.34102
3.28226
1.7675
3.37882
3.39688
0
0.879328
1.6943
2.46452
3.31271
2.04333
3.65732
3.19344
4.23465
3.70229
3.28317
3.81096
4.75733
0
3.16216
1.3198
4.12896
5.48362
7.8853
3.41196
1.09178
1.39922
2.01171
1.95493
2.13346
3.0118
4.2511
4.91156
0
0.53951
2.51762
2.94668
3.14626
2.25954
2.27468
5.22161
7.23431
5.17592
5.73848
3.85211
3.58599
2.22509
0
3.95125
0.952723
7.72958
2.78997
6.35365
2.4898
1.25321
3.13332
2.98201
3.20274
4.59186
2.74654
6.62906
2.0194
8.97453
0
0.803508
1.93879
1.69242
1.99841
1.3754
3.52693
4.17766
2.54717
2.26621
4.00976
4.66929
5.86259
3.93195
2.6382
0
2.78521
1.2693
7.89402
4.79552
4.70981
1.05456
0.910268
1.50732
2.4486
4.10648
3.56374
2.63558
7.5786
6.42117
7.00406
6.41761
0
0.758691
1.93981
1.98188
2.33615
2.31647
2.05279
2.29112
0.943448
1.81426
1.38699
2.72798
2.87284
2.08055
1.70513
4.73985
0
1.18478
2.69249
3.65257
3.98887
3.47358
0.881049
0.816667
1.55201
2.32692
2.6134
5.65503
5.85462
5.4815
11.9072
11.027
2.03506
4.84724
0
1.14056
2.57159
2.68529
1.63973
1.57696
1.78235
1.8626
0.708363
1.73681
1.86414
2.23236
3.17053
1.32086
3.5443
3.23896
3.16399
0
0.583853
3.05541
2.80016
3.23716
3.41999
1.23451
1.68765
1.78369
1.89448
2.14741
5.80321
5.06846
5.87871
9.07489
9.74224
2.35442
1.10594
1.8268
0
0.959241
1.68842
0.879829
1.40591
0.195314
1.17883
2.32214
1.01784
1.95461
1.19361
4.46527
3.65385
2.75836
2.95943
3.86733
1.87355
2.9209
0
1.22491
5.06107
3.80855
4.58431
3.07086
2.3655
1.912
3.29251
1.55354
1.22982
2.69331
1.44714
3.57814
6.73503
8.39094
3.51097
1.58502
2.16566
2.90258
0
1.15343
0.485378
0.450718
0.626925
1.23186
0.585745
1.90439
2.02664
3.71101
2.38534
3.82232
4.12496
3.50485
5.55252
5.33168
3.41914
3.57976
5.6821
0
0.726715
2.63895
1.41179
3.62857
2.50623
6.64613
3.35706
6.22088
3.43235
1.80356
2.71152
0.826407
3.33982
4.71209
8.15149
4.58305
4.42471
3.39512
3.35761
5.65013
0
1.31221
1.43339
2.10912
1.21307
1.42605
0.862333
1.42462
0.674148
3.07297
2.00905
1.23777
1.48423
1.40425
1.40008
1.53537
0.436401
3.60834
1.78508
2.26963
0
1.45232
1.76054
2.64958
7.98782
2.22104
5.58339
4.87054
10.3337
4.59072
0.402214
1.87438
2.00583
3.9839
5.24425
7.88973
5.11217
3.29337
7.271
5.33888
1.36862
3.26988
0
1.21682
1.05109
2.68047
1.00618
0.431634
0.555034
1.29618
2.57196
2.67309
2.68583
1.28964
1.34873
1.84729
2.64418
6.36179
5.24149
3.99532
6.18375
4.85351
4.34303
0
1.42476
3.51076
3.94354
9.40876
2.30232
6.01698
4.00501
7.50306
2.88255
1.67361
2.3386
1.07152
5.525
6.74148
7.99816
8.75815
7.91859
4.8557
9.15305
1.77921
6.23264
5.88164
0
0.763924
0.829371
1.65439
0.761993
0.492307
1.08047
1.21113
1.49249
2.07702
2.41576
1.77499
1.84862
3.81414
4.6172
4.11621
3.26512
3.44444
4.92179
4.79756
4.25591
1.70807
0
1.6963
2.78691
9.68237
13.1794
1.52681
5.03655
3.83078
4.39458
2.70058
2.19043
1.47114
1.45844
4.7403
7.55068
7.90616
4.61645
2.78691
5.47496
6.83302
3.8811
4.81465
1.67292
3.2245
0
0.391724
1.99437
0.993925
3.08366
1.30018
1.70036
2.12364
1.68739
1.61242
0.605153
0.651633
2.27117
2.43882
4.61439
2.54347
1.50025
1.16487
0.663161
1.03232
2.56728
2.38463
3.56695
0
2.37426
3.90262
6.18172
10.9294
2.12661
3.8319
2.7905
3.1739
2.35303
3.88787
1.00624
1.63933
5.27403
6.23707
6.81117
3.62783
4.40555
3.82222
6.44132
1.55053
5.9216
3.76111
3.33966
1.79562
0
0.169807
1.55155
1.24736
3.21237
3.47663
3.30666
5.72021
3.43911
4.98007
2.77421
4.02353
5.51813
5.40197
5.7319
1.63126
3.07378
2.28159
3.38634
3.51625
2.40699
1.09871
1.50071
2.41624
0
3.40136
3.28297
4.87448
10.2403
4.67483
2.65583
3.68469
2.75096
1.93582
1.99747
2.07052
1.08988
2.00543
10.5464
13.307
4.62548
2.51738
4.71194
3.65408
2.45038
5.15527
1.22767
0.593502
3.39088
2.71651
0
0.444477
1.57636
1.3651
1.26533
2.82482
2.847
1.98509
3.52372
2.08589
2.4568
2.93326
4.16569
4.49756
2.6252
4.98917
4.05283
2.82099
2.21785
2.44088
1.36796
1.04185
2.56814
2.93817
5.55882
0
1.79215
1.1946
5.17689
10.0793
3.71118
1.94439
4.22967
2.09803
1.60107
1.61927
2.45174
1.6318
2.6731
5.58902
9.63069
4.68919
3.13635
4.69649
7.80317
2.21279
5.2181
1.91608
1.36084
3.1694
3.81577
1.24192
0
0.849525
2.41226
1.67684
2.26595
2.7121
1.73038
2.37169
2.99816
1.84637
2.37506
4.09505
2.60279
3.93142
5.88038
2.46066
1.91712
1.05933
1.87983
1.59155
1.78109
4.84064
6.50309
8.04166
10.5779
9.83323
0
4.11925
1.09041
3.04609
7.39856
2.2536
3.92749
2.8059
2.94162
1.09781
0.828157
3.44758
1.67722
1.99921
5.32328
9.85832
5.48552
3.03962
6.89701
4.57203
4.96305
3.52301
1.56411
3.77177
1.41471
2.27613
5.08418
3.33239
0
0.947814
3.05769
4.28806
1.83574
1.67968
1.57494
1.59555
0.967162
2.76555
3.24954
2.72807
2.23883
1.22395
0.605549
0.958593
1.5286
1.73234
2.57343
1.72313
2.22157
2.26581
3.41277
3.15675
11.951
5.41658
6.5066
0
1.20556
3.18699
2.41251
5.00907
3.68458
2.54615
3.51593
4.192
2.7056
1.41048
6.52234
4.32048
3.77629
8.36459
8.19723
3.62597
3.39386
3.40903
9.39374
3.24527
2.17686
2.83397
4.55884
2.00086
1.89124
1.66404
4.58985
5.13962
0
1.33362
3.45249
3.10025
4.05312
3.37205
2.95669
4.78675
2.53888
1.43974
3.29273
4.83218
3.8023
3.33816
2.004
1.47293
1.24155
0.813325
0.938502
1.03861
1.16131
1.28537
1.85454
6.47078
6.26282
7.34938
5.84328
5.74116
0
1.6068
4.04478
2.6924
2.70528
4.17578
2.6584
1.27459
3.81587
1.84941
3.87776
7.44698
7.32085
5.30143
5.43723
5.50847
5.4712
2.64025
4.40653
5.85578
3.1353
2.34075
0.717902
1.91504
1.65031
1.9325
1.30922
5.15693
3.87979
4.49051
0
1.56346
3.715
3.26524
3.4472
3.72692
5.23378
4.12709
2.20053
2.26457
1.90048
2.28694
2.21367
1.67715
1.13328
2.20007
3.14759
3.87342
2.81864
2.07187
2.14764
2.06122
2.35798
4.80092
6.90862
6.64634
7.36004
4.47082
4.64395
0
1.00616
4.24882
2.14625
1.74376
2.72761
2.41761
3.30294
4.56215
1.54075
5.29556
8.47936
4.78893
3.42978
7.35863
4.69634
3.3706
3.05806
3.69829
6.00674
4.35849
4.24299
1.1421
2.02775
1.67498
0.815225
1.85454
7.13906
5.06424
4.66538
3.79835
0
2.60521
2.63253
3.99373
2.90251
2.7613
1.89639
2.02411
3.20041
3.45616
3.21837
2.94759
2.55578
1.28252
1.85997
2.44583
2.56266
1.04582
1.90904
2.58698
2.03963
0.648667
1.82956
1.61017
3.49823
4.8109
4.3635
3.73945
5.03571
4.54079
0
0.640454
4.16834
2.0899
2.66752
2.65308
4.25249
2.1855
0.928487
2.23159
6.9497
3.67752
2.90727
5.11606
5.65462
5.81655
4.08933
2.50156
4.28668
5.33758
0.899005
3.84008
2.21834
2.69908
2.48225
3.01014
0.400593
7.4942
3.41585
4.80982
3.86376
2.65253
0
1.65756
2.45978
2.49518
1.22038
0.337414
3.96822
4.28273
6.1119
7.38138
6.30039
3.48705
2.62397
1.5003
2.57392
3.02391
0.642391
1.88073
2.83026
3.80025
3.42561
0.918015
1.07941
1.08933
0.721854
2.70149
2.84145
0.896907
1.3751
2.45122
2.28526
0
0.429383
6.07145
1.81712
0.935233
2.7755
5.06408
2.16858
1.01623
3.70786
8.3531
4.43354
2.30943
3.26742
5.91068
2.34818
5.60007
2.29252
2.99304
3.63172
2.46976
2.58937
4.51831
2.97264
5.41521
1.93079
0.686636
2.8758
2.18553
1.83576
1.16005
4.73412
5.18398
0
1.81792
1.63598
1.4455
1.51116
2.69507
4.39727
3.79108
3.20008
1.51879
0.784312
0.41016
0.842903
0.624223
1.64233
1.74125
2.31572
1.57266
1.70703
3.51102
2.87496
2.61865
1.90346
1.70932
1.2655
2.71061
1.81732
1.13464
2.16412
1.48986
2.81831
1.49211
0
0.80621
3.04669
1.2385
0.961406
2.38536
5.13797
4.18424
4.12705
2.73893
5.73228
1.2244
2.32162
2.09862
2.4476
0.608832
1.2451
3.25754
4.06412
3.44267
2.68787
4.36516
3.83263
4.45179
4.13094
2.69214
2.00988
5.1481
2.79516
4.42455
1.74967
4.49482
2.39393
2.15732
0
1.35668
1.81516
0.76106
2.26309
2.04726
4.01422
0.806766
3.69306
4.80013
5.18944
3.63839
4.67156
2.75328
2.02125
1.55312
3.09873
2.69874
3.80207
2.37028
1.93409
1.78275
1.10269
2.57618
1.82643
5.63414
4.19391
2.37717
2.23875
2.03632
5.59547
3.96432
2.6015
0
0.522659
2.56204
1.38041
1.49095
1.87084
2.17448
2.29506
4.8014
5.50453
5.29312
3.18483
1.45104
2.97059
4.46131
1.87855
1.44138
1.11309
3.93685
4.37382
4.98641
2.33684
3.95303
2.07887
2.58845
3.1788
1.36132
3.15938
2.58562
1.19979
2.22187
3.48828
1.98595
3.90588
3.6247
0
1.38485
2.94475
0.754218
2.21438
2.03742
3.12499
3.62299
4.92814
3.25395
2.38998
2.53366
3.34602
3.33369
2.06334
2.65168
3.66442
2.09601
2.16107
3.43761
4.17945
3.54264
2.98616
4.61686
3.71738
7.49159
7.94531
5.18953
3.20605
2.79133
1.88848
2.61747
2.82292
3.64653
0
0.588506
1.96406
1.86164
0.806935
1.00676
2.40838
1.59007
4.05669
5.51406
5.94301
3.08706
2.45913
0.546041
1.18366
1.15705
1.11186
0.892485
3.25017
5.28778
3.49151
2.43503
1.74786
5.00777
0.371338
1.82783
2.74472
3.56063
1.76324
2.56745
2.26641
4.53499
2.89611
5.36839
5.38311
4.29384
0
2.13853
2.58057
2.2896
1.36347
2.15905
2.99848
1.28818
0.543505
2.75723
1.7586
2.88873
2.57586
1.86168
1.223
5.20366
6.50476
2.5869
1.71349
1.65969
2.75921
2.70226
6.25766
4.818
5.20073
8.34382
9.78319
8.84471
7.13638
6.60798
4.72497
3.52492
1.5074
1.28567
6.45188
0
0.895273
2.01138
1.68906
0.929355
1.93553
3.4536
2.41917
2.77404
5.42008
4.30443
3.01526
4.63881
2.57751
4.33495
1.76022
1.35425
0.985462
2.32188
5.77601
6.09533
3.99472
2.98565
5.06677
2.42145
1.53406
3.48225
3.72472
0.891797
3.50851
2.93334
3.45582
1.74888
2.97886
7.13215
5.39323
8.35542
0
2.00043
4.57274
1.77505
2.45795
1.97368
3.99462
4.01264
4.98666
4.15051
4.84962
4.81286
2.55574
2.49395
1.66529
1.05576
1.99207
1.49757
1.30933
0.556567
1.21414
1.31093
1.88791
2.22964
2.54799
1.86317
5.26541
5.60807
6.70853
4.77552
7.83934
7.60147
7.80855
6.02437
6.85018
8.46414
0
1.07257
2.63468
2.08423
2.30157
1.26238
2.71431
2.74296
4.77712
4.95129
3.19888
4.46929
7.45997
5.46772
4.03087
2.93212
2.0959
3.7618
2.49001
4.54487
2.25649
3.85581
0.87948
5.67135
2.85839
1.78392
6.02666
5.07403
0.533291
2.80752
0.87649
2.44802
2.59076
4.97548
5.85314
4.98693
3.6015
1.56298
0
1.28302
1.81352
1.54465
1.85529
3.13746
5.84853
4.82878
9.28381
8.79819
6.61761
5.46756
1.01905
0.787039
3.76487
1.17388
1.66546
1.29455
3.54387
2.25621
3.09842
3.37835
5.47789
9.41106
14.5946
18.2693
18.7699
17.9685
12.7468
10.8971
5.33398
6.72153
4.96174
4.79941
9.27809
7.17154
7.85258
0
1.3397
2.69644
4.59401
2.23206
2.06962
2.92514
1.8859
1.11874
2.59614
6.20793
4.38119
7.46245
3.00365
4.0294
3.09562
3.86851
1.62486
1.31211
2.67649
5.65369
4.30514
3.26616
5.01731
3.82871
3.00031
4.42592
4.16849
2.16943
4.65626
4.00582
2.37326
2.76117
1.99907
3.92286
3.23726
0.899529
2.964
5.24257
0
1.99983
2.77864
2.18835
2.37227
2.39592
5.5612
3.11324
5.91937
7.26994
7.1031
7.05396
1.50968
2.08827
1.7404
0.692934
3.10599
0.68593
0.775636
1.09067
1.5258
2.11379
2.91207
5.02953
9.58431
4.86615
5.41294
4.04865
5.72987
2.28014
2.53823
4.94183
2.56587
5.37667
6.32878
8.45695
9.66891
8.81507
0
1.37265
2.07256
2.55515
2.92633
1.514
2.58481
2.06276
2.27522
2.60869
3.58149
8.98912
7.62101
7.40415
3.4088
3.60198
3.90486
3.25384
2.13422
5.06788
5.41671
4.87781
1.51406
5.37857
1.12937
2.04804
3.1712
3.9165
2.17909
2.72196
2.08032
1.08846
1.56751
2.18653
3.12272
3.51356
1.87501
3.40767
7.49511
8.13131
0
1.84929
2.6323
2.53751
2.92
4.9847
4.01473
3.45754
8.20294
4.66188
5.19608
5.49611
1.36668
1.82842
1.01071
1.06634
1.29875
2.77794
3.71239
3.13617
1.51802
2.18026
3.48207
7.10781
9.36802
9.4946
10.1038
8.94613
8.38936
5.76478
6.13022
5.68733
3.69841
2.59823
6.16654
2.72423
8.61958
3.9193
7.7148
0
1.25608
1.60514
3.07577
2.36412
1.94744
2.64614
2.38025
1.74966
1.61419
4.06896
3.7637
7.95396
5.8008
4.56484
4.46704
3.81142
2.14107
4.36517
4.45916
5.0144
2.71848
2.24734
3.5764
1.78095
3.75411
1.99746
1.78414
1.80185
2.30362
2.74656
1.2143
1.30704
2.16576
1.43687
4.95546
1.91338
6.74494
3.33233
5.80209
3.26805
0
1.24497
2.40808
2.97983
1.65796
1.30711
2.43677
3.56209
4.73138
7.79056
3.72629
3.9389
1.63577
2.41756
4.4789
2.7966
2.42424
4.36347
2.88002
1.85901
3.23787
3.85271
3.16787
2.8884
4.66495
3.67438
5.51158
4.51727
8.36517
4.6311
2.73556
3.05825
4.88952
5.33305
5.46475
2.28313
5.68744
9.08755
4.66481
5.0442
0
1.26289
1.85344
4.0611
4.17676
5.09771
3.03323
0.774857
0.918512
2.80479
5.58262
2.28103
3.32776
3.21859
2.39611
6.84399
4.40426
1.86149
2.76157
4.57853
3.09702
2.82013
1.47462
0.871673
2.73255
3.98319
2.24408
2.00088
0.258015
1.34551
3.08454
2.7992
2.70611
1.8056
3.26746
4.06558
2.5027
3.25009
3.70768
2.50319
3.77351
7.81528
0
1.30623
1.96255
2.68901
3.17592
1.8231
2.93066
2.57559
4.2722
3.43405
3.55414
4.36374
5.93714
4.56798
2.71101
4.52243
4.39346
3.79781
5.25854
3.84809
3.6366
5.93525
2.25035
2.83574
5.10193
4.81845
8.1983
7.7617
6.83011
4.4939
2.53528
1.30428
2.7602
3.18354
2.73205
3.78004
5.75265
4.17946
6.19701
3.39708
4.64952
0
0.926911
2.23295
4.004
1.727
2.59899
1.58401
1.89678
1.99236
2.03002
3.12208
2.13345
1.50127
1.55693
2.21735
4.48851
2.95525
0.589264
4.04745
5.46868
4.98888
2.94682
3.78619
2.91594
4.65808
5.01361
2.46133
2.66853
1.06315
3.97197
0.567531
1.54223
0.993562
1.59864
3.56829
6.30906
3.55153
6.26014
4.62928
2.49961
2.63825
4.62781
3.82931
0
1.98874
1.82004
2.83344
6.60206
1.53748
2.09251
1.66647
2.29251
5.2838
6.44976
7.19906
7.28137
9.55213
5.26931
4.4199
2.67951
3.90652
2.88917
1.97032
2.81841
1.56742
3.26653
1.6806
3.2707
4.85227
9.50795
8.07533
5.99629
1.41428
4.55355
3.57431
4.64562
5.05057
3.92836
5.44047
4.46121
3.24203
3.26438
3.55478
1.77606
1.89012
0
1.38557
1.12889
1.9168
1.4579
2.22055
2.97389
3.40263
3.28491
2.50868
1.70464
1.19299
0.935566
1.41567
3.56845
2.625
2.09534
0.909309
0.763539
3.1951
1.81654
4.70417
2.14133
1.75736
1.79607
3.17532
3.40887
2.43058
1.9406
2.31557
1.3462
0.864776
1.62937
2.57988
1.02536
1.99672
1.8404
0.925307
4.73398
3.33302
3.40164
2.48816
1.44064
1.78532
0
2.00568
3.1753
1.18977
2.59622
1.4934
2.26201
1.8696
3.12732
2.58831
2.91791
4.73663
3.53979
6.83946
4.72355
4.42585
4.19577
5.33626
3.43852
1.79059
5.43231
5.9298
2.79384
3.34884
4.81041
5.31637
10.3219
11.299
9.34277
1.97362
2.83277
2.66632
3.14683
3.28815
3.42994
3.41058
5.78781
3.81726
4.54253
2.75111
2.67215
3.02108
1.27194
0
1.01008
1.10944
1.57918
1.01123
2.46573
2.06668
5.33782
3.22807
2.55864
3.38087
2.86667
1.64991
1.90379
6.31768
1.44835
2.23371
2.23315
1.05672
1.94159
2.25457
1.80651
1.99919
1.16625
1.98172
1.21463
4.88504
2.50849
1.92102
0.606499
1.05178
1.19065
1.60746
2.85498
2.21904
1.05921
1.19655
2.05748
4.24758
2.4642
2.09993
1.10305
3.70475
1.42105
4.65712
0
2.193
2.79956
4.00905
1.44498
2.35555
2.21528
3.50834
3.93785
3.731
5.36053
4.89333
2.82154
2.3187
4.19772
0.768375
1.23019
4.10671
1.78999
1.5413
2.46761
68.789
72.592
2.45888
1.96996
2.42777
5.05643
6.64912
5.19852
5.24396
4.35754
2.81254
3.96425
3.14752
2.98432
2.31696
2.18332
2.59815
2.87529
2.38789
4.98053
1.59162
1.36079
1.23652
0
0.822529
1.39035
1.15096
1.24305
2.57717
2.59772
1.74854
1.3801
1.79305
2.4705
1.93044
1.10868
1.20839
2.29883
1.26269
1.6763
1.32293
2.83764
1.84584
1.37387
2.13089
2.01875
2.82128
2.26744
2.00484
6.24769
2.39064
3.42771
2.10424
4.09772
2.73946
3.49277
7.81714
6.63511
3.25172
1.50417
1.65471
2.55276
1.12016
0.813787
1.5411
3.05274
2.90593
2.45625
1.083
0
2.35499
5.3033
1.35429
2.05982
5.0694
3.01725
8.65427
7.35074
7.99864
4.50347
3.81848
6.17832
3.80925
6.30825
1.77274
4.06773
2.9989
2.81751
3.32508
4.14818
81.1203
51.1526
3.70466
1.97271
2.28197
2.85422
4.3219
7.45401
5.39443
2.5027
2.08466
5.84603
3.14711
2.111
2.24319
2.38585
1.70851
0.468746
0.368117
1.12655
3.65973
3.88421
2.78873
3.54204
0
1.19953
1.78904
2.32347
0.646662
2.16153
2.27627
2.70134
0.931025
1.35478
2.1782
2.08573
2.26874
1.61569
1.85209
2.55023
2.33444
3.12538
2.49125
2.87527
1.51705
1.52418
1.55322
2.0001
3.43403
1.88562
3.88214
1.73143
1.22602
2.3012
4.20648
2.29382
2.7327
4.17125
2.61528
3.95304
3.00904
2.29741
2.07036
1.13547
1.53858
0.612479
1.42625
2.08156
2.00379
3.26512
4.96591
0
2.52338
1.58243
1.23739
3.84293
2.59141
3.58541
5.23138
6.26195
3.88608
3.69918
3.38821
2.71432
2.39972
2.78905
0.630873
0.791993
2.88651
1.5231
7.7818
132.912
141.504
3.70886
2.74725
1.47801
2.62886
1.96852
3.41578
7.93771
4.12788
6.50248
3.65429
5.35774
2.53788
1.51259
2.90745
3.00851
3.41904
2.13217
1.62286
1.07305
2.09032
3.79894
1.77095
2.54757
0.807942
0
0.5912
0.899988
1.74033
2.37836
2.25124
1.90093
1.38548
0.899771
0.719345
1.06033
0.656575
1.75761
0.736356
1.32083
1.85053
1.46626
2.1101
1.02516
0.578704
1.92498
1.984
0.856777
0.952988
1.55875
1.69768
2.7948
2.97513
1.96842
1.40263
1.97552
1.93939
1.94312
4.48001
3.04274
3.57644
3.15819
1.72315
0.88197
1.57138
1.74056
2.23037
1.99537
1.52969
2.26737
1.88766
2.32319
0.857709
0
2.43407
1.55767
1.87281
5.41471
3.99301
3.0591
2.36908
2.56784
2.55673
3.05094
3.8409
2.71256
4.04722
5.97234
3.99452
4.14873
6.78912
7.15319
10.9062
145.356
131.309
3.95522
3.23009
4.68685
5.68602
7.38176
4.74562
3.35536
2.98275
3.90266
4.61845
1.52151
2.44503
2.9736
2.8769
2.23908
2.6904
2.49262
2.64279
2.14665
2.59608
2.96507
2.39866
2.10364
2.0055
2.76773
0
0.487781
0.491931
2.47551
1.05075
1.08739
1.33796
0.768827
0.885551
1.93002
1.44307
1.42377
1.48226
1.25654
1.22754
0.937028
1.08541
2.42093
1.36942
2.83748
3.11192
2.72788
1.28327
1.99055
2.20714
2.74631
1.17917
3.06247
0.929075
3.22625
1.81493
2.33966
2.28689
3.03488
2.78523
7.28319
3.64861
3.59876
2.8133
1.73916
1.37032
1.08724
1.12187
3.75227
2.84966
5.43916
1.33805
4.03517
1.83099
0
2.06214
1.59185
1.66868
5.86607
6.53214
4.10344
6.21742
4.36255
3.16533
3.28372
4.45651
3.38968
7.59461
3.68663
2.29286
1.5597
3.11916
6.21325
5.23546
17.5322
10.3546
6.5489
5.35077
5.20452
9.32234
7.15851
7.9571
6.07659
4.07927
5.59006
12.0065
7.9399
7.80331
6.52974
4.57611
2.14833
4.31686
4.73323
3.27415
6.22384
2.08599
1.81346
1.02961
2.79321
1.4246
1.20409
2.30292
0
1.01883
0.75366
0.536791
1.89531
1.01869
1.81744
2.05952
0.757805
0.546387
1.16278
1.62895
1.68371
1.17125
1.56061
2.05626
1.23466
0.57679
1.46223
1.16162
1.7605
1.8578
0.764423
0.69112
2.16278
1.01642
0.738366
1.20932
0.712339
2.02749
1.18774
0.535706
2.89947
4.34717
4.9879
6.25454
6.30766
4.61433
4.80128
1.76139
0.918177
1.11003
2.41093
2.59993
2.98818
3.52081
2.67861
3.5464
3.80177
2.46371
0
1.73463
2.90159
1.7292
3.63801
1.7299
2.20352
7.09411
5.93517
3.76894
5.21508
5.65968
3.60226
6.44722
8.29125
4.6499
3.63001
5.74186
3.91148
7.48577
6.42027
6.4132
9.69526
7.7881
11.6985
8.44745
8.42219
6.06395
3.92211
7.97976
8.39597
12.6684
7.11934
8.14531
4.07467
3.23496
2.70299
6.51244
4.46422
3.88018
4.00864
2.58768
4.96464
3.08768
4.28447
1.42956
1.53684
2.96812
3.85737
0
1.40348
1.57333
1.4702
2.30272
2.96098
1.56717
0.14286
0.329987
1.70381
0.946511
0.751936
2.32483
2.1585
1.36123
1.61619
2.50352
0.841083
1.764
0.92751
1.6362
1.29352
2.08848
2.10508
2.74923
3.65428
3.35685
2.02782
1.4148
1.97523
1.76069
0.801633
1.73699
4.74781
4.85692
7.93252
4.82247
4.26691
1.83802
1.03346
1.90258
1.31863
2.14577
4.72638
2.9252
5.56285
1.51675
1.79188
2.44962
4.54426
4.00261
0
1.26446
3.0001
3.11532
2.5264
2.35827
0.821526
5.32374
4.5213
2.49478
2.62211
4.46891
1.12262
1.36498
3.04521
2.6681
2.48554
2.40971
3.46221
5.20079
3.90024
2.36684
3.36425
2.61187
3.7988
2.2934
6.27164
4.56659
3.40956
3.07923
3.63142
4.11694
2.68322
2.61926
2.5159
9.78961
6.81488
5.54031
4.93361
3.3789
4.35637
2.87738
4.64789
5.41227
7.21091
2.65229
2.75142
1.92902
1.4345
2.44519
0
1.70073
1.89631
2.90189
1.78254
1.12318
1.64487
1.17805
0.884675
0.67501
2.21336
1.67676
0.61614
1.19835
1.53413
2.83718
3.75275
1.37875
1.997
0.531496
0.238976
1.20394
0.517327
1.60423
3.03322
2.08412
2.35269
2.49834
0.895039
2.44739
3.83169
1.76312
1.82555
1.53192
3.35957
3.24686
2.89894
2.22952
1.41771
1.3994
1.05109
1.76118
1.29432
4.70137
2.21053
2.9861
0.964424
1.60339
0.784404
2.45071
4.97849
2.23643
0
1.3915
3.5061
3.43988
1.82108
1.29648
4.39885
7.01323
10.4898
6.66336
4.47981
6.19991
4.54656
5.48569
6.758
3.21048
3.50233
1.68751
11.8402
24.2879
6.22515
3.49939
5.93765
6.0021
6.83972
5.37721
4.89062
4.53339
5.7718
3.77875
2.34127
4.08563
4.17962
4.39272
2.97155
2.46003
2.22756
3.05816
6.17421
3.07355
2.72608
1.13854
4.28389
3.85446
4.90981
1.0295
3.2011
2.77699
3.37024
3.16513
5.43624
0
0.710184
0.695247
1.41488
1.59166
1.26277
1.25927
1.57217
2.53693
1.67609
2.56329
3.15488
3.60262
0.78027
3.10559
1.9669
1.96584
2.29637
2.48693
3.67848
0.492122
1.17914
1.01093
0.66432
1.89127
2.37673
2.44287
2.43056
1.02178
1.47552
3.37805
1.83307
0.995989
1.52228
2.75024
2.57581
3.5077
4.26302
2.03244
0.436997
0.950558
0.984812
1.15536
2.91757
2.45223
2.64797
4.79201
2.96109
3.7404
7.3508
5.88666
4.77869
7.75947
0
1.42126
3.7508
4.63463
3.18712
2.56216
4.39486
4.33239
3.87495
1.56856
3.95204
5.64008
2.23835
2.54467
4.78703
1.93493
1.84906
2.71716
25.9291
17.2389
8.10849
5.40747
5.52856
4.55051
2.12223
5.51052
3.65393
5.99457
3.90186
6.69175
4.2898
4.92731
4.26262
4.04289
2.99911
3.20915
1.11323
3.07804
2.21664
3.35535
6.46884
3.53552
3.71842
3.34473
6.39681
3.21485
3.86881
2.62998
2.9569
1.56649
1.60585
3.8679
0
0.604782
0.251454
1.28282
0.981288
0.65989
1.60856
1.35784
2.15957
2.31821
3.22776
1.98312
5.1754
3.82239
2.52768
2.57037
3.05816
3.55369
3.96272
2.08223
1.11694
2.9832
1.25562
1.6099
2.00638
3.03156
2.41387
1.4049
2.88528
4.48179
2.86576
1.72104
1.32423
1.67766
4.68088
2.97582
3.27745
7.40976
6.21319
3.80131
1.92656
1.1818
1.83839
3.54483
3.6455
5.38704
5.11394
3.99463
5.44252
10.5526
4.60292
5.93874
2.2109
3.71758
0
1.47509
5.41617
5.37434
3.24476
3.09074
3.3874
1.79155
1.49561
2.18901
1.32216
5.51029
1.40386
3.39365
2.08072
1.86836
2.43782
4.00916
80.7896
64.9361
4.85721
5.09044
4.81738
2.48107
1.43175
3.7732
5.05435
5.12412
5.99274
5.15065
3.71136
5.34193
3.41384
3.04349
5.65981
5.39759
3.28333
5.18849
3.14607
1.94131
7.71141
7.06606
4.23548
2.74336
5.23329
2.41604
2.80903
3.7455
2.10092
2.24864
2.07779
2.64763
1.20069
0
0.597827
0.320158
1.3505
1.39942
1.61216
1.45702
1.77496
2.81775
1.9132
3.30684
1.70138
4.37007
3.18902
2.19399
3.85608
4.30876
7.42556
3.95451
5.1304
2.63611
2.69087
2.02696
2.23042
1.25344
1.85486
2.59332
2.77834
3.51025
2.80989
3.57017
1.32699
0.940616
1.46775
5.18518
4.36246
4.72045
5.03523
7.46195
7.30722
3.64248
1.36686
1.51863
0.751516
2.99174
5.55766
2.7299
1.21263
5.67297
6.07295
6.34807
8.724
5.63951
2.75569
4.43717
0
1.99709
6.96789
6.38379
1.87392
0.956435
3.91869
2.70404
5.64424
6.03159
2.98966
3.5148
3.79213
4.8931
3.43236
2.43877
3.64252
4.01577
96.4966
102.839
10.2114
7.85198
10.3883
5.08898
4.04325
2.71619
6.10907
7.35664
5.29292
6.74492
2.74001
2.63238
2.44156
6.47612
5.46889
2.31611
1.53971
4.37601
4.791
3.09353
3.51644
1.96623
4.3752
1.46542
3.07358
0.643744
1.44045
3.24762
5.42205
1.428
3.76986
2.39744
2.54214
1.8085
0
0.494305
0.943325
0.918653
1.3633
1.48675
2.25013
1.03874
1.3235
1.38212
2.5105
5.61049
5.67839
2.18429
5.47892
4.95842
6.37822
4.20911
4.26641
2.32937
3.54155
2.25365
2.36679
3.86866
1.42385
2.36227
3.07712
2.29747
3.17762
2.28564
1.32579
0.703372
0.596319
1.37099
1.58248
1.99989
1.82776
2.49957
1.93044
4.69371
5.26691
2.68428
1.46486
1.36403
2.52681
3.41963
2.23374
3.63018
3.16426
4.69536
1.83193
3.35299
2.54647
1.78451
3.53552
2.3262
0
1.93817
9.22652
5.01375
1.58558
1.32324
3.02247
2.91944
2.62501
3.8124
4.82125
5.48032
1.8972
1.10386
2.52566
3.89865
1.39489
13.9017
186.972
191.799
25.0176
4.5647
5.74261
1.78246
1.31036
2.50644
2.73882
4.7528
7.04786
6.77762
4.37528
2.86992
4.47866
4.10879
7.52139
1.65672
1.51104
3.78161
1.68606
2.2414
3.62624
1.14384
4.58423
2.97678
9.1413
4.4964
4.58406
6.31156
5.64744
1.47945
1.55197
3.76639
1.88077
1.80461
2.16942
0
0.383393
0.378483
1.5032
1.46868
4.06921
2.32225
4.44724
2.37717
2.81073
2.6696
1.87996
3.74753
3.92179
4.33857
5.01891
4.53003
2.99837
5.17946
4.06968
2.9386
4.09438
0.874695
1.868
1.06006
0.596882
1.34102
1.12844
2.55057
0.5372
1.1038
1.02381
1.23102
0.94938
0.665602
1.15808
1.41463
3.4471
2.93932
2.29427
4.8231
4.57696
2.2933
2.13592
5.64062
3.66784
4.55771
2.02119
4.94478
4.1129
2.62212
3.11688
0.980976
1.35818
1.23876
1.53642
1.29957
0
2.50495
9.52232
3.84379
1.12057
2.03539
3.42541
3.19355
2.28727
4.69664
4.29924
3.89568
3.60832
4.26346
4.98277
6.20898
2.35434
30.712
220.638
215.874
29.3116
2.77204
3.93012
3.03631
1.27483
5.10331
7.529
6.1843
8.65049
4.05399
1.50396
4.08068
5.35761
6.25197
7.32718
3.78573
3.5471
5.27718
1.98283
2.54026
0.882884
3.93716
4.97534
2.21009
3.72627
0.674709
2.09029
2.78521
5.93724
1.51199
2.67001
5.26658
1.61184
1.42669
2.34103
2.68264
0
0.477882
0.490851
1.22938
0.901212
3.26747
2.14569
2.00302
1.59688
1.0012
1.87679
2.67866
3.11407
3.20655
4.14273
3.27766
3.30188
1.23855
6.98604
3.21173
5.0023
2.36862
1.80103
1.93096
2.28185
1.39564
3.63819
1.11885
2.07587
1.18054
1.34318
1.97799
2.79187
3.74027
2.80013
1.49359
1.08217
1.48031
1.25841
1.34601
1.10573
3.01848
2.06456
1.81766
3.88476
5.73262
4.60345
4.47092
5.15938
8.64408
4.20079
4.2129
0.8483
0.967079
1.86821
1.29061
0.576104
4.1752
0
3.04981
7.19975
4.01357
2.43187
3.40754
6.16113
3.99103
4.21561
3.69362
3.18721
6.18597
2.74869
4.65274
2.28155
6.47873
5.77354
61.1255
136.393
54.4602
4.99781
2.23174
6.61952
3.48369
4.05678
6.46629
3.25547
4.29329
4.46681
4.01373
1.95332
3.42887
4.20743
3.49402
7.61529
2.24909
0.883165
4.71636
2.06522
2.54886
1.68139
3.03818
1.52562
3.91445
3.81048
2.43165
3.51035
6.64551
7.44686
3.20512
3.46222
6.99102
3.43397
2.36338
2.11011
5.45442
3.50238
0
0.478732
0.888503
3.50205
1.83879
3.95265
1.70616
3.00472
1.87482
0.852251
3.37651
1.89034
3.79382
4.76979
2.34246
1.44333
1.16923
0.741678
2.1385
2.86622
2.4629
2.03855
1.82357
0.816561
1.26812
1.72345
1.72723
2.38977
3.59639
2.112
1.92632
3.29009
2.8474
3.48453
2.81494
2.48237
1.88242
1.51464
2.28853
2.3309
3.57626
4.49745
3.85026
2.25835
7.55946
4.434
5.35493
5.40306
10.5935
6.32492
6.98991
3.44102
2.59611
1.63747
4.18115
1.64664
3.63944
3.14926
2.82647
0
2.95285
6.0606
3.70574
2.65056
8.71851
6.52871
10.7817
4.45984
7.60908
7.14678
10.4421
5.02221
3.5173
4.23279
5.59589
65.9721
272.159
376.376
67.3277
6.21185
2.91712
7.603
3.72111
4.66577
9.36218
5.98887
7.58087
5.59285
7.6978
5.75255
4.56046
7.32628
4.64827
3.61076
1.97408
1.1191
3.1611
4.00543
2.56708
2.06975
3.48642
2.20082
2.90903
2.71769
2.52018
1.96527
3.41181
3.15152
1.63031
1.07954
4.97057
2.26566
5.6727
5.02167
3.98919
1.54221
3.26351
0
0.322262
1.14098
3.00986
2.12825
4.33233
2.65914
2.11103
4.65189
0.537563
1.97598
1.16985
1.5199
4.82042
1.42533
1.29612
0.466605
0.58953
3.4956
2.55079
4.89475
0.991807
2.51522
3.37623
1.83972
0.422493
1.04031
0.840509
2.26309
1.08274
1.04738
1.16348
0.84804
1.10724
2.75864
3.41918
3.43815
2.36456
1.23352
2.6732
3.08264
1.98904
2.54442
4.41368
5.87559
8.3526
2.73346
9.021
7.8137
4.90797
5.8073
4.27603
3.77534
1.76107
2.29894
2.43612
2.75167
2.59275
2.37845
5.25781
0
3.75395
6.69829
5.40956
2.67734
2.7667
5.19108
6.83282
6.62268
3.89945
5.3875
7.06826
3.11619
4.88454
3.91251
12.4581
78.0701
313.246
275.485
67.1688
9.0594
5.8424
8.09147
6.95063
4.82501
8.54956
4.81004
5.73637
6.29111
3.96173
1.60839
1.99845
5.128
9.60829
6.50069
3.30923
1.9404
4.68183
1.97657
3.47193
2.40407
5.95983
2.27216
6.55174
1.42075
1.40831
1.65931
3.11381
6.94001
6.37699
3.1151
3.79369
1.12434
2.78403
8.43781
3.79784
3.233
4.23035
6.48582
0
0.398943
0.653576
1.76789
1.09238
3.30631
2.58055
2.75206
2.2224
1.96561
1.40045
0.926926
1.22057
3.07067
1.37946
1.71313
1.57414
1.9965
2.57498
2.0701
2.69468
1.62447
1.72059
3.4388
6.56706
2.76544
3.14733
1.95382
2.77938
2.02034
0.210168
1.7153
1.38479
2.55376
3.98113
2.56662
4.11738
4.06138
2.36736
2.6089
2.11638
2.89417
3.58709
2.53579
2.73237
3.68215
3.88642
3.304
9.08141
2.49463
6.23986
3.79258
2.97482
2.50069
4.39384
4.49395
5.0767
2.32425
3.263
5.00593
1.41838
0
3.20514
7.04022
4.84558
2.47506
5.23889
3.99081
12.4504
7.95985
10.1349
2.79977
3.6679
3.73302
4.42977
2.29927
4.19218
51.4276
110.869
131.245
7.52138
7.54917
7.51433
9.25314
6.94566
7.78366
10.4027
4.41634
4.66543
9.51039
6.10068
4.16055
4.10797
6.43276
7.76338
4.94342
2.03977
2.43802
4.56188
5.24634
3.88106
2.57372
9.95216
2.57607
4.96759
0.825248
0.439604
4.68227
5.36543
4.20561
6.77525
2.60906
2.8637
1.61244
4.72121
4.61877
4.67866
2.80955
4.16512
4.19612
4.05794
0
0.884445
0.913729
1.96946
1.02452
1.05526
6.01011
3.42046
3.94089
1.14732
1.81169
2.28738
3.60313
5.20989
3.93136
2.18541
2.0453
2.07429
1.67367
2.0322
4.79593
1.07498
2.00689
4.29812
3.98244
1.47702
0.734152
1.77327
3.53794
1.26644
0.220431
2.35878
2.1873
1.80857
6.45386
2.55174
4.02944
3.30737
5.68377
4.01594
7.68364
3.44932
5.14037
2.01695
1.4205
1.63871
1.24495
2.08792
3.65177
8.19389
6.24384
4.05798
4.8022
4.93358
4.44398
3.1053
5.09926
1.17435
2.42821
1.41046
2.48535
2.88873
0
2.40906
9.24457
5.52461
3.96867
4.40078
5.78388
6.7206
6.59209
4.2376
3.11694
5.12566
2.4522
4.31599
2.35929
8.52758
7.18671
67.3995
77.233
11.9693
6.52746
6.61985
2.58955
5.47047
8.3251
7.844
5.97286
3.71863
8.78218
2.70524
2.74151
1.29206
2.99942
7.05098
4.23573
1.58776
0.957229
2.6355
1.86657
2.55915
1.58668
7.86088
5.26606
2.22615
1.65954
1.78797
3.34744
3.38776
6.28556
4.12118
3.05296
4.01602
1.89306
6.38325
4.05418
2.27892
1.62079
2.14109
6.41532
7.89881
2.56489
0
1.18194
0.580325
1.66349
1.73388
2.25423
2.23715
4.76746
3.31915
3.58441
2.45941
3.91954
2.57761
5.18252
2.89823
1.40231
1.43228
1.95278
1.41681
2.92844
3.70901
2.13629
3.0153
1.2634
2.71782
1.36688
1.57012
0.915181
1.93106
1.04113
2.05959
1.13622
0.713644
1.56799
2.78644
4.07172
1.34506
1.84649
3.94402
6.26387
3.93515
6.15052
6.10913
3.5324
1.71193
2.8642
3.71712
2.02296
4.11628
5.27903
8.40656
6.27805
2.0318
2.41232
1.69306
2.07105
2.88869
2.92401
3.33228
0.891701
1.31297
2.34904
1.05916
0
1.92847
8.86893
8.80373
4.31779
3.50668
3.7445
8.00577
3.85623
4.88239
5.23986
7.89053
4.53029
7.48865
10.1349
12.7994
11.2708
18.7733
72.6726
26.1831
3.79361
4.85648
4.69535
9.05165
6.34345
7.01098
2.40539
7.38991
9.06065
4.4426
2.62648
1.69787
5.15189
6.7469
4.15155
2.50492
1.21656
1.17031
1.4717
4.17276
6.15371
8.03911
5.23238
2.0703
0.803177
0.916659
2.25033
1.80015
1.61116
4.76908
2.94631
4.24717
0.961757
1.777
1.85798
3.35962
5.00529
4.59071
4.17074
4.34856
0.8254
2.64424
0
1.41661
0.425616
1.8781
1.62235
2.28577
0.988054
2.88868
3.68315
1.76874
6.48549
3.87156
4.27078
5.32266
3.57358
1.51868
2.43913
3.86518
3.08793
1.57966
2.37854
2.30578
3.08336
2.15314
1.69253
2.26582
2.01684
1.39519
1.33367
0.710107
0.563894
1.39225
1.24197
1.15877
2.44086
2.79684
6.00892
2.81821
2.29508
5.17872
6.65286
2.2418
7.23244
4.61276
4.47043
4.21528
3.62548
2.1
1.62523
4.11659
4.97933
4.21183
2.21225
1.41787
1.41023
1.47428
2.22836
1.35565
2.14592
2.49067
3.75776
1.06132
1.34937
1.11358
0
1.72066
9.37463
14.4716
8.36791
2.52951
4.09068
4.79197
5.98652
4.54351
3.48016
5.05269
6.88709
7.40041
3.72867
11.3955
8.37351
37.3883
297.698
166.62
16.5998
3.31498
6.12825
5.12136
3.74839
5.58878
2.25069
8.96566
14.3483
5.69069
5.05501
3.74059
4.70247
10.8849
6.55371
6.3067
6.47273
6.84156
2.34413
4.83074
6.50755
7.4736
7.43526
2.70444
1.97453
0.837672
1.11338
2.42402
1.63603
5.32268
3.35777
2.94034
2.54138
3.28848
2.01723
2.71901
3.77697
4.14599
3.2136
4.03349
1.9417
2.45109
1.08803
0
1.1789
1.70659
2.86452
1.91633
3.19471
1.09364
4.96323
4.86013
3.56044
5.26666
5.70835
2.79353
6.62475
3.18035
1.92398
2.25373
2.11201
2.61685
1.75839
1.42123
3.15193
3.55776
0.679673
0.996493
1.75743
1.98654
3.0281
1.99518
2.58589
1.91766
1.09586
1.37724
2.14039
5.44965
5.15349
2.97985
3.7229
1.77666
3.79128
4.74279
2.03785
5.36637
5.73162
5.95819
3.27541
5.5913
3.58146
2.41401
3.00016
7.65039
5.12422
4.44291
1.30477
0.835662
1.58294
1.44115
2.23043
2.1161
2.52909
1.078
1.46479
2.81619
0.289971
2.30479
0
1.8968
6.74134
14.2058
11.2316
3.96718
0.801435
2.21531
3.46516
4.45002
2.99011
6.58875
4.75947
6.90979
5.46806
6.47074
6.74358
20.9704
188.417
259.387
49.6023
5.04434
6.27307
5.64954
4.03267
5.40942
2.42494
9.98856
12.2916
2.43435
2.13036
5.56334
7.1013
7.74673
5.47808
1.77311
3.47454
5.05621
3.98832
3.38435
2.40602
5.59614
2.83025
2.21079
3.99084
1.12706
1.60257
3.16393
0.934263
5.42239
1.77952
2.33981
0.829957
3.86462
3.42469
1.66294
3.4732
1.78574
3.34071
3.06505
1.9149
3.17566
1.87783
3.78601
0
0.380081
2.20236
1.72209
0.798649
3.90943
1.34253
4.89537
4.17899
3.64091
1.37565
1.20908
4.31405
6.28129
3.27861
2.94447
3.05318
4.40045
3.03428
4.25531
2.11774
2.05512
3.66135
1.16553
1.16651
4.0833
2.82646
2.79392
2.12816
1.76106
3.17292
4.01171
4.2503
2.16346
5.76264
4.16522
3.96035
5.04535
6.69675
4.00131
4.84078
5.70367
4.92098
3.04119
4.47436
3.29572
2.04063
4.20881
3.20942
3.01133
1.64326
5.05269
3.7756
2.47149
3.29133
3.54854
5.37088
6.1233
6.80084
8.74409
5.52466
3.25
3.61044
3.67195
1.35537
2.4465
0
2.02645
5.14393
12.1627
9.99339
3.84306
1.39485
3.04765
2.28127
5.8811
1.71501
5.31368
5.29875
6.72832
2.82735
9.99257
4.43235
9.17727
92.2961
105.996
20.4309
5.8437
8.41542
9.03096
4.29695
4.25984
3.58687
8.12733
11.3862
8.50431
6.38722
7.10215
4.13378
9.77613
7.50078
5.66366
3.39046
5.15466
2.26481
3.17562
4.65032
5.08252
2.37469
5.38538
5.09391
1.53017
3.08502
4.1366
2.70896
5.52815
3.00177
0.767407
1.96594
5.24865
5.42134
5.41583
7.60202
4.65143
4.25709
3.39266
3.86869
4.43644
2.09146
4.33898
4.46117
0
0.57786
1.10675
0.77284
0.344882
2.46598
1.95775
4.30001
3.00191
2.08907
0.824658
1.42694
2.80041
4.5268
3.66363
4.0343
3.87016
3.12156
1.07329
2.24575
0.746779
1.09623
1.69288
1.95645
4.33479
2.65558
1.37461
1.11936
3.70455
3.80206
4.20774
6.01287
4.384
2.82927
3.82757
2.87612
2.21942
5.96835
3.07318
2.11142
3.13258
3.30209
4.30376
5.15874
5.11953
3.7619
6.1007
1.72667
2.73812
3.29647
4.08753
2.72713
1.33038
1.52224
2.57829
4.33733
4.14216
1.76529
1.47303
1.73116
4.66073
4.16353
3.19776
3.18573
2.74678
3.15494
3.66616
0
2.31585
4.21521
9.83226
5.7452
3.70996
2.7987
4.4557
4.63096
5.47903
2.09026
4.26986
7.15276
5.61597
4.97254
5.61013
2.82779
6.30999
77.6082
101.175
3.4796
6.28932
5.29544
8.93402
4.47986
3.9585
1.97448
12.2919
10.8642
4.86744
3.6795
2.88498
5.07232
11.8187
7.79806
7.98095
6.65742
5.98214
5.7579
4.65565
3.11434
4.43738
1.96238
3.66972
4.84105
3.18762
3.81592
1.05123
0.701684
7.01129
2.269
2.4927
3.03815
5.11502
3.93108
3.77766
8.68206
4.18309
2.78023
5.10166
3.26833
5.98799
2.07615
4.24365
3.25261
4.77456
0
0.20246
0.510851
1.35598
1.74277
2.86747
3.28418
3.18395
2.44447
0.469498
0.689394
0.758887
2.46313
2.09682
3.74411
3.45016
3.10244
4.39885
5.37296
6.20733
1.4752
0.574091
0.856461
2.74214
3.39634
2.2692
3.72542
3.02027
3.92731
2.07798
3.24096
1.37663
3.90295
1.57561
2.43338
3.58716
3.12181
4.17714
3.10338
1.92879
4.33836
3.24414
6.54488
5.83592
3.09555
3.73321
4.34764
3.81168
4.661
4.08218
2.01869
2.16634
1.95778
2.61423
2.40474
1.93289
2.64239
2.72031
1.14726
3.09093
2.71296
4.44434
2.23589
4.27325
1.97992
1.41238
3.33994
1.86058
0
2.69869
3.71588
8.32998
4.53089
1.93368
3.07691
9.04491
4.85688
3.58623
4.70277
4.04983
6.29302
8.88733
4.72464
4.49816
3.37902
3.89699
140.278
209.026
64.5252
18.1694
4.10397
4.31471
3.70906
4.13203
5.60542
19.6241
23.131
8.70013
6.84447
4.60995
3.87464
6.94828
5.9299
7.76424
3.9289
3.5694
6.61416
5.32261
8.39513
7.49013
3.18952
3.60115
10.1967
5.07623
3.98033
1.8817
1.28011
10.0326
4.71024
2.18209
1.60012
3.53117
3.43733
2.73174
10.6958
3.83161
5.53227
5.1044
5.46147
5.59174
2.63146
2.42262
4.78767
3.78618
4.49807
0
0.441798
1.53808
4.25867
2.1527
3.82979
1.98613
2.58635
1.67801
0.681307
1.24569
1.31967
2.74169
3.61402
3.38104
3.1947
2.05414
2.8192
3.22279
6.72613
2.18884
0.887912
1.4068
3.4335
3.09287
4.13156
6.2893
3.75302
4.98203
2.25224
3.47578
2.12601
2.41162
1.62657
4.48593
4.32412
5.55561
6.67913
4.31326
4.65791
6.13506
6.78737
4.96411
5.16854
5.03518
2.57519
3.45583
0.843413
3.86449
3.91333
1.81316
2.46215
1.87319
3.40737
3.81347
2.26002
1.09058
2.36116
2.07617
5.30508
5.08322
4.84188
3.58454
3.12424
2.14809
1.73084
1.33128
2.03214
3.38184
0
4.49856
4.70482
8.12347
9.33024
4.69733
6.90199
14.5143
5.3922
1.33218
2.2383
3.88641
6.20638
3.70889
1.81121
0.700083
3.22125
4.43487
121.104
474.488
276.854
59.0739
5.26138
7.74078
2.98692
1.99002
2.44904
9.14633
9.83459
2.83421
3.58605
3.53789
4.77323
8.76869
6.82314
7.48181
4.09643
4.25579
4.99535
5.75661
5.17257
6.70161
2.42921
6.64677
12.1042
4.05686
4.24757
2.93164
1.2825
9.7438
5.75717
3.52975
1.98528
4.29246
3.4096
4.1266
4.73353
3.12306
2.14272
3.73505
4.81813
10.793
2.76514
7.26452
1.59216
3.31509
4.61095
1.57227
0
0.345711
4.11209
4.35932
7.13095
7.05715
3.38566
3.52265
1.33476
1.9463
0.443028
1.58559
1.54984
3.41258
2.0914
1.44236
2.04193
0.425615
1.22457
1.62013
0.587375
1.17537
1.21049
1.77604
3.08519
2.56932
3.69293
2.21233
2.61704
4.35332
3.58708
3.82767
1.44824
2.83642
2.17206
1.95795
1.35279
2.93758
4.08953
1.73395
4.07575
2.84986
7.01626
4.63459
4.87729
4.09676
6.59508
4.86507
5.70592
4.55755
1.71364
1.79017
3.50335
3.40723
2.05179
2.08629
1.90315
2.26351
1.13543
3.47356
4.50745
4.09144
6.21181
5.46664
2.56214
1.64242
0.560622
0.803181
3.69637
0.821289
0
7.11693
2.52985
4.94139
12.2361
3.01818
5.78946
10.877
4.25235
1.83334
4.44968
7.05487
5.31689
7.22753
2.1382
2.39812
3.49646
5.6655
34.325
298.79
401.634
100.642
9.35069
17.4743
1.96943
4.61162
3.18836
12.9414
10.2058
7.70883
7.16684
9.2595
9.18741
19.6137
17.5466
7.01164
9.42346
8.09329
10.3311
3.2264
6.2257
10.3767
1.62918
4.60767
11.6449
7.64273
6.40685
5.26212
1.65082
9.45307
6.4142
4.30984
3.57243
6.68193
6.63181
6.2393
5.98983
2.14373
1.48379
2.42799
5.05318
6.34765
2.9317
5.83382
3.10578
2.67235
3.6606
3.16057
4.26921
0
0.613794
1.95556
3.23233
3.54252
6.36941
2.76806
1.29342
1.02585
0.592245
1.68816
1.63261
1.54212
4.44107
2.58977
3.17917
2.92437
1.9921
2.4757
2.20757
0.984603
1.05238
4.10102
0.794602
2.70624
3.29507
1.98656
1.82807
2.10481
2.6884
1.84363
1.62247
1.88703
1.13766
4.89544
3.18719
4.37136
5.07162
1.59938
2.33688
5.67759
6.89596
7.03965
10.493
6.17481
1.45841
7.39327
4.84406
4.39689
4.00943
4.13814
6.24847
2.82099
1.75041
1.88051
0.864625
1.27758
2.00762
1.55881
2.09783
3.1733
5.24335
6.00246
5.1274
1.98499
1.79371
1.63588
2.32355
2.69757
1.79114
5.26966
0
8.64689
2.49914
3.53759
8.11417
1.69283
4.10361
6.9103
2.61349
1.07274
4.71715
6.10156
2.29727
3.30817
3.99705
2.80282
2.18117
5.58373
5.07823
182.764
277.266
183.174
18.9839
9.34839
6.18267
4.72651
2.75342
7.7176
6.45978
3.85929
4.19316
4.08535
1.96639
11.6212
7.7252
3.51461
4.00808
6.1788
2.14869
0.700504
3.31285
11.5469
5.26809
2.96948
14.6129
7.47521
7.55489
4.96629
1.44688
4.63745
5.93789
3.77242
1.7335
3.17314
3.66374
6.71209
4.44358
2.58833
1.14008
3.84368
3.36323
7.56456
3.38762
7.04268
3.49636
5.07665
3.5296
3.12313
2.72861
2.52728
0
0.35518
1.91627
0.811374
4.16573
4.44639
2.08727
1.46728
0.810053
0.787678
1.22527
0.402017
0.829215
4.29303
3.53252
2.30765
1.19234
1.10052
1.57059
1.40767
0.743858
0.953958
3.01178
2.51324
2.75598
5.48814
1.32957
1.75906
1.60634
1.94395
1.23849
2.14745
1.30768
1.30592
2.85237
2.64811
4.52677
3.08489
1.22454
0.803392
2.1908
1.83161
3.07822
5.16214
5.45319
1.58817
5.23413
6.13846
8.19254
4.06909
2.69086
2.8718
3.36677
2.21652
2.04265
1.919
0.818502
1.50199
2.70094
2.02276
1.70115
5.33093
2.653
1.84156
1.00165
2.05131
1.0286
3.09865
2.94358
2.80971
7.103
4.34533
0
8.07412
2.97507
3.63333
3.60174
1.63866
4.26788
9.34044
5.91521
0.555258
1.66873
2.68605
3.46623
5.40191
1.00873
1.7446
3.58368
3.70239
6.60979
150.739
732.272
375.407
141.33
26.1456
3.73831
3.71082
2.804
9.1402
7.64001
4.67298
4.7392
4.99026
4.28082
8.92776
6.82581
4.94971
6.77205
4.35218
3.68984
1.97927
6.31333
11.9995
5.77742
5.39954
10.2494
9.51478
5.57069
7.02426
2.14434
2.72524
3.96878
3.59805
1.44956
2.64694
5.23481
3.53347
6.88698
3.67076
4.60614
5.45649
3.28299
4.62733
5.46342
4.8168
2.95333
4.35258
2.13662
1.42714
3.26815
2.36706
10.9662
0
0.57578
1.5893
0.513249
2.14545
5.58362
3.8888
3.99706
2.99168
1.03787
0.895493
0.353837
2.32155
3.96099
1.44848
1.68818
1.8149
1.90603
2.22687
2.92753
3.66514
3.42777
4.48014
1.54155
3.09022
2.94288
1.82262
1.0882
2.76218
0.670981
4.92649
2.76704
1.26281
1.67329
2.07322
1.73383
2.90934
2.36103
3.47036
1.72645
5.17733
2.8162
3.79748
1.82327
4.26452
2.08206
7.97427
5.37262
7.6961
5.73808
2.29377
2.60637
1.05802
2.65229
2.80637
2.40872
1.23579
2.93958
7.58834
7.04688
3.43883
2.52595
1.90884
2.08426
3.98631
3.4528
3.35494
4.37093
5.1491
4.70798
4.12834
5.25144
5.9924
0
5.52989
2.48505
6.34588
3.18838
1.88791
3.2307
14.7135
9.97198
3.38727
2.752
2.19298
5.85041
5.50849
5.65422
2.51408
4.8148
5.36127
9.81208
108.379
449.359
591.942
192.9
24.0281
5.05072
6.54552
7.03063
9.89544
6.98815
5.63235
6.54949
10.0441
5.29951
13.6792
7.68867
6.96492
1.94758
6.89762
1.63701
1.17946
3.0379
10.9008
9.7961
3.40151
12.1798
9.97028
4.70674
6.64546
2.41853
4.27355
3.74826
3.80328
1.62012
2.44216
2.18575
2.66312
6.69224
5.13216
4.19126
8.07642
3.88688
4.73415
6.49532
4.94365
3.52197
6.44039
3.55327
2.54921
2.54402
2.39825
7.65108
10.2858
0
0.360023
2.14131
1.58887
1.43739
2.85115
6.91099
4.92649
4.8972
1.22409
2.31154
0.926623
1.1768
2.17896
1.43162
2.50247
1.80995
1.49524
2.6677
1.28809
2.17548
2.05375
1.68208
0.856286
1.25554
2.35335
2.76255
5.56763
2.28299
3.24425
2.29571
2.97488
2.01419
2.13451
3.29004
2.9115
1.996
2.61986
3.00967
6.44539
3.55966
1.74766
4.11552
1.17751
4.34314
2.63167
5.89538
1.6336
2.22367
3.47121
3.84238
3.14805
4.35901
5.49811
5.6776
3.26176
2.29178
2.47679
4.77342
4.92943
6.02009
5.47738
4.51431
3.77227
3.03407
2.09483
1.39991
1.81644
2.12942
4.90429
4.55072
4.34141
7.30879
4.15744
0
3.69274
6.07132
9.6527
5.12745
3.08949
9.00574
27.1644
14.6905
5.51388
3.96997
4.06889
10.2708
9.31099
5.4762
4.73189
5.12025
5.08178
4.03195
26.3394
151.843
186.892
119.751
6.36913
4.81706
3.87107
5.93211
10.6185
9.21689
4.27496
5.19153
9.44453
4.20342
9.49737
2.40144
5.87531
2.52392
2.49932
2.0185
2.05749
2.55864
10.8303
6.14887
3.09
7.4051
10.6716
4.51296
9.71233
5.90817
5.42385
5.43044
3.76883
2.12702
3.27546
2.13464
0.954259
3.44406
3.49671
8.53585
5.3909
5.24564
3.25754
5.67649
6.00547
1.45094
5.26187
4.0081
2.26608
1.2155
3.5436
10.3086
8.8432
6.01627
0
0.245029
0.750184
2.69033
2.76169
4.63951
5.07927
4.27041
2.82146
1.31067
3.81609
1.90892
1.54539
4.16988
2.20071
4.2724
0.80351
2.10936
2.55054
3.28201
1.3575
1.17793
2.00618
1.44461
1.42247
1.55903
1.53345
3.2049
2.48828
2.74856
1.85263
1.27917
3.89824
3.68905
2.99995
3.60255
4.72458
4.02134
6.23364
4.57126
6.36776
1.92464
3.18698
0.896233
1.41874
2.28112
4.54736
1.81946
1.84735
0.982004
1.89216
1.58714
2.36619
2.28729
3.24308
2.32012
2.39252
4.86593
3.67166
2.94544
3.1836
2.4352
2.41633
1.10004
1.48034
1.94511
0.679026
1.46286
1.06658
1.70738
0.905887
2.37647
2.18712
5.14829
1.94077
0
2.5376
7.41389
9.7302
4.6504
3.63451
6.81234
19.7875
8.19993
3.60142
1.92539
6.80601
7.98254
6.17194
3.71923
6.57001
8.05381
6.2245
9.37021
17.8417
42.1087
55.1128
30.7601
16.7098
6.58886
5.23887
4.30616
7.16233
5.87224
5.76675
3.60159
3.40697
7.63708
10.1325
2.62126
3.91357
2.20584
3.27019
2.99867
3.55842
1.87943
10.4885
5.74104
5.26118
7.11084
9.65105
10.025
6.86403
5.06098
3.92212
6.08898
3.0953
1.9263
4.14904
1.47838
1.5769
2.20845
3.01982
5.07146
6.26122
2.15781
2.24301
4.34343
3.61879
1.86031
3.18428
2.44095
1.39571
2.26109
6.05453
5.4021
4.26266
2.96755
4.54875
0
0.333847
1.42873
1.45924
2.5006
1.49674
3.56365
1.32221
3.28686
2.06842
4.67852
0.290131
1.22833
2.95648
1.65698
2.45551
1.65521
0.742154
3.05664
1.63173
0.397334
0.114074
1.32591
1.62736
2.48028
0.766408
1.95017
0.485256
1.48059
3.27757
1.57674
1.59832
2.20906
1.55299
1.74521
2.38738
3.59832
4.90808
3.34834
3.10422
4.20709
2.99633
2.5375
1.94143
3.41487
1.64704
6.74449
4.43227
4.64738
2.95791
1.256
2.36987
4.09501
2.25011
1.01314
1.91534
4.71629
3.67669
6.72565
3.22313
4.41797
4.41223
2.86101
1.7677
3.33143
3.37388
1.41437
1.44181
1.38979
1.55631
1.58825
3.71811
4.98298
2.8309
2.53269
0.648289
0
2.83729
6.10453
9.01713
5.55282
2.51122
3.8079
11.3933
8.20267
4.43469
1.15701
5.42241
5.60607
4.6791
2.17657
5.64949
9.25912
7.44255
14.0866
11.6829
10.752
15.5617
130.553
136.556
5.21722
7.15704
4.12274
11.4225
10.5258
7.07221
8.29693
12.1282
13.4663
11.9095
2.15441
9.02431
3.61272
5.85237
2.72418
7.9094
2.6342
13.6002
9.29761
5.10214
6.0119
7.09755
9.05935
4.45209
5.57274
6.1128
7.4491
3.51306
2.59246
2.73712
1.31655
1.89837
4.60452
1.4681
2.74989
4.94226
1.39837
2.37943
1.32067
5.49434
1.11011
3.43481
0.990175
1.99712
2.17244
3.29625
5.72712
4.13416
1.36081
4.60461
3.40637
0
0.584741
1.69819
0.20188
1.01107
2.59515
0.970649
1.38136
1.59721
1.88789
4.01057
0.844493
1.1588
6.86983
2.57033
5.50751
3.9775
1.61314
0.416193
0.736845
1.20195
1.2463
1.17453
1.16914
1.31472
2.867
2.36789
2.32837
6.19151
6.51306
4.86479
3.54246
2.35235
3.4089
2.01063
2.45476
0.953294
2.27785
4.07512
2.88225
3.10278
2.33712
2.75676
3.57816
6.95512
4.42546
9.99963
5.83162
7.60924
2.52107
1.31374
0.708312
0.835894
1.14379
1.1663
0.645755
2.82641
3.71933
2.0712
1.90989
1.81918
2.28042
2.95298
3.10033
1.35517
2.4836
1.39477
1.94718
2.2765
2.10702
2.40341
1.08402
1.40713
1.64075
0.82789
1.71188
3.3893
0
2.01449
4.36989
9.52154
5.5377
1.52378
2.95357
5.20285
6.24466
5.16987
1.30802
5.47975
2.18288
2.82436
2.77213
5.23652
3.57154
8.97172
13.8164
9.04869
2.88328
2.86509
79.149
153.232
9.68093
7.06374
5.23313
9.27672
8.80793
7.42396
10.5206
8.4225
9.228
4.41677
4.00868
5.20238
3.11872
2.62422
7.82311
13.8428
6.43099
17.1842
10.8596
6.40415
9.67526
9.8657
11.5005
3.41853
6.55568
4.82433
3.25228
3.0889
1.51113
2.44055
3.10967
4.08738
4.13859
3.58001
3.87266
2.97237
1.69409
1.57335
1.23689
3.45525
2.85053
2.67875
1.5922
2.03849
1.52703
6.40565
4.79359
4.3991
2.23063
3.45835
4.01244
0.930126
0
0.913987
0.901956
0.345446
1.25761
0.563584
0.737987
1.76993
1.43316
2.91015
5.26733
3.74196
2.27982
4.91177
6.33549
3.24218
5.11083
1.51236
1.00762
0.67568
1.03111
0.908041
1.51794
1.10028
2.82275
2.02781
2.35812
1.15215
4.29394
2.68677
2.39378
1.92567
1.37355
1.69029
0.572962
1.22291
1.5595
1.03594
2.74052
3.13285
2.5028
1.17459
2.3007
3.80399
2.46406
1.79255
3.90645
2.93344
3.22499
1.24704
1.14387
1.8261
2.12159
2.26213
3.13972
2.62913
3.0433
5.53877
3.95495
3.04906
1.77335
3.02345
0.536339
4.66425
2.08523
2.77707
0.957268
1.81055
1.98042
1.26346
1.55593
2.01879
1.5821
3.57436
3.02785
2.57694
3.50182
2.68829
0
3.62252
2.61929
8.13687
5.40134
2.20711
4.11143
3.40608
4.42219
4.51837
1.88564
6.0965
5.08475
4.13588
1.96985
2.82
5.30872
5.21443
6.26516
7.64186
2.4219
1.77043
3.41322
179.733
206.676
8.79566
8.83992
10.0978
10.4882
2.6707
5.92346
5.52949
10.8567
5.39981
6.14246
3.68805
4.4855
1.90433
6.64993
10.8161
5.79117
12.5393
13.7922
11.7423
14.7123
13.1859
13.5244
5.20405
5.7831
4.01523
2.301
1.66206
1.72654
3.58907
7.48643
3.20064
7.51581
2.94981
3.74286
5.32235
3.35739
1.24045
1.36284
4.0921
1.92136
0.878952
0.925348
2.12578
0.885178
2.00223
2.33645
3.76758
0.984518
3.12136
3.37197
1.13726
4.65047
0
0.29613
1.56166
0.366831
0.779171
1.2131
2.62084
2.45564
2.72875
1.35634
4.33095
4.37307
2.10438
10.37
3.69966
4.69233
3.30908
1.63992
2.0729
0.707798
1.33928
1.92879
1.40849
1.44679
2.04204
1.51054
3.8852
2.36554
2.69764
3.29633
3.28779
2.79634
0.988869
2.16651
0.752333
1.15857
0.715962
1.10752
2.3846
1.12842
3.41768
3.07985
1.89401
2.0696
1.36127
0.459253
2.80096
1.38236
1.56967
0.698833
1.82425
1.19852
2.09555
2.15121
1.80524
1.47251
1.33217
3.40626
2.72038
2.78644
1.78922
2.28912
1.60675
1.73363
1.78243
1.95895
0.77948
0.774729
1.4362
1.10204
0.673887
0.733498
1.49089
2.04491
1.54632
0.969775
2.11929
5.18994
1.74856
0
4.35288
1.24442
5.0246
7.0043
2.35696
1.46965
4.2973
6.02672
11.5946
5.09146
8.5781
5.48301
8.42542
4.97038
5.69634
3.85487
4.249
6.88507
2.32936
4.62159
2.42684
4.34404
93.7857
257.063
148.576
12.8627
11.3455
8.1721
6.84268
6.87263
5.27202
9.29674
6.5215
6.51082
4.78386
1.60653
5.85492
7.71564
10.002
4.62458
10.0169
9.29858
8.76034
10.0105
4.51053
8.14685
4.00359
7.4778
5.05955
3.20002
3.02133
2.88564
2.20311
6.72277
1.89996
2.77145
1.82165
5.69046
2.47679
4.75033
1.47997
1.39318
5.66233
1.3279
2.43314
1.36108
2.58457
1.0727
2.95315
5.05071
3.30571
2.43805
2.38032
1.25145
2.12363
0.5243
6.23632
0
0.584818
0.696997
0.564886
1.34916
2.95069
1.88724
2.99507
1.20136
2.45763
4.103
3.25737
6.09222
7.48479
6.5316
3.94692
3.13326
1.91576
1.72491
0.477255
1.6305
1.65428
1.50993
0.910819
2.26237
2.00537
2.96136
3.11507
3.89223
5.23404
3.75676
3.46495
1.3787
1.99551
2.2008
0.746829
1.78904
0.678649
3.02491
1.77685
3.01553
4.16785
1.13001
1.50733
2.79069
1.95244
4.68411
1.68483
2.67223
1.0667
1.01103
0.962597
1.47938
2.95784
4.31073
4.74409
3.53859
6.89671
4.76455
5.88051
3.44881
4.85155
4.9587
4.38752
2.76285
2.31464
1.56122
2.40076
4.56878
4.22884
3.33594
4.57989
4.6089
3.65721
1.83266
1.55819
1.89641
1.9869
4.43166
3.73269
0
4.91473
1.39875
3.09931
8.14622
6.30022
8.40882
3.47047
5.63025
9.69491
7.38223
5.55448
6.75044
8.62728
3.60349
2.4313
2.9022
2.57188
4.35248
3.79946
5.01531
1.38979
6.10753
4.1683
238.639
274.614
66.6992
3.92812
7.89745
8.04081
11.1499
4.74704
6.61736
5.69782
9.93692
9.41435
3.09977
6.05302
7.9716
10.3883
5.64748
9.99933
11.6781
9.38022
7.42083
3.35742
9.1938
6.74609
6.13548
4.42674
4.49063
2.48992
6.30657
2.86399
5.99672
1.79016
2.77791
2.27249
3.47923
4.8305
5.83508
0.458278
0.88533
5.0388
2.14597
7.62962
3.98369
2.76891
1.16767
1.50695
2.52468
1.16511
0.620025
2.31712
1.53137
2.82873
0.971567
4.58292
4.99053
0
0.713079
2.03505
0.959122
2.49693
3.32563
1.63624
1.66714
1.44776
3.25824
2.85826
7.75325
3.40063
10.0187
4.12277
4.61319
2.24461
3.13132
1.74833
1.74602
2.24998
2.94896
3.23857
1.93219
4.58162
2.05285
4.51671
2.04716
2.9983
4.04182
6.7839
2.36565
3.9241
3.22016
2.96984
0.75509
2.30558
0.459118
2.07327
2.40085
1.27171
1.76733
1.49627
1.60908
2.91836
3.01814
8.76121
3.95167
4.11287
1.68559
3.64851
1.62761
2.21711
2.41897
2.50608
1.27519
0.988802
2.7236
2.83818
4.00911
1.6592
1.91525
0.713488
0.985169
3.64782
1.79085
3.73271
1.86044
3.09801
4.99151
3.52508
3.63895
2.87902
2.15178
2.91978
3.0121
4.25191
3.40751
2.98997
2.18643
4.8434
0
4.33074
2.34236
4.31692
7.14548
5.47607
4.61778
3.92067
2.6347
4.80338
4.7891
12.5784
7.8797
12.1356
5.95351
12.5262
7.9543
5.22337
4.30106
6.13217
10.1497
2.04826
7.94207
10.3748
124.797
273.201
193.627
54.0886
5.47466
8.80041
5.73162
4.57406
10.914
5.28445
5.49891
10.95
2.63385
6.57374
6.2355
14.2974
6.99404
14.3323
17.6045
14.2682
5.77868
3.00468
9.84087
11.4384
5.66145
4.88655
3.10825
4.03905
7.21351
3.99338
6.27607
1.78322
2.37918
1.5207
6.18796
3.33379
7.07085
4.3007
5.42062
4.74563
2.40621
13.1482
6.46665
3.31668
1.22012
1.3404
4.8144
1.43466
1.40141
3.94189
2.13101
2.36689
2.51534
4.72649
5.4948
3.1552
0
0.645578
1.32239
1.62995
1.78037
3.35867
2.23318
2.05572
3.03748
2.00769
5.14023
3.67338
3.40733
6.62066
4.10441
5.4138
1.41841
3.41813
2.09571
1.06681
1.55776
2.5803
3.82923
3.35817
5.13922
0.50382
4.89451
0.93788
2.40603
1.4891
3.2526
2.13872
6.83824
7.06695
2.51896
2.84358
2.03954
2.69315
6.08916
3.37623
3.02975
1.32134
1.4736
1.77499
3.11067
1.65753
4.87364
1.4662
1.33433
0.90744
1.89545
2.60037
2.00168
2.42008
2.42996
2.07842
3.38623
4.41806
5.56034
7.34219
5.20826
4.17194
4.48783
4.01755
5.9572
6.90923
6.61472
7.71362
6.54205
5.47129
4.02113
4.02621
4.71556
4.85907
2.45246
2.95527
2.36023
1.9281
2.07653
1.42871
4.52081
3.32276
0
3.11524
5.37646
3.25001
5.35101
3.1995
2.58515
3.43687
5.19001
8.61169
7.00683
9.50229
8.12197
9.7826
14.1064
14.5104
15.0901
7.1934
6.25044
9.38518
13.6665
8.49905
11.7436
13.352
8.50879
163.384
293.811
195.134
14.38
14.3127
12.0357
6.36848
11.1637
7.39292
3.66948
8.42768
5.28404
5.14101
5.06872
7.3912
7.88049
21.4052
32.2304
19.9924
8.44947
3.53457
11.4372
15.9827
4.86123
3.85184
2.69026
2.32395
3.2292
6.45667
6.58557
1.51462
2.576
2.23569
6.75204
4.28848
5.70092
2.125
3.17399
7.33747
3.84546
10.3039
5.55857
7.72431
4.12669
1.42616
4.59875
3.12245
1.9593
5.39084
3.60563
2.01174
4.36044
4.41616
4.02519
1.75748
4.11014
0
1.38921
0.383801
3.03394
1.54586
5.55794
2.99139
5.73185
1.57184
3.61072
6.79674
7.99181
3.18241
7.12017
3.08656
4.23023
1.47109
2.12015
0.994161
0.939359
1.67508
1.6856
0.695649
3.37785
2.19786
3.61596
2.16029
1.5058
4.06269
0.904132
4.89498
4.26364
6.27403
7.76758
2.9257
5.97776
4.85095
7.27546
3.9788
5.40695
2.30885
0.915624
2.511
1.78478
0.684648
0.625376
4.10114
2.34619
2.6196
3.95287
1.58477
3.35609
2.61118
2.13785
2.9465
0.900277
1.09078
4.06948
1.79058
1.79911
1.56852
2.5622
1.20343
1.426
1.63744
1.68768
1.1378
1.07337
2.37886
5.52581
3.93583
2.87962
4.85958
5.78162
4.19904
4.16592
6.19746
4.08764
4.10259
1.68545
2.63642
2.5629
3.38677
0
3.16738
8.96835
2.6989
3.56276
7.489
3.91589
3.79529
1.04142
7.62245
1.53502
6.61065
1.88635
9.68697
13.7972
14.3985
9.01886
11.4372
7.07962
8.53516
18.9481
7.14539
14.7275
8.77827
8.05062
4.55333
143.935
259.855
147.259
58.3641
8.36348
4.1031
9.59155
6.28857
2.36493
4.42935
7.85324
8.09776
5.06996
9.32391
6.10951
24.7056
36.5912
25.7716
12.3256
5.83738
12.1177
17.0953
4.0113
5.33208
3.31422
1.74454
3.34611
11.6805
11.2486
3.6838
5.86023
2.85767
7.30772
2.87121
5.58523
3.94999
2.33709
10.1957
3.62893
9.05873
6.1705
4.89838
1.78719
0.688421
2.51639
3.22257
2.38788
7.15649
1.34657
5.78947
4.04079
3.85734
1.86062
1.34265
3.00038
3.77124
0
0.326046
1.04013
1.42524
1.19599
3.97277
5.69224
4.86825
5.78074
3.71188
7.85219
2.99494
4.26145
6.35527
7.94805
4.72611
4.23825
0.643236
2.66054
2.05608
3.1502
6.70127
6.41125
5.48872
2.45775
3.78863
1.37372
1.38998
1.50366
2.30267
2.47686
3.22472
5.08386
5.24
2.73554
5.63301
1.97471
2.41785
4.17535
5.0362
5.37059
0.930944
0.693729
0.702514
0.466
0.96588
2.84725
1.08417
1.93775
2.87654
1.40833
2.55355
2.67064
2.40587
3.18614
0.628829
1.01529
2.64979
3.51612
1.68978
2.51025
2.48495
2.12611
1.35408
1.20971
1.41756
1.5031
1.17219
2.57263
4.84709
4.42933
6.0448
5.25856
6.23479
1.74147
2.75055
3.19202
5.80152
5.50815
3.63301
4.00888
5.1202
2.35853
3.04204
0
4.99572
8.32699
1.14854
3.65453
6.37349
10.008
8.38636
9.42726
14.3714
10.1594
11.3309
11.5893
13.9422
16.3733
15.153
13.3756
13.1324
7.48497
8.40866
19.7331
13.1633
10.9235
9.16647
6.06964
12.0032
27.5606
114.009
141.066
99.135
49.2814
6.63757
15.7029
9.51383
2.29202
2.34079
6.35857
12.3817
17.8273
18.3037
6.64623
19.796
41.4789
20.2353
12.4948
5.4224
11.6504
17.5279
10.769
5.76693
3.03091
2.74122
1.1353
6.32303
7.02889
2.78881
6.6765
2.89059
7.57822
4.33372
5.79751
3.74351
5.08772
7.55694
7.21261
4.50054
2.49879
4.56363
2.18924
1.36144
2.21124
2.37251
2.64658
7.7212
3.45268
4.61931
5.2609
3.29573
1.72734
1.72314
2.01275
4.04598
3.37721
0
0.300267
0.556183
0.590195
0.372722
4.41815
3.06479
3.88369
2.7469
3.94485
4.65412
3.4394
1.83927
4.25917
3.846
10.0085
2.53645
2.06317
0.755594
0.269299
0.690356
1.8713
1.07309
2.83584
0.802631
2.98199
3.30945
2.43005
1.08086
2.63444
1.27014
1.44511
2.22888
1.77196
2.08583
6.33036
4.60331
5.92301
4.0247
4.91105
4.27509
5.09484
2.18878
3.54572
2.25738
2.71638
3.8248
1.66712
1.71375
2.92943
3.93681
3.4807
1.82737
2.70198
1.005
1.53699
1.70605
3.50112
0.967423
0.925649
1.18514
0.751863
2.01124
0.764775
0.717213
0.778334
2.07241
3.97065
3.27267
3.20314
2.54365
3.84216
7.59695
3.23381
4.72108
3.70575
8.34496
8.15238
5.73625
3.92661
2.08104
2.56147
3.49184
2.13026
3.88239
0
5.0711
6.94843
1.5662
4.89424
5.59387
2.48511
12.1636
2.68735
9.70073
4.03518
7.21606
5.68435
8.56504
10.47
7.49678
6.4451
10.0681
5.97116
8.67213
25.7698
18.3168
13.3849
6.4864
6.37967
9.58605
9.44388
21.3387
25.5505
89.6213
82.2592
25.9775
14.1794
14.0361
3.81648
3.13534
6.33945
13.9942
27.5127
22.2445
3.42183
18.5202
41.9153
16.3133
11.1497
4.24668
11.3321
14.1054
6.07087
3.5739
4.6347
4.70878
1.2097
6.23671
3.21833
2.76439
8.6484
3.27247
5.60845
2.73588
3.94945
4.88237
3.65351
7.70849
3.45396
3.92315
3.69495
2.61648
3.29698
4.08663
2.42614
1.54429
1.37477
4.50786
0.482702
3.12914
3.82811
2.24458
2.71668
0.843357
3.56016
4.76472
3.04532
1.55149
0
0.664526
1.29716
1.19919
1.09141
2.85726
3.55186
1.79255
6.44722
2.98134
4.63278
2.10346
3.79243
2.94914
1.73565
2.53564
3.36674
2.05599
0.821523
1.56448
0.604249
0.540374
1.14306
1.71225
2.75138
2.08896
2.41932
3.35125
2.06471
1.35701
1.20994
1.01904
1.00184
1.2112
1.73214
2.07956
2.43905
2.35662
2.4227
1.39718
4.72232
2.3571
2.89119
1.57072
1.21617
1.64297
5.03652
2.17123
3.38307
2.96151
4.00079
3.63122
1.97817
5.49853
3.96611
2.04771
1.22201
1.14892
0.786693
0.552511
1.62713
1.30074
1.40296
0.869976
0.770382
1.05009
2.36579
5.1622
7.59589
7.9892
6.28322
5.16962
3.5772
3.11054
2.50817
6.09682
4.04846
2.45347
3.53255
4.16138
4.70217
6.98434
6.01237
5.31763
3.82182
7.35345
0
6.00147
4.48312
0.960168
5.35114
7.19508
6.83408
7.62958
9.27487
7.57069
5.6674
4.3305
7.21916
6.15476
6.55522
5.14723
5.536
7.19892
4.13341
6.03527
21.3396
18.9165
5.1942
4.07866
5.16445
8.96723
6.18635
10.6899
10.5155
10.3838
21.0904
7.64628
6.58022
8.61033
4.52872
6.86864
8.65343
15.5129
25.5687
17.7928
1.72248
14.773
35.0214
14.8817
9.98977
6.62766
8.48209
8.73199
3.44623
3.50034
4.74933
8.72527
5.64198
6.28069
2.20884
2.86648
5.11395
4.0043
2.56158
2.95749
3.01134
1.97841
3.53079
8.43786
2.76297
1.9809
4.61363
2.83628
3.76278
4.21914
1.54038
0.63221
1.12127
2.06962
0.893606
3.3287
4.3556
1.45244
1.80765
2.81155
5.17352
1.83814
2.77413
1.79341
4.28557
0
0.695792
2.49509
1.85257
1.26268
1.91893
1.43034
2.03511
3.97622
4.98833
3.22924
3.57948
1.98751
1.99766
1.4011
3.95918
3.67764
4.87799
2.66914
3.74258
2.21103
3.48938
1.085
2.99917
2.39803
1.73687
3.03359
1.68125
4.20423
1.93414
0.946076
0.896262
0.896273
2.03805
3.43486
4.69365
3.20156
3.21978
2.47028
3.2447
2.246
5.26491
2.76704
3.25603
3.02568
4.14179
4.88493
2.91779
4.27193
2.30288
1.82449
4.92136
3.42442
9.347
5.54695
3.4918
1.90014
2.68141
2.77514
2.36637
3.938
3.6808
5.20255
4.82431
4.39981
2.46421
2.40527
5.17616
2.46431
9.21882
3.85126
3.03416
2.82587
3.89145
4.29369
5.17853
7.1973
4.40471
5.00193
10.1484
6.42352
13.9652
8.14008
9.18073
6.19349
3.76244
6.79545
0
7.88055
1.96843
2.48864
6.89988
3.80766
6.80409
7.1145
6.14163
8.29427
11.8934
10.467
11.4406
6.67313
6.70569
4.18295
3.32381
7.46687
8.79709
8.38286
22.9207
18.4988
5.16282
11.7943
9.46314
16.6682
25.6357
24.9555
15.259
9.48507
11.4574
12.5038
4.45481
8.34046
4.39965
8.7496
6.03078
15.7001
24.9552
16.1558
3.38083
18.8379
37.1716
16.4989
7.75293
6.35547
9.2909
8.64045
5.52023
1.86294
5.11521
9.08498
3.10807
5.31282
3.38581
1.41745
4.37591
3.31794
4.14476
3.25751
1.1281
1.67805
4.31366
9.18556
1.05436
1.81715
3.60846
3.50043
5.03582
4.79168
2.68839
2.78161
5.75478
5.96433
2.56327
3.6998
6.25873
2.74593
1.67614
4.51098
5.90844
2.83851
6.34816
6.99463
1.65358
1.78314
0
1.01856
1.34527
0.83217
0.992066
0.619386
1.68714
1.48407
1.36667
2.75458
7.61862
3.63125
2.86637
2.60684
2.28595
2.14245
2.98655
2.59627
1.104
1.84303
3.01077
2.64657
1.68291
1.98804
1.13993
2.62796
4.47669
3.17432
2.58568
4.1748
3.98886
3.16676
2.92825
3.91238
6.73917
5.58151
4.58185
3.92276
1.43136
3.5124
2.28659
4.11227
3.22012
2.1432
2.19783
3.20134
3.90661
1.03386
1.71842
3.51191
3.75287
4.6047
7.22134
4.04524
4.09446
1.41875
1.26039
1.36428
0.641557
2.51726
2.62417
2.05489
2.8726
2.35607
2.48629
2.52239
4.09263
3.27638
3.03243
3.92399
2.30459
2.34091
3.02368
2.33083
2.50404
1.94918
1.09982
1.46278
1.12936
3.3382
5.05361
2.70161
4.35054
4.32934
3.60266
5.30099
6.21984
4.08058
0
7.03759
2.51128
2.31243
8.77393
2.00518
4.65443
4.92093
6.918
11.4066
12.9224
12.0889
11.4546
7.89875
10.0094
11.4604
13.8559
14.0866
11.984
13.8009
19.1641
18.5887
14.3561
12.5296
10.5715
14.8484
14.8733
12.2499
10.6993
9.19017
21.774
13.5855
4.86027
7.04455
5.94739
9.17696
15.9244
15.6553
23.6144
12.9661
8.00427
26.6324
32.5179
16.8619
10.6614
10.5979
8.56018
1.95847
4.23017
2.36867
6.49123
5.09587
2.10596
6.65627
6.95599
2.46711
4.29838
3.93125
2.512
2.73218
3.0223
4.65893
6.31236
3.65447
2.0504
1.27078
2.3035
3.09072
2.98899
2.67919
1.38475
2.02052
4.36582
4.02818
1.28365
3.17353
3.05789
1.89506
3.20438
1.45487
6.97806
2.10055
3.46285
2.66717
5.73595
2.75272
5.14033
0
0.335093
1.39485
0.294868
0.93983
1.17929
1.9224
1.52525
1.21557
5.22449
3.47263
3.7445
2.50953
4.19487
3.93507
1.91306
1.1709
0.554945
1.07201
1.25568
0.960299
2.13552
2.56963
2.64355
1.53038
4.74743
4.21653
7.4528
4.85431
6.22185
2.69775
5.64815
2.50522
1.54689
5.47856
2.05502
3.17159
3.33261
2.00956
1.70039
1.54955
1.2879
0.798775
1.01951
2.11142
3.30951
3.56622
3.74665
3.00173
5.14419
3.67665
3.26434
2.54873
3.19046
2.97258
2.09882
2.57538
2.09017
2.0419
2.26863
1.32741
0.931275
1.49868
1.69229
1.25599
2.65328
2.24629
1.74254
1.94314
2.03355
1.21986
1.4444
1.71036
1.33059
4.81632
1.82988
2.26369
3.19804
4.26236
3.63812
5.24961
7.14717
4.52457
5.54142
2.94337
3.71865
1.98685
1.93337
4.41793
0
5.66299
1.67604
2.05678
10.0348
2.28059
9.34485
7.39428
10.8559
16.2517
16.3264
7.44055
14.6502
6.76577
11.3269
7.07526
4.37808
9.93051
5.65287
2.68499
8.95344
5.75016
6.40831
6.97233
8.72951
10.7537
14.214
12.6559
16.6423
20.5376
34.043
20.9041
4.90547
4.25126
7.32859
9.71257
24.5529
17.3395
18.6387
15.5668
14.7582
28.5583
23.5326
11.5279
8.85452
12.0543
8.35787
6.68036
6.75699
3.14091
5.24812
4.52492
3.66236
7.27591
7.35711
3.55084
4.91935
9.04698
8.9635
8.38536
3.35607
4.29135
10.34
6.01559
1.87237
0.990112
1.34947
1.32609
4.55977
3.228
2.44264
4.47136
4.92146
5.91068
2.51929
3.7063
2.95574
4.17006
3.93455
1.80553
7.34163
5.03175
4.90706
4.03592
5.39119
3.21136
5.03712
2.40497
0
0.267385
1.05835
0.759962
1.37474
0.976077
0.754351
1.56594
2.00179
1.71109
4.56288
0.868555
2.03903
3.21907
3.80524
1.66476
3.00657
1.893
0.939729
1.05556
3.53842
3.01353
3.08234
4.19758
4.24372
3.05283
4.81608
5.26054
10.673
5.67111
6.84115
4.30885
3.55377
3.18919
3.37962
2.82254
7.69503
2.70735
2.11606
0.847026
0.318121
1.27534
0.840233
1.86164
2.26168
3.26953
7.16561
4.98259
8.01871
3.2457
8.93618
4.2797
4.52896
2.95955
2.1338
3.03548
3.40271
4.32709
1.52114
2.63291
2.13684
2.62436
1.71959
1.649
1.13765
1.79926
4.35626
2.77067
1.34793
2.15483
0.922782
3.36267
4.82714
5.07092
3.40802
2.83658
2.51798
1.16226
2.65048
4.30934
4.67776
4.23569
6.7979
3.84184
6.2995
2.37089
4.27092
4.94275
3.18289
6.36516
0
2.18842
3.27254
4.04147
7.78219
3.04356
5.31931
3.5441
8.17966
22.4122
13.5098
7.59557
8.22332
8.07438
8.89127
5.2081
4.34105
6.8811
4.56557
8.14535
7.74066
4.75789
3.99731
3.55102
6.12178
6.62564
3.70226
3.82151
6.85653
11.4409
22.7015
13.1203
6.46922
3.74805
7.28931
8.82764
22.2684
12.1176
19.5637
18.1488
22.4442
25.0849
13.9034
9.33067
9.36893
12.3805
6.5117
4.64926
7.15746
2.79123
4.55498
2.53337
5.35157
5.18617
4.96068
4.02798
2.18547
3.31003
5.81268
12.0971
2.95857
5.15458
6.65279
2.64328
3.62237
2.62678
3.66996
2.6499
4.22911
1.9712
0.701183
3.47225
4.21273
4.47393
3.04754
2.98301
2.46515
4.70205
5.54518
1.21351
8.98432
6.17783
4.34384
3.71974
6.66969
1.69197
2.61583
0.975996
7.7937
0
0.575236
0.678383
0.806354
0.440626
1.16323
2.02292
1.49567
1.51247
2.30765
0.54645
1.98318
1.87518
1.09184
1.42904
3.72513
2.57882
0.677604
1.28293
0.454891
1.61993
1.5898
1.57695
3.30348
3.55164
8.94632
4.60826
6.77795
4.76551
5.5088
3.0129
2.83042
1.8743
2.3255
3.96609
1.32166
3.7006
1.09629
1.96904
2.16023
2.19104
1.38318
1.18489
1.77702
0.414037
1.07038
1.90945
3.00536
2.54336
3.45259
4.22925
5.45537
3.73488
1.82541
1.34822
2.1348
1.88284
1.53383
1.6002
0.581308
1.01556
1.04071
1.56187
0.376486
1.84208
1.51336
4.98722
5.34665
3.57123
3.95654
3.21084
5.65056
2.2034
2.94854
2.36366
2.76378
2.48908
3.76038
1.73639
2.83743
2.90475
4.41388
4.50472
2.89789
1.54437
2.4269
1.98663
1.81393
2.48288
4.0811
2.80327
0
3.26896
5.35018
5.30193
5.2475
5.36798
4.87692
4.07105
10.7415
20.6777
9.99646
6.83581
10.0173
5.43605
8.94142
5.37227
2.17399
5.83542
4.30226
6.9943
10.0348
8.08408
4.27193
2.98484
9.51749
10.5212
3.07048
5.8009
8.09625
6.59937
15.319
10.6553
7.30024
8.32716
9.03973
12.5591
20.273
9.9269
16.6998
19.6673
14.7178
12.6894
5.55571
4.71624
4.37647
9.63318
4.58826
7.00107
4.67234
3.30878
2.27996
2.47689
5.92976
2.02115
1.69795
2.49946
3.72807
3.07858
6.24299
3.7846
2.31089
2.61371
2.44113
6.05587
3.22656
4.14981
4.74935
3.50479
5.9179
2.72252
2.29101
1.87452
1.994
1.87562
1.79008
3.44258
2.70517
2.47996
3.65679
2.10108
6.2933
5.07643
6.46772
4.28261
7.11805
3.40284
5.23847
2.86638
4.47391
5.41249
0
0.612583
1.92217
1.22525
0.89265
1.211
1.14216
0.45189
1.9939
1.77797
1.77984
3.20701
1.69197
3.28333
5.93776
4.76271
4.48802
1.80659
2.47081
0.776548
1.99597
1.06856
0.885786
2.90059
4.78994
4.46245
13.0166
4.35113
6.17429
3.06308
4.10977
2.36345
4.3688
2.0315
2.0976
3.25052
3.16022
1.80146
1.92792
1.63689
1.06232
0.470009
0.648064
0.741663
0.271839
0.914377
1.85865
2.79148
0.993561
1.11785
3.68245
3.15204
4.81098
1.28068
1.44982
0.888572
1.27111
1.1809
1.44919
1.16336
4.04666
2.53772
4.62374
2.19171
3.23109
4.05867
3.41743
3.97874
4.65389
5.57264
5.39342
7.51844
4.62086
5.47122
3.09238
3.51327
5.13854
5.04188
3.32664
2.33416
3.76993
4.40584
5.17523
1.85225
6.1418
6.94828
3.52963
2.50846
4.53119
4.61927
3.06671
4.53393
0
1.50589
6.31597
4.2133
3.39298
6.69713
5.58789
3.72232
9.52902
12.8623
7.37959
9.10238
9.29382
9.71993
9.05004
5.60373
4.19524
5.41507
5.4187
10.9693
5.83193
7.3688
7.1139
3.25384
6.80522
8.44833
6.78542
6.87374
7.03935
5.53619
9.42534
9.04193
8.43431
12.0025
10.4746
13.536
16.1259
13.6159
18.0827
19.3044
11.2985
6.30878
5.59366
7.46915
8.045
8.58434
8.54986
6.15104
4.76954
2.56119
2.38114
3.15376
3.13052
1.98483
1.84645
1.04263
2.28227
3.154
3.37512
4.33214
8.25081
4.81586
5.01556
2.39026
3.16626
5.40307
4.43156
3.00437
2.15584
2.57166
1.30577
2.08987
2.37028
2.15748
3.88056
0.915554
2.43496
2.24359
3.76292
2.43278
5.43915
3.31927
3.18617
4.55091
4.75896
1.93715
1.85765
3.03288
6.09126
6.68637
3.47634
0
0.988666
1.09999
1.63258
3.04524
1.51228
1.91064
0.988334
1.72715
1.97669
2.02439
0.877174
1.52092
2.64946
2.7473
4.40641
1.3987
1.43544
0.847927
0.141632
1.07508
0.610595
0.800426
2.68265
2.44931
6.78965
5.71779
6.57488
3.81461
3.41994
5.13976
2.96945
6.39312
5.38669
5.96264
4.14962
2.21848
2.3344
2.79991
2.16089
1.8953
1.15679
1.32718
0.426699
0.746667
0.48445
2.16686
1.29665
1.75855
1.50448
1.77767
4.07193
1.38123
1.43102
1.32597
0.46039
0.748094
1.86316
3.85928
5.51703
4.15234
4.46546
2.11536
3.14172
2.10714
3.82066
3.03558
2.38606
2.64683
1.02993
2.96951
1.60043
1.54274
1.32424
1.22327
1.98883
2.32722
1.73136
2.99742
5.4663
7.84921
11.3036
4.35261
2.05573
1.0393
4.03231
2.07461
3.83734
2.91606
3.60361
1.6042
3.59032
3.5514
0
2.04691
3.05138
3.35934
8.85029
11.1257
7.10019
3.13389
6.7368
4.74666
10.2049
10.6317
12.4158
6.23558
10.5794
5.60648
8.0719
5.16279
4.80205
8.40921
3.8884
3.77755
3.99596
3.54578
5.13126
4.27552
6.37528
7.59064
9.12788
9.43269
8.75545
9.14105
10.7168
8.0837
8.15116
10.491
11.3705
10.5432
12.6028
11.8233
4.8275
4.05667
5.08529
10.0908
5.38036
11.3289
7.65934
8.73326
3.51318
1.68924
2.74272
4.87654
2.28158
3.02073
3.06133
2.52365
3.82967
2.11792
2.13277
3.26572
1.10144
1.3967
2.64432
4.21914
1.11518
1.43912
1.35343
1.3779
0.880913
2.69273
2.24945
2.46527
0.960228
1.90249
4.40448
1.59214
2.6624
1.49317
3.45142
5.0668
1.77766
4.43381
7.01654
3.02928
1.57934
1.07597
1.49462
4.36504
2.22309
5.7831
1.47178
2.67955
0
0.324932
0.445917
1.61882
2.51122
2.12522
0.553522
1.42154
2.39394
1.61497
2.44401
3.22656
2.85455
2.89509
3.15431
1.99755
3.3575
1.59919
2.57683
1.94282
4.05984
2.38548
2.79908
3.06605
2.53842
2.51978
3.71328
3.68365
4.91981
1.56616
4.67307
1.72262
0.874349
0.823504
2.18152
2.5061
0.53373
0.299998
0.598076
0.461336
1.02717
0.331301
0.890536
0.85542
0.697188
1.97056
0.658713
0.901707
1.22977
0.824461
1.18495
0.937421
1.33482
0.936996
0.949872
1.44678
3.49227
2.4578
3.3756
3.54223
3.1092
3.59797
1.92548
1.94831
2.67296
2.60477
3.76497
1.47541
4.35552
3.90103
4.27058
6.09148
5.6841
4.01337
3.61833
5.26645
5.07922
6.49979
5.79527
4.36924
6.23489
4.38041
5.37011
3.87767
4.78543
4.80457
4.58855
4.52804
5.28086
4.85865
3.5397
3.96085
3.09826
7.77182
0
2.14552
3.17176
2.76461
6.68361
8.0286
6.98987
7.3146
6.64512
4.04836
6.85679
12.5232
12.126
8.36669
4.33954
4.98306
6.9041
3.85394
5.00422
8.36642
3.93262
5.38673
7.04054
4.46632
4.44349
3.28505
8.2139
8.31892
10.9527
11.082
6.86638
6.84485
8.39902
12.7331
12.4425
12.3553
10.6066
8.46345
12.3452
10.6752
3.21197
3.25022
5.8312
10.5607
7.53477
3.68301
9.0532
8.58085
3.25136
3.90815
5.12075
6.12791
1.75619
1.41386
4.49096
3.40542
1.61073
1.75971
4.05428
2.79867
1.28
1.23428
1.89114
2.48572
1.24707
1.58785
1.71828
1.77083
2.77799
2.014
3.5933
5.25422
1.54474
4.21919
6.8168
1.78734
0.568502
2.68245
3.50282
0.937208
2.08687
3.09506
2.04777
2.04966
0.587123
1.12444
1.34445
4.66413
2.87201
3.57722
1.72491
1.26886
4.63599
0
0.568507
0.239554
1.01261
0.377081
3.46775
3.2432
1.24758
1.47447
1.809
1.75987
3.52025
1.76129
3.38174
2.92385
4.24095
4.39205
7.19076
3.58255
3.41205
2.81582
1.0592
1.71404
1.02423
0.886795
0.637855
1.55803
2.28121
2.13053
2.20016
3.65289
3.69033
1.14241
0.944829
2.49059
1.70049
1.09977
0.823397
0.8761
0.422405
0.730288
0.488756
1.25367
1.33863
1.10137
1.09761
1.72757
1.20835
0.698911
0.406507
0.914181
1.22122
1.77068
1.52334
2.55917
2.66029
2.95487
2.2728
2.67396
1.65967
3.14795
4.72249
0.974652
2.15102
2.72879
2.57242
1.02183
1.29825
1.75736
0.586524
1.04842
1.61226
1.49741
3.55869
2.09329
3.39357
0.832612
1.08215
2.67287
2.6278
2.1994
3.39671
1.25489
0.675849
1.41735
4.7573
1.71816
0.981713
1.28838
2.39329
2.02931
4.943
3.19875
5.62349
3.84097
0
2.89352
1.92638
2.15272
3.57621
7.49045
7.93829
10.2683
7.56185
4.5166
11.0591
9.44291
7.85655
7.57152
6.06766
3.23642
7.1376
4.11844
7.74901
4.35
7.98745
8.34887
3.77061
7.65098
5.90908
4.98816
6.48672
6.64806
7.21516
8.47342
10.6129
6.42524
6.46249
9.8759
15.7434
14.9201
13.583
6.91063
11.26
13.8735
7.60322
7.79281
6.56212
12.3869
5.60389
7.66472
8.91897
6.21439
3.74478
3.3008
4.39962
3.94998
2.84705
2.27152
2.40335
3.33253
1.74396
1.09206
5.7843
2.28514
2.42266
0.599429
0.206552
3.48779
0.94388
0.923778
1.17998
1.77737
3.07887
1.65467
1.23661
1.65301
1.56426
3.64901
4.09206
1.85661
1.68632
2.486
2.83825
1.8152
1.76768
2.64507
2.01378
2.17058
0.383611
1.49133
1.91625
3.35467
3.86833
3.81729
2.44352
2.70312
3.35648
5.24539
0
0.231962
0.87086
0.511503
1.00343
2.32301
4.15708
2.3482
1.47943
1.71035
3.00475
2.59067
4.22938
2.70839
2.95558
3.51685
4.25463
3.72206
0.972371
0.822927
1.88092
1.08323
0.537614
1.62174
1.06639
1.33621
0.982475
1.59657
2.30067
2.94679
1.75503
1.13701
0.748862
1.24514
3.54973
1.32084
2.84114
2.53366
1.46629
3.19305
1.08562
1.44469
1.20157
2.26993
0.451115
0.932394
0.788203
0.659885
1.98403
1.05658
1.86475
1.40609
1.60002
2.28337
2.28745
5.55574
4.92021
3.92501
5.74437
5.02995
7.6751
8.00618
3.64604
3.18176
1.93386
1.63281
2.18007
2.66338
1.14053
2.31507
1.95046
2.83806
3.17711
4.08993
7.5309
2.63171
5.37732
0.994778
5.00326
2.33662
3.61222
2.23423
0.946882
0.89653
3.35646
3.73406
1.37909
1.55448
3.37851
0.376183
1.46597
1.13225
2.12994
1.65501
1.10442
1.81556
0
1.50576
0.677644
1.29941
1.28807
6.59652
8.36848
9.49783
7.12617
7.98923
11.3378
16.2917
15.6153
14.361
10.6841
8.11392
12.1387
7.90948
11.9862
16.1979
18.9981
18.2367
12.4381
13.3968
15.1597
19.9932
19.1154
13.5772
11.0982
8.40281
9.82139
8.94164
13.9978
12.4103
14.2614
10.9602
7.03758
6.63147
10.2107
8.58473
14.4869
11.4844
14.1099
9.01725
10.1502
11.4577
12.5367
6.9094
3.65726
3.1213
3.68306
2.65406
2.51524
1.21394
0.651152
1.66255
0.904285
1.25494
2.47931
3.98891
1.03959
1.89004
1.3462
1.56412
1.99645
1.37156
2.12763
2.16891
1.72446
1.32767
1.16062
1.73588
0.624857
4.10842
2.77131
2.36477
2.8087
0.823456
1.09902
1.38898
0.982628
1.07842
0.952347
2.10658
1.03535
2.06737
1.26609
2.84061
1.5124
2.01248
0.82591
1.922
1.88763
1.67411
0.225676
0
0.137364
0.359564
0.590216
0.688408
0.575299
0.717068
1.39744
0.634472
0.870296
1.14637
2.72077
4.3992
4.10266
2.90841
3.41741
3.67742
4.24115
3.25863
2.68526
3.20499
1.47141
2.20093
1.87107
2.13385
2.39879
2.60547
2.16252
2.24346
4.64093
2.64247
1.00068
0.888226
0.87429
0.431323
0.715076
1.61919
0.899418
1.33054
0.947582
0.212693
0.639279
0.777749
1.35562
1.2
1.61738
1.15997
0.90461
1.05983
2.22507
2.4163
2.27883
1.4807
2.58963
4.59279
3.76151
2.97896
2.72282
4.06857
3.69041
3.85411
5.34335
2.99242
4.20032
2.9901
2.97676
3.89655
2.92044
2.72257
2.3591
1.96236
1.65684
1.90338
5.02052
2.76854
4.10836
4.87196
2.7742
2.64475
1.25453
1.16615
1.69468
1.96686
1.48953
2.44473
2.06412
1.3688
3.5583
2.68457
2.43239
1.34695
0.950333
2.74315
1.9474
1.91607
1.4296
0.785678
0
0.674196
1.69937
2.86488
2.19475
2.13272
2.90493
4.5364
4.95124
3.97306
4.34465
7.73932
9.61195
11.8861
13.6363
19.2439
21.3466
20.8185
24.816
34.1656
40.2793
38.5577
30.4491
24.7497
27.6506
34.0388
29.4087
25.1475
20.405
22.5924
20.599
19.8344
16.341
12.4437
7.87651
4.32172
3.70928
4.13232
7.15362
10.3312
11.2391
19.2051
12.6119
9.99052
11.3112
13.1987
9.18841
6.32598
4.69508
2.44834
2.08435
2.63945
2.8962
1.52765
1.19395
0.408349
0.479577
0.516528
0.952813
2.07745
0.976532
0.858323
0.931843
2.85346
1.91837
1.44784
0.831742
2.2144
1.56164
0.677754
1.00714
1.17107
1.61498
2.06844
0.879375
1.05189
1.96042
0.886856
0.5693
0.683025
0.636585
0.702085
0.417056
0.887924
0.282231
0.695716
1.49641
1.10369
1.7186
2.45989
0.708785
1.97211
1.6256
1.2093
1.17669
0.62888
0
0.138198
0.255722
0.329402
0.191106
0.435983
0.459271
0.416695
0.353839
0.343284
0.350276
0.386524
1.22037
0.985713
0.900357
0.391042
0.691003
0.731315
0.497043
0.502817
0.410398
0.520941
0.417855
0.665279
1.13173
0.745594
1.14971
0.723016
0.770982
0.757831
0.398771
1.06861
0.943621
0.160638
0.308877
0.290845
0.364652
0.309626
0.349956
0.212475
0.247126
0.255677
0.468166
0.422668
0.290391
0.499017
0.464119
0.480972
1.00511
1.76237
3.18711
3.15978
2.76233
3.11169
3.31121
3.45176
3.54329
3.53914
3.77482
3.90583
4.05624
3.1833
1.84534
0.92861
0.735973
0.839197
0.66226
1.13422
0.929774
0.664135
0.881108
0.470148
1.22728
1.31498
2.31155
3.18192
3.44058
2.86309
2.21677
1.36143
1.4642
1.27069
1.32546
0.495053
0.457624
0.465602
0.46418
1.41806
0.644544
0.698087
0.2248
0.685636
1.55286
1.59052
1.48694
1.71884
0.751065
0.90888
0
0.384984
1.0317
1.10119
0.963325
0.681183
1.74596
1.74054
1.49991
2.03245
4.29626
5.74084
4.96739
5.96339
9.45351
12.4599
17.8941
22.8281
25.6719
25.3233
25.862
32.0636
36.7261
42.8525
39.901
34.1546
29.9278
28.5385
27.9449
22.3211
16.6986
11.481
6.14812
6.4409
5.21776
6.18936
7.71915
11.9538
16.7704
20.297
20.2445
20.7002
20.8009
19.7795
15.1035
8.92891
6.46554
5.01184
4.79078
5.00548
4.0164
2.0858
1.03397
1.01304
0.34578
0.418839
0.650085
0.999791
1.31192
0.799284
1.09346
0.644289
0.858556
0.849736
0.868672
0.23566
0.239031
0.545121
0.836559
0.450418
0.301447
1.16416
0.95829
0.898804
0.544783
1.04667
1.51305
1.02175
0.264635
0.728407
0.777327
0.248372
0.38918
0.578032
0.931175
0.380561
0.463145
0.121005
0.517216
0.502314
0.222671
0.339385
0.507023
0.340273
0.485378
0.156789
0.174788
0
0
0
0
0
0
0
0
0
0
0
0
0
0
0
0
0
0
0
0
0
0
0
0
0
0
0
0
0
0
0
0
0
0
0
0
0
0
0
0
0
0
0
0
0
0
0
0
0
0
0
0
0
0
0
0
0
0
0
0
0
0
0
0
0
0
0
0
0
0
0
0
0
0
0
0
0
0
0
0
0
0
0
0
0
0
0
0
0
0
0
0
0
0
0
0
0
0.134302
0
0
0
0
0
0
0
0
0
0
0
0
0
0
0
0
0
0
0
0
0
0
0
0
0
0
0
0
0
0
0
0
0
0
0
0
0
0
0
0
0
0
0
0
0
0
0
0
0
0
0
0
0
0
0
0
0
0
0
0
0
0
0
0
0
0
0
0
0
0
0
0
0
0
0
0
0
0
0
0
0
0
0
0
0
0
0
0
0
0
0
0
0
0
0
0
0
0
0
0
0
0
0
0
0
0
0
0
0
0
0
0
0
0
0
0
0
0
0
0
0
0
0
0
0
0
0
0
0
0
0
0
0
0
0
0
0
0
0
0
0
0
0
0
0
0
0
0
0
0
0
0
0
0
0
0
0
0
0
0
0
0
0
0
0
0
0
0
0
0
0
0
0
0
0
0
0
0
0
0
0
0
0
0
0
0
0
0
0
0
0
0
0
0
0
0
0
0
0
0
0
0
0
0
0
0
0
0
0
0
0
0
0
0
0
0
0
0
0
0
0
0
0
0
0
0
0
0
0
0
0
0
0
0
0
0
0
0
0
0
0
0
0
0
0
0
0
0
0
0
0
0
0
0
0
0
0
0
0
0
0
0
0
0
0
0
0
0
0
0
0
0
0
0
0
0
0
0
0
0
0
0
0
0
0
0
0
0
0
0
0
0
0
0
0
0
0
0
0
0
0
0
0
0
0
0
0
0
0
0
0
0
0
0
0
0
0
0
0
0
0
0
0
0

SCALARS 2DELEM_Plastic_Strain_Upper float 1
LOOKUP_TABLE default
0
0
0
0
0
0
0
0
0
0
0
0
0
0
0
0
0
0
0
0
0
0
0
0
0
0
0
0
0
0
0
0
0
0
0
0
0
0
0
0
0
0
0
0
0
0
0
0
0
0
0
0
0
0
0
0
0
0
0
0
0
0
0
0
0
0
0
0
0
0
0
0
0
0
0
0
0
0
0
0
0
0
0
0
0
0
0
0
0
0
0
0
0
0
0
0
0
0
0
0
0
0
0
0
0
0
0
0
0
0
0
0
0
0
0
0
0
0
0
0
0
0
0
0
0
0
0
0
0
0
0
0
0
0
0
0
0
0
0
0
0
0
0
0
0
0
0
0
0
0
0
0
0
0
0
0
0
0
0
0
0
0
0
0
0
0
0
0
0
0
0
0
0
0
0
0
0
0
0
0
0
0
0
0
0
0
0
0
0
0
0
0
0
0
0
0
0
0
0
0
0
0
0
0
0
0
0
0
0
0
0
0
0
0
0
0
0
0
0
0
0
0
0
0
0
0
0
0
0
0
0
0
0
0
0
0
0
0
0
0
0
0
0
0
0
0
0
0
0
0
0
0
0
0
0
0
0
0
0
0
0
0
0
0
0
0
0
0
0
0
0
0
0
0
0
0
0
0
0
0
0
0
0
0
0
0
0
0
0
0
0
0
0
0
0
0
0
0
0
0
0
0
0
0
0
0
0
0
0
0
0
0
0
0
0
0
0
0
0
0
0
0
0
0
0
0
0
0
0
0
0
0
0
0
0
0
0
0
0
0
0
0
0
0
0
0
0
0
0
0
0
0
0
0
0
0
0
0
0
0
0
0
0
0
0
0
0
0
0
0
0
0
0
0
0
0
0
0
0
0
0
0
0
0
0
0
0
0
0
0
0
0
0
0
0
0
0
0
0
0
0
0
0
0
0
0
0
0
0
0
0
0
0
0
0
0
0
0
0
0
0
0
0
0
0
0
0
0
0
0
0
0
0
0
0
0
0
0
0
0
0
0
0
0
0
0
0
0
0
0
0
0
0
0
0
0
0
0
0
0
0
0
0
0
0
0
0
0
0
0
0
0
0
0
0
0
0
0
0
0
0
0
0
0
0
0
0
0
0
0
0
0
0
0
0
0
0
0
0
0
0
0
0
0
0
0
0
0
0
0
0
0
0
0
0
0
0
0
0
0
0
0
0
0
0
0
0
0
0
0
0
0
0
0
0
0
0
0
0
0
0
0
0
0
0
0
0
0
0
0
0
0
0
0
0
0
0
0
0
0
0
0
0
0
0
0
0
0
0
0
0
0
0
0
0
0
0
0
0
0
0
0
0
0
0
0
0
0
0
0
0
0
0
0
0
0
0
0
0
0
0
0
0
0
0
0
0
0
0
0
0
0
0
0
0
0
0
0
0
0
0
0
0
0
0
0
0
0
0
0
0
0
0
0
0
0
0
0
0
0
0
0
0
0
0
0
0
0
0
0
0
0
0
0
0
0
0
0
0
0
0
0
0
0
0
0
0
0
0
0
0
0
0
0
0
0
0
0
0
0
0
0
0
0
0
0
0
0
0
0
0
0
0
0
0
0
0
0
0
0
0
0
0
0
0
0
0
0
0
0
0
0
0
0
0
0
0
0
0
0
0
0
0
0
0
0
0
0
0
0
0
0
0
0
0
0
0
0
0
0
0
0
0
0
0
0
0
0
0
0
0
0
0
0
0
0
0
0
0
0
0
0
0
0
0
0
0
0
0
0
0
0
0
0
0
0
0
0
0
0
0
0
0
0
0
0
0
0
0
0
0
0
0
0
0
0
0
0
0
0
0
0
0
0
0
0
0
0
0
0
0
0
0
0
0
0
0
0
0
0
0
0
0
0
0
0
0
0
0
0
0
0
0
0
0
0
0
0
0
0
0
0
0
0
0
0
0
0
0
0
0
0
0
0
0
0
0
0
0
0
0
0
0
0
0
0
0
0
0
0
0
0
0
0
0
0
0
0
0
0
0
0
0
0
0
0
0
0
0
0
0
0
0
0
0
0
0
0
0
0
0
0
0
0
0
0
0
0
0
0
0
0
0
0
0
0
0
0
0
0
0
0
0
0
0
0
0
0
0
0
0
0
0
0
0
0
0
0
0
0
0
0
0
0
0
0
0
0
0
0
0
0
0
0
0
0
0
0
0
0
0
0
0
0
0
0
0
0
0
0
0
0
0
0
0
0
0
0
0
0
0
0
0
0
0
0
0
0
0
0
0
0
0
0
0
0
0
0
0
0
0
0
0
0
0
0
0
0
0
0
0
0
0
0
0
0
0
0
0
0
0
0
0
0
0
0
0
0
0
0
0
0
0
0
0
0
0
0
0
0
0
0
0
0
0
0
0
0
0
0
0
0
0
0
0
0
0
0
0
0
0
0
0
0
0
0
0
0
0
0
0
0
0
0
0
0
0
0
0
0
0
0
0
0
0
0
0
0
0
0
0
0
0
0
0
0
0
0
0
0
0
0
0
0
0
0
0
0
0
0
0
0
0
0
0
0
0
0
0
0
0
0
0
0
0
0
0
0
0
0
0
0
0
0
0
0
0
0
0
0
0
0
0
0
0
0
0
0
0
0
0
0
0
0
0
0
0
0
0
0
0
0
0
0
0
0
0
0
0
0
0
0
0
0
0
0
0
0
0
0
0
0
0
0
0
0
0
0
0
0
0
0
0
0
0
0
0
0
0
0
0
0
0
0
0
0
0
0
0
0
0
0
0
0
0
0
0
0
0
0
0
0
0
0
0
0
0
0
0
0
0
0
0
0
0
0
0
0
0
0
0
0
0
0
0
0
0
0
0
0
0
0
0
0
0
0
0
0
0
0
0
0
0
0
0
0
0
0
0
0
0
0
0
0
0
0
0
0
0
0
0
0
0
0
0
0
0
0
0
0
0
0
0
0
0
0
0
0
0
0
0
0
0
0
0
0
0
0
0
0
0
0
0
0
0
0
0
0
0
0
0
0
0
0
0
0
0
0
0
0
0
0
0
0
0
0
0
0
0
0
0
0
0
0
0
0
0
0
0
0
0
0
0
0
0
0
0
0
0
0
0
0
0
0
0
0
0
0
0
0
0
0
0
0
0
0
0
0
0
0
0
0
0
0
0
0
0
0
0
0
0
0
0
0
0
0
0
0
0
0
0
0
0
0
0
0
0
0
0
0
0
0
0
0
0
0
0
0
0
0
0
0
0
0
0
0
0
0
0
0
0
0
0
0
0
0
0
0
0
0
0
0
0
0
0
0
0
0
0
0
0
0
0
0
0
0
0
0
0
0
0
0
0
0
0
0
0
0
0
0
0
0
0
0
0
0
0
0
0
0
0
0
0
0
0
0
0
0
0
0
0
0
0
0
0
0
0
0
0
0
0
0
0
0
0
0
0
0
0
0
0
0
0
0
0
0
0
0
0
0
0
0
0
0
0
0
0
0
0
0
0
0
0
0
0
0
0
0
0
0
0
0
0
0
0
0
0
0
0
0
0
0
0
0
0
0
0
0
0
0
0
0
0
0
0
0
0
0
0
0
0
0
0
0
0
0
0
0
0
0
0
0
0
0
0
0
0
0
0
0
0
0
0
0
0
0
0
0
0
0
0
0
0
0
0
0
0
0
0
0
0
0
0
0
0
0
0
0
0
0
0
0
0
0
0
0
0
0
0
0
0
0
0
0
0
0
0
0
0
0
0
0
0
0
0
0
0
0
0
0
0
0
0
0
0
0
0
0
0
0
0
0
0
0
0
0
0
0
0
0
0
0
0
0
0
0
0
0
0
0
0
0
0
0
0
0
0
0
0
0
0
0
0
0
0
0
0
0
0
0
0
0
0
0
0
0
0
0
0
0
0
0
0
0
0
0
0
0
0
0
0
0
0
0
0
0
0
0
0
0
0
0
0
0
0
0
0
0
0
0
0
0
0
0
0
0
0
0
0
0
0
0
0
0
0
0
0
0
0
0
0
0
0
0
0
0
0
0
0
0
0
0
0
0
0
0
0
0
0
0
0
0
0
0
0
0
0
0
0
0
0
0
0
0
0
0
0
0
0
0
0
0
0
0
0
0
0
0
0
0
0
0
0
0
0
0
0
0
0
0
0
0
0
0
0
0
0
0
0
0
0
0
0
0
0
0
0
0
0
0
0
0
0
0
0
0
0
0
0
0
0
0
0
0
0
0
0
0
0
0
0
0
0
0
0
0
0
0
0
0
0
0
0
0
0
0
0
0
0
0
0
0
0
0
0
0
0
0
0
0
0
0
0
0
0
0
0
0
0
0
0
0
0
0
0
0
0
0
0
0
0
0
0
0
0
0
0
0
0
0
0
0
0
0
0
0
0
0
0
0
0
0
0
0
0
0
0
0
0
0
0
0
0
0
0
0
0
0
0
0
0
0
0
0
0
0
0
0
0
0
0
0
0
0
0
0
0
0
0
0
0
0
0
0
0
0
0
0
0
0
0
0
0
0
0
0
0
0
0
0
0
0
0
0
0
0
0
0
0
0
0
0
0
0
0
0
0
0
0
0
0
0
0
0
0
0
0
0
0
0
0
0
0
0
0
0
0
0
0
0
0
0
0
0
0
0
0
0.00194042
0.00207691
0
0
0
0
0
0
0
0
0
0
0
0
0
0
0
0
0
0
0
0
0
0
0
0
0
0
0
0
0
0
0
0
0
0
0
0
0
0
0
0
0
0
0
0
0
0
0
0
0
0
0
0
0
0
0
0
0
0
0
0
0
0
0
0
0
0
0
0
0
0
0
0
0
0
0
0
0
0
0
0
0
0
0
0
0
0
0
0
0.0019128
0.000724491
0
0
0
0
0
0
0
0
0
0
0
0
0
0
0
0
0
0
0
0
0
0
0
0
0
0
0
0
0
0
0
0
0
0
0
0
0
0
0
0
0
0
0
0
0
0
0
0
0
0
0
0
0
0
0
0
0
0
0
0
0
0
0
0
0
0
0
0
0
0
0
0
0
0
0
0
0
0
0
0
0
0
0
0
0
0
0
0
0.000118362
0.00429028
0.00460766
0.000119582
0
0
0
0
0
0
0
0
0
0
0
0
0
0
0
0
0
0
0
0
0
0
0
0
0
0
0
0
0
0
0
0
0
0
0
0
0
0
0
0
0
0
0
0
0
0
0
0
0
0
0
0
0
0
0
0
0
0
0
0
0
0
0
0
0
0
0
0
0
0
0
0
0
0
0
0
0
0
0
0
0
0
0
0
0
0
0
0
0
0
0
0.00217257
0.002275
0
0
0
0
0
0
0
0
0
0
0
0
0
0
0
0
0
0
0
0
0
0
0
0
0
0
0
0
0
0
0
0
0
0
0
0
0
0
0
0
0
0
0
0
0
0
0
0
0
0
0
0
0
0
0
0
0
0
0
0
0
0
0
0
0
0
0
0
0
0
0
0
0
0
0
0
0
0
0
0
0
0
0
0
0
0
0
0
0
0
0
0
0
0
0
0
0
0
0
0
0
0
0
0
0
0
0
0
0
0
0
0
0
0
0
0
0
0
0
0
0
0
0
0
0
0
0
0
0
0
0
0
0
0
0
0
0
0
0
0
0
0
0
0
0
0
0
0
0
0
0
0
0
0
0
0
0
0
0
0
0
0
0
0
0
0
0
0
0
0
0
0
0
0
0
0
0
0
0
0
0
0
0
0
0
0
0
0
0
0
0
0
0
0
0
0
0
0
0
0
0
0
0
0
0
0
0
0
0
0
0
0
0
0
0
0
0
0
0
0
0
0
0
0
0
0
0
0
0
0
0
0
0
0
0
0
0
0
0
0
0
0
0
0
0
0
0
0
0
0
0
0
0
0
0
0
0
0
0
0
0
0
0
0
0
0
0
0
0
0
0
0
0
0
0
0
0
0
0
0
0
0
0
0
0
0
0
0
0
0
0
0
0
0
0
0
0
0
0
0
0
0
0
0
0
0
0
0
0
0
0
0
0
0
0
0
0
0
0
0
0
0
0
0
0
0
0
0
0
0
0
0
0
0
0
0
0
0
0
0
0
0
0
0
0
0
0
0
0
0
0
0
0
0
0
0
0
0
0
0
0
0
0
0
0
0
0
0
0
0
0
0
0
0
0
0
0
0
0
0
0
0
0
0
0
0
0
0
0
0
0
0
3.81514e-05
0.000400486
0
0
0
0
0
0
0
0
0
0
0
0
0
0
0
0
0
0
0
0
0
0
0
0
0
0
0
0
0
0
0
0
0
0
0
0
0
0
0
0
0
0
0
0
0
0
0
0
0
0
0
0
0
0
0
0
0
0
0
0
0
0
0
0
0
0
0
0
0
0
0
0
0
0
0
0
0
0
0
0
0
0
0
0
0
0
0
0
0
0
0
0
0
0
0
0
0
0
0
0
0
0
0.000227337
4.52215e-05
0
0
0
0
0
0
0
0
0
0
0
0
0
0
0
0
0
0
0
0
0
0
0
0
0
0
0
0
0
0
0
0
0
0
0
0
0
0
0
0
0
0
0
0
0
0
0
0
0
0
0
0
0
0
0
0
0
0
0
0
0
0
0
0
0
0
0
0
0
0
0
0
0
0
0
0
0
0
0
0
0
0
0
0
0
0
0
0
0
0
0
0
0
0
0
0
0
0
0
0
0
0
0
0
0.00206285
0.00189207
0
0
0
0
0
0
0
0
0
0
0
0
0
0
0
0
0
0
0
0
0
0
0
0
0
0
0
0
0
0
0
0
0
0
0
0
0
0
0
0
0
0
0
0
0
0
0
0
0
0
0
0
0
0
0
0
0
0
0
0
0
0
0
0
0
0
0
0
0
0
0
0
0
0
0
0
0
0
0
0
0
0
0
0
0
0
0
0
0
0
0
0
0
0
0
0
0
0
0
0
0
0
0
0
0
0
0.00227908
0.00236482
0
0
0
0
0
0
0
0
0
0
0
0
0
0
0
0
0
0
0
0
0
0
0
0
0
0
0
0
0
0
0
0
0
0
0
0
0
0
0
0
0
0
0
0
0
0
0
0
0
0
0
0
0
0
0
0
0
0
0
0
0
0
0
0
0
0
0
0
0
0
0
0
0
0
0
0
0
0
0
0
0
0
0
0
0
0
0
0
0
0
0
0
0
0
0
0
0
0
0
0
0
0
0
0
0
0
0
0.000403412
0.00594142
0.00660596
0.00067621
0
0
0
0
0
0
0
0
0
0
0
0
0
0
0
0
0
0
0
0
0
0
0
0
0
0
0
0
0
0
0
0
0
0
0
0
0
0
0
0
0
0
0
0
0
0
0
0
0
0
0
0
0
0
0
0
0
0
0
0
0
0
0
0
0
0
0
0
0
0
0
0
0
0
0
0
0
0
0
0
0
0
0
0
0
0
0
0
0
0
0
0
0
0
0
0
0
0
0
0
0
0
0
0
0
0
0
0
0.000118141
0.00348758
0.00363589
0.000112495
0
0
0
0
0
0
0
0
0
0
0
0
0
0
0
0
0
0
0
0
0
0
0
0
0
0
0
0
0
0
0
0
0
0
0
0
0
0
0
0
0
0
0
0
0
0
0
0
0
0
0
0
0
0
0
0
0
0
0
0
0
0
0
0
0
0
0
0
0
0
0
0
0
0
0
0
0
0
0
0
0
0
0
0
0
0
0
0
0
0
0
0
0
0
0
0
0
0
0
0
0
0
0
0
0
0
0
0
0
0
0.00171796
0.00354695
0.000851547
0
0
0
0
0
0
0
0
0
0
0
0
0
0
0
0
0
0
0
0
0
0
0
0
0
0
0
0
0
0
0
0
0
0
0
0
0
0
0
0
0
0
0
0
0
0
0
0
0
0
0
0
0
0
0
0
0
0
0
0
0
0
0
0
0
0
0
0
0
0
0
0
0
0
0
0
0
0
0
0
0
0
0
0
0
0
0
0
0
0
0
0
0
0
0
0
0
0
0
0
0
0
0
0
0
0
0
0
0
0
0
0
0.00169356
0.00666675
0.00999364
0.00201294
6.30121e-05
0
0
0
0
0
0
0
0
0
0
0
0
0
0
0
0
0
0
0
0
0
0
0
0
0
0
0
0
0
0
0
0
0
0
0
0
0
0
0
0
0
0
0
0
0
0
0
0
0
0
0
0
0
0
0
0
0
0
0
0
0
0
0
0
0
0
0
0
0
0
0
0
0
0
0
0
0
0
0
0
0
0
0
0
0
0
0
0
0
0
0
0
0
0
0
0
0
0
0
0
0
0
0
0
0
0
0
0
0
0
0
0
0
0.000586598
0.00415729
0.00664142
0.00152021
7.20569e-05
0
0
0
0
0
0
0
0
0
0
0
0
0
0
0
0
0
0
0
0
0
0
0
0
0
0
0
0
0
0
0
0
0
0
0
0
0
0
0
0
0
0
0
0
0
0
0
0
0
0
0
0
0
0
0
0
0
0
0
0
0
0
0
0
0
0
0
0
0
0
0
0
0
0
0
0
0
0
0
0
0
0
0
0
0
0
0
0
0
0
0
0
0
0
0
0
0
0
0
0
0
0
0
0
0
0
0
0
0
0
0
0
0
0
0
0
0.00118727
0.00373542
0
0
0
0
0
0
0
0
0
0
0
0
0
0
0
0
0
0
0
0
0
0
0
0
0
0
0
0
0
0
0
0
0
0
0
0
0
0
0
0
0
0
0
0
0
0
0
0
0
0
0
0
0
0
0
0
0
0
0
0
0
0
0
0
0
0
0
0
0
0
0
0
0
0
0
0
0
0
0
0
0
0
0
0
0
0
0
0
0
0
0
0
0
0
0
0
0
0
0
0
0
0
0
0
0
0
0
0
0
0
0
0
0
0
0
0
0
0
0
0
0.00154042
0.00205162
0
0
0
0
0
0
0
0
0
0
0
0
0
0
0
0
0
0
0
0
0
0
0
0
0
0
0
0
0
0
0
0
0
0
0
0
0
0
0
0
0
0
0
0
0
0
0
0
0
0
0
0
0
0
0
0
0
0
0
0
0
0
0
0
0
0
0
0
0
0
0
0
0
0
0
0
0
0
0
0
0
0
0
0
0
0
0
0
0
0
0
0
0
0
0
0
0
0
0
0
0
0
0
0
0
0
0
0
0
0
0
0
0
0
0
0
0
0
0
0
0
0
0.00028359
0.00198833
0.000307374
0
0
0
0
0
0
0
0
0
0
0
0
0
0
0
0
0
0
0
0
0
0
0
0
0
0
0
0
0
0
0
0
0
0
0
0
0
0
0
0
0
0
0
0
0
0
0
0
0
0
0
0
0
0
0
0
0
0
0
0
0
0
0
0
0
0
0
0
0
0
0
0
0
0
0
0
0
0
0
0
0
0
0
0
0
0
0
0
0
0
0
0
0
0
0
0
0
0
0
0
0
0
0
0
0
0
0
0
0
0
0
0
0
0
0
0
0
0
0
0
0
0
1.2091e-05
0.000718878
0.00769474
0.00297357
7.00369e-05
0
0
0
0
0
0
0
0
0
0
0
0
0
0
0
0
0
0
0
0
0
0
0
0
0
0
0
0
0
0
0
0
0
0
0
0
0
0
0
0
0
0
0
0
0
0
0
0
0
0
0
0
0
0
0
0
0
0
0
0
0
0
0
0
0
0
0
0
0
0
0
0
0
0
0
0
0
0
0
0
0
0
0
0
0
0
0
0
0
0
0
0
0
0
0
0
0
0
0
0
0
0
0
0
0
0
0
0
0
0
0
0
0
0
0
0
0
0
0
0
0
0
0
0
0.000458541
0.00561958
0.00306488
0
0
0
0
0
0
0
0
0
0
0
0
0
0
0
0
0
0
0
0
0
0
0
0
0
0
0
0
0
0
0
0
0
0
0
0
0
0
0
0
0
0
0
0
0
0
0
0
0
0
0
0
0
0
0
0
0
0
0
0
0
0
0
0
0
0
0
0
0
0
0
0
0
0
0
0
0
0
0
0
0
0
0
0
0
0
0
0
0
0
0
0
0
0
0
0
0
0
0
0
0
0
0
0
0
0
0
0
0
0
0
0
0
0
0
0
0
0
0
0
0
0
0
0
0
0
0
0
0.0034103
0.00156336
0
0
0
0
0
0
0
0
0
0
0
0
0
0
0
0
0
0
0
0
0
0
0
0
0
0
0
0
0
0
0
0
0
0
0
0
0
0
0
0
0
0
0
0
0
0
0
0
0
0
0
0
0
0
0
0
0
0
0
0
0
0
0
0
0
0
0
0
0
0
0
0
0
0
0
0
0
0
0
0
0
0
0
0
0
0
0
0
0
0
0
0
0
0
0
0
0
0
0
0
0
0
0
0
0
0
0
0
0
0
0
0
0
0
0
0
0
0
0
0
0
0
0
0
0
0
0
0
0
0
0.00177582
0.00285049
3.79846e-05
0
0
0
0
0
0
0
0
0
0
0
0
0
0
0
0
0
0
0
0
0
0
0
0
0
0
0
0
0
0
0
0
0
0
0
0
0
0
0
0
0
0
0
0
0
0
0
0
0
0
0
0
0
0
0
0
0
0
0
0
0
0
0
0
0
0
0
0
0
0
0
0
0
0
0
0
0
0
0
0
0
0
0
0
0
0
0
0
0
0
0
0
0
0
0
0
0
0
0
0
0
0
0
0
0
0
0
0
0
0
0
0
0
0
0
0
0
0
0
0
0
0
0
0
0
0
0
0
0
0
0
0.00383832
0.0065819
0.00198046
0
0
0
0
0
0
0
0
0
0
0
0
0
0
0
0
0
0
0
0
0
0
0
0
0
0
0
0
0
0
0
0
0
0
0
0
0
0
0
0
0
0
0
0
0
0
0
0
0
0
0
0
0
0
0
0
0
0
0
0
0
0
0
0
0
0
0
0
0
0
0
0
0
0
0
0
0
0
0
0
0
0
0
0
0
0
0
0
0
0
0
0
0
0
0
0
0
0
0
0
0
0
0
0
0
0
0
0
0
0
0
0
0
0
0
0
0
0
0
0
0
0
0
0
0
0
0
0
0
0
0
0
5.92884e-05
0.00316649
0.0127942
0.00681254
0.0014595
1.32192e-05
0
0
0
0
0
0
0
0
0
0
0
0
0
0
0
0
0
0
0
0
0
0
0
0
0
0
0
0
0
0
0
0
0
0
0
0
0
0
0
0
0
0
0
0
0
0
0
0
0
0
0
0
0
0
0
0
0
0
0
0
0
0
0
0
0
0
0
0
0
0
0
0
0
0
0
0
0
0
0
0
0
0
0
0
0
0
0
0
0
0
0
0
0
0
0
0
0
0
0
0
0
0
0
0
0
0
0
0
0
0
0
0
0
0
0
0
0
0
0
0
0
0
0
0
0
0
0
0
0
0
0
0
0
0.00124173
0.00696654
0.0051169
0.000748132
0
0
0
0
0
0
0
0
0
0
0
0
0
0
0
0
0
0
0
0
0
0
0
0
0
0
0
0
0
0
0
0
0
0
0
0
0
0
0
0
0
0
0
0
0
0
0
0
0
0
0
0
0
0
0
0
0
0
0
0
0
0
0
0
0
0
0
0
0
0
0
0
0
0
0
0
0
0
0
0
0
0
0
0
0
0
0
0
0
0
0
0
0
0
0
0
0
0
0
0
0
0
0
0
0
0
0
0
0
0
0
0
0
0
0
0
0
0
0
0
0
0
0
0
0
0
0
0
0
0
0
0
0
0
0
0
0
0.0051452
0.00679906
0.00370396
0.000516955
0
0
0
0
0
0
0
0
0
0
0
0
0
0
0
0
0
0
0
0
0
0
0
0
0
0
0
0
0
0
0
0
0
0
0
0
0
0
0
0
0
0
0
0
0
0
0
0
0
0
0
0
0
0
0
0
0
0
0
0
0
0
0
0
0
0
0
0
0
0
0
0
0
0
0
0
0
0
0
0
0
0
0
0
0
0
0
0
0
0
0
0
0
0
0
0
0
0
0
0
0
0
0
0
0
0
0
0
0
0
0
0
0
0
0
0
0
0
0
0
0
0
0
0
0
0
0
0
0
0
0
0
0
0
0
0
0
0.000254054
0.00443548
0.0169201
0.00929188
0.0028869
0.000373486
0
0
0
0
0
0
0
0
0
0
0
0
0
0
0
0
0
0
0
0
0
0
0
0
0
0
0
0
0
0
0
0
0
0
0
0
0
0
0
0
0
0
0
0
0
0
0
0
0
0
0
0
0
0
0
0
0
0
0
0
0
0
0
0
0
0
0
0
0
0
0
0
0
0
0
0
0
0
0
0
0
0
0
0
0
0
0
0
0
0
0
0
0
0
0
0
0
0
0
0
0
0
0
0
0
0
0
0
0
0
0
0
0
0
0
0
0
0
0
0
0
0
0
0
0
0
0
0
0
0
0
0
0
0
0
0
0
0
0.000179638
0.00258068
0.0093247
0.0069619
0.00162797
0.000293772
0
0
0
0
0
0
0
0
0
0
0
0
0
0
0
0
0
0
0
0
0
0
0
0
0
0
0
0
0
0
0
0
0
0
0
0
0
0
0
0
0
0
0
0
0
0
0
0
0
0
0
0
0
0
0
0
0
0
0
0
0
0
0
0
0
0
0
0
0
0
0
0
0
0
0
0
0
0
0
0
0
0
0
0
0
0
0
0
0
0
0
0
0
0
0
0
0
0
0
0
0
0
0
0
0
0
0
0
0
0
0
0
0
0
0
0
0
0
0
0
0
0
0
0
0
0
0
0
0
0
0
0
0
0
0
0
0
0
0
0
0
0.000212469
0.00242627
0.00151237
0
0
0
0
0
0
0
0
0
0
0
0
0
0
0
0
0
0
0
0
0
0
0
0
0
0
0
0
0
0
0
0
0
0
0
0
0
0
0
0
0
0
0
0
0
0
0
0
0
0
0
0
0
0
0
0
0
0
0
0
0
0
0
0
0
0
0
0
0
0
0
0
0
0
0
0
0
0
0
0
0
0
0
0
0
0
0
0
0
0
0
0
0
0
0
0
0
0
0
0
0
0
0
0
0
0
0
0
0
0
0
0
0
0
0
0
0
0
0
0
0
0
0
0
0
0
0
0
0
0
0
0
0
0
0
0
0
0
0
0
0
0
0
0
0
5.13509e-05
0.000664419
0.0014311
0.000245047
1.1999e-05
0
0
0
0
0
0
0
0
0
0
0
0
0
0
0
0
0
0
0
0
0
0
0
0
0
0
0
0
0
0
0
0
0
0
0
0
0
0
0
0
0
0
0
0
0
0
0
0
0
0
0
0
0
0
0
0
0
0
0
0
0
0
0
0
0
0
0
0
0
0
0
0
0
0
0
0
0
0
0
0
0
0
0
0
0
0
0
0
0
0
0
0
0
0
0
0
0
0
0
0
0
0
0
0
0
0
0
0
0
0
0
0
0
0
0
0
0
0
0
0
0
0
0
0
0
0
0
0
0
0
0
0
0
0
0
0
0
0
0
0
0
0
0
0
0
0
0.000252281
0.000243332
0.003255
0.00268466
0
0
0
0
0
0
0
0
0
0
0
0
0
0
0
0
0
0
0
0
0
0
0
0
0
0
0
0
0
0
0
0
0
0
0
0
0
0
0
0
0
0
0
0
0
0
0
0
0
0
0
0
0
0
0
0
0
0
0
0
0
0
0
0
0
0
0
0
0
0
0
0
0
0
0
0
0
0
0
0
0
0
0
0
0
0
0
0
0
0
0
0
0
0
0
0
0
0
0
0
0
0
0
0
0
0
0
0
0
0
0
0
0
0
0
0
0
0
0
0
0
0
0
0
0
0
0
0
0
0
0
0
0
0
0
0
0
0
0
0
0
0
0
0
0
0
0
0
0
0
0.00190585
0.00237507
0
0
0
0
0
0
0
0
0
0
0
0
0
0
0
0
0
0
0
0
0
0
0
0
0
0
0
0
0
0
0
0
0
0
0
0
0
0
0
0
0
0
0
0
0
0
0
0
0
0
0
0
0
0
0
0
0
0
0
0
0
0
0
0
0
0
0
0
0
0
0
0
0
0
0
0
0
0
0
0
0
0
0
0
0
0
0
0
0
0
0
0
0
0
0
0
0
0
0
0
0
0
0
0
0
0
0
0
0
0
0
0
0
0
0
0
0
0
0
0
0
0
0
0
0
0
0
0
0
0
0
0
0
0
0
0
0
0
0
0
0
0
0
0
0
0
0
0
0
0
0
0
0
0.00446636
0.00369594
0
0
0
0
0
0
0
0
0
0
0
0
0
0
0
0
0
0
0
0
0
0
0
0
0
0
0
0
0
0
0
0
0
0
0
0
0
0
0
0
0
0
0
0
0
0
0
0
0
0
0
0
0
0
0
0
0
0
0
0
0
0
0
0
0
0
0
0
0
0
0
0
0
0
0
0
0
0
0
0
0
0
0
0
0
0
0
0
0
0
0
0
0
0
0
0
0
0
0
0
0
0
0
0
0
0
0
0
0
0
0
0
0
0
0
0
0
0
0
0
0
0
0
0
0
0
0
0
0
0
0
0
0
0
0
0
0
0
0
0
0
0
0
0
0
0
0
0
0
0
0
0
0
0
0.00168764
0.00562552
0.00355652
0
0
0
0
0
0
0
0
0
0
0
0
0
0
0
0
0
0
0
0
0
0
0
0
0
0
0
0
0
0
0
0
0
0
0
0
0
0
0
0
0
0
0
0
0
0
0
0
0
0
0
0
0
0
0
0
0
0
0
0
0
0
0
0
0
0
0
0
0
0
0
0
0
0
0
0
0
0
0
0
0
0
0
0
0
0
0
0
0
0
0
0
0
0
0
0
0
0
0
0
0
0
0
0
0
0
0
0
0
0
0
0
0
0
0
0
0
0
0
0
0
0
0
0
0
0
0
0
0
0
0
0
0
0
0
0
0
0
0
0
0
0
0
0
0
0
0
0
0
0
0
0
0
0
0
0
0.0049716
0.0050058
0.000987865
0
0
0
0
0
0
0
0
0
0
0
0
0
0
0
0
0
0
0
0
0
0
0
0
0
0
0
0
0
0
0
0
0
0
0
0
0
0
0
0
0
0
0
0
0
0
0
0
0
0
0
0
0
0
0
0
0
0
0
0
0
0
0
0
0
0
0
0
0
0
0
0
0
0
0
0
0
0
0
0
0
0
0
0
0
0
0
0
0
0
0
0
0
0
0
0
0
0
0
0
0
0
0
0
0
0
0
0
0
0
0
0
0
0
0
0
0
0
0
0
0
0
0
0
0
0
0
0
0
0
0
0
0
0
0
0
0
0
0
0
0
0
0
0
0
0
0
0
0
0
0
0
0
0
0
0
0
0.00240627
0.00570087
0.00381527
0.000264607
0
0
0
0
0
0
0
0
0
0
0
0
0
0
0
0
0
0
0
0
0
0
0
0
0
0
0
0
0
0
0
0
0
0
0
0
0
0
0
0
0
0
0
0
0
0
0
0
0
0
0
0
0
0
0
0
0
0
0
0
0
0
0
0
0
0
0
0
0
0
0
0
0
0
0
0
0
0
0
0
0
0
0
0
0
0
0
0
0
0
0
0
0
0
0
0
0
0
0
0
0
0
0
0
0
0
0
0
0
0
0
0
0
0
0
0
0
0
0
0
0
0
0
0
0
0
0
0
0
0
0
0
0
0
0
0
0
0
0
0
0
0
0
0
0
0
0
0
0
0
0
0
0
0
0
0
0
0
0
0.00359811
0.00614223
0.00332946
0
0
0
0
0
0
0
0
0
0
0
0
0
0
0
0
0
0
0
0
0
0
0
0
0
0
0
0
0
0
0
0
0
0
0
0
0
0
0
0
0
0
0
0
0
0
0
0
0
0
0
0
0
0
0
0
0
0
0
0
0
0
0
0
0
0
0
0
0
0
0
0
0
0
0
0
0
0
0
0
0
0
0
0
0
0
0
0
0
0
0
0
0
0
0
0
0
0
0
0
0
0
0
0
0
0
0
0
0
0
0
0
0
0
0
0
0
0
0
0
0
0
0
0
0
0
0
0
0
0
0
0
0
0
0
0
0
0
0
0
0
0
0
0
0
0
0
0
0
0
0
0
0
0
0
0
0
0
0
0
0
0
0.00276192
0.0053841
0.00344151
0.000529096
0
0
0
0
0
0
0
0
0
0
0
0
0
0
0
0
0
0
0
0
0
0
0
0
0
0
0
0
0
0
0
0
0
0
0
0
0
0
0
0
0
0
0
0
0
0
0
0
0
0
0
0
0
0
0
0
0
0
0
0
0
0
0
0
0
0
0
0
0
0
0
0
0
0
0
0
0
0
0
0
0
0
0
0
0
0
0
0
0
0
0
0
0
0
0
0
0
0
0
0
0
0
0
0
0
0
0
0
0
0
0
0
0
0
0
0
0
0
0
0
0
0
0
0
0
0
0
0
0
0
0
0
0
0
0
0
0
0
0
0
0
0
0
0
0
0
0
0
0
0
0
0
0
0
0
0
0
0
0
0
0
0
4.36333e-05
0.00264023
0.00381703
0.002769
0.000473932
0
0
0
0
0
0
0
0
0
0
0
0
0
0
0
0
0
0
0
0
0
0
0
0
0
0
0
0
0
0
0
0
0
0
0
0
0
0
0
0
0
0
0
0
0
0
0
0
0
0
0
0
0
0
0
0
0
0
0
0
0
0
0
0
0
0
0
0
0
0
0
0
0
0
0
0
0
0
0
0
0
0
0
0
0
0
0
0
0
0
0
0
0
0
0
0
0
0
0
0
0
0
0
0
0
0
0
0
0
0
0
0
0
0
0
0
0
0
0
0
0
0
0
0
0
0
0
0
0
0
0
0
0
0
0
0
0
0
0
0
0
0
0
0
0
0
0
0
0
0
0
0
0
0
0
0
0
0
0
0
0
0
0
0
3.53858e-05
0.000322013
0.002229
0.00154385
0.000782595
0
0
0
0
0
0
0
0
0
0
0
0
0
0
0
0
0
0
0
0
0
0
0
0
0
0
0
0
0
0
0
0
0
0
0
0
0
0
0
0
0
0
0
0
0
0
0
0
0
0
0
0
0
0
0
0
0
0
0
0
0
0
0
0
0
0
0
0
0
0
0
0
0
0
0
0
0
0
0
0
0
0
0
0
0
0
0
0
0
0
0
0
0
0
0
0
0
0
0
0
0
0
0
0
0
0
0
0
0
0
0
0
0
0
0
0
0
0
0
0
0
0
0
0
0
0
0
0
0
0
0
0
0
0
0
0
0
0
0
0
0
0
0
0
0
0
0
0
0
0
0
0
0
0
0
0
0
0
0
0
0
0
0
0
0
0
0
0
0
0
0
0
0
0
0
0
0
0
0
0
0
0
0
0
0
0
0
0
0
0
0
0
0
0
0
0
0
0
0
0
0
0
0
0
0
0
0
0
0
0
0
0
0
0
0
0
0
0
0
0
0
0
0
0
0
0
0
0
0
0
0
0
0
0
0
0
0
0
0
0
0
0
0
0
0
0
0
0
0
0
0
0
0
0
0
0
0
0
0
0
0
0
0
0
0
0
0
0
0
0
0
0
0
0
0
0
0
0
0
0
0
0
0
0
0
0
0
0
0
0
0
0
0
0
0
0
0
0
0
0
0
0
0
0
0
0
0
0
0
0
0
0
0
0
0
0
0
0
0
0
0
0
0
0
0
0
0
0
0
0
0
0
0
0
0
0.000231963
0.00036749
0.000106073
0
0
0
0
0
0
0
0
0
0
0
0
0
0
0
0
0
0
0
0
0
0
0
0
0
0
0
0
0
0
0
0
0
0
0
0
0
0
0
0
0
0
0
0
0
0
0
0
0
0
0
0
0
0
0
0
0
0
0
0
0
0
0
0
0
0
0
0
0
0
0
0
0
0
0
0
0
0
0
0
0
0
0
0
0
0
0
0
0
0
0
0
0
0
0
0
0
0
0
0
0
0
0
0
0
0
0
0
0
0
0
0
0
0
0
0
0
0
0
0
0
0
0
0
0
0
0
0
0
0
0
0
0
0
0
0
0
0
0
0
0
0
0
0
0
0
0
0
0
0
0
0
0
0
0
0
0
0
0
0
0
0
0
0
0
0
0
0
0
0
0
0
0
0
0
0
0
0
0
0
0
0
0
0
0
0
0
0
0
0
0
0
0
0
0
0
0
0
0
0
0
0
0
0
0
0
0
0
0
0
0
0
0
0
0
0
0
0
0
0
0
0
0
0
0
0
0
0
0
0
0
0
0
0
0
0
0
0
0
0
0
0
0
0
0
0
0
0
0
0
0
0
0
0
0
0
0
0
0
0
0
0
0
0
0
0
0
0
0
0
0
0
0
0
0
0
0
0
0
0
0
0
0
0
0
0
0
0
0
0
0
0
0
0
0
0
0
0
0
0
0
0
0
0
0
0
0
0
0
0
0
0
0
0
0
0
0
0
0
0
0
0
0
0
0
0
0
0
0
0
0
0
0
0
0
0
0
0
0
0
0
0
0
0
0
0
0
0.000165622
8.1608e-05
0
0
0
0
0
0
0
0
0
0
0
0
0
0
0
0
0
0
0
0
0
0
0
0
0
0
0
0
0
0
0
0
0
0
0
0
0
0
0
0
0
0
0
0
0
0
0
0
0
0
0
0
0
0
0
0
0
0
0
0
0
0
0
0
0
0
0
0
0
0
0
0
0
0
0
0
0
0
0
0
0
0
0
0
0
0
0
0
0
0
0
0
0
0
0
0
0
0
0
0
0
0
0
0
0
0
0
0
0
0
0
0
0
0
0
0
0
0
0
0
0
0
0
0
0
0
0
0
0
0
0
0
0
0
0
0
0
0
0
0
0
0
0
0
0
0
0
0
0
0
0
0
0
0
0
0
0
0
0
0
0
0
0
0
0
0
0
0
0
0
0
0
0
0
0
0
0
0
0
0
0
0
0
0
0
0
0
0
0
0
0
0
0
0
0
0
0
0
0
0
0
0
0
0
0
0
0
0
0
0
0
0
0
0
0
0
0
0
0
0
0
0
0
0
0
0
0
0
0
0
0
0
0
0
0
0
0
0
0
0
0
0
0
0
0
0
0
0
0
0
0
0
0
0
0
0
0
0
0
0
0
0
0
0
0
0
0
0
0
0
0
0
0
0
0
0
0
0
0
0
0
0
0
0
0
0
0
0
0
0
0
0
0
0
0
0
0
0
0
0
0
0
0
0
0
0
0
0
0
0
0
0
0
0
0
0
0
0
0
0
0
0
0
0
0
0
0
0
0
0
0
0
0
0
0
0
0
0
0
0
0
0
0
0
0
0
0
0
0
0
0
0
0
0
0
0
0
0
0
0
0
0
0
0
0
0
0
0
0
0
0
0
0
0
0
0
0
0
0
0
0
0
0
0
0
0
0
0
0
0
0
0
0
0
0
0
0
0
0
0
0
0
0
0
0
0
0
0
0
0
0
0
0
0
0
0
0
0
0
0
0
0
0
0
0
0
0
0
0
0
0
0
0
0
0
0
0
0
0
0
0
0
0
0
0
0
0
0
0
0
0
0
0
0
0
0
0
0
0
0
0
0
0
0
0
0
0
0
0
0
0
0
0
0
0
0
0
0
0
0
0
0
0
0
0
0
0
0
0
0
0
0
0
0
0
0
0
0
0
0
0
0
0
0
0
0
0
0
0
0
0
0
0
0
0
0
0
0
0
0
0
0
0
0
0
0
0
0
0
0
0
0
0
0
0
0
0
0
0
0
0
0
0
0
0
0
0
0
0
0
0
0
0
0
0
0
0
0
0
0
0
0
0
0
0
0
0
0
0
0
0
0
0
0
0
0
0
0
0
0
0
0
0
0
0
0
0
0
0
0
0
0
0
0
0
0
0
0
0
0
0
0
0
0
0
0
0
0
0
0
0
0
0
0
0
0
0
0
0
0
0
0
0
0
0
0
0
0
0
0
0
0
0
0
0
0
0
0
0
0
0
0
0
0
0
0
0
0
0
0
0
0
0
0
0
0
0
0
0
0
0
0
0
0
0
0
0
0
0
0
0
0
0
0
0
0
0
0
0
0
0
0
0
0
0
0
0
0
0
0
0
0
0
0
0
0
0
0
0
0
0
0
0
0
0
0
0
0
0
0
0
0
0
0
0
0
0
0
0
0
0
0
0
0
0
0
0
0
0
0
0
0
0
0
0
0
0
0
0
0
0
0
0
0
0
0
0
0
0
0
0
0
0
0
0
0
0
0
0
0
0
0
0
0
0
0
0
0
0
0
0
0
0
0
0
0
0
0
0
0
0
0
0
0
0
0
0
0
0
0
0
0
0
0
0
0
0
0
0
0
0
0
0
0
0
0
0
0
0
0
0
0
0
0
0
0
0
0
0
0
0
0
0
0
0
0
0
0
0
0
0
0
0
0
0
0
0
0
0
0
0
0
0
0
0
0
0
0
0
0
0
0
0
0
0
0
0
0
0
0
0
0
0
0
0
0
0
0
0
0
0
0
0
0
0
0
0
0
0
0
0
0
0
0
0
0
0
0
0
0
0
0
0
0
0
0
0
0
0
0
0
0
0
0
0
0
0
0
0
0
0
0
0
0
0
0
0
0
0
0
0
0
0
0
0
0
0
0
0
0
0
0
0
0
0
0
0
0
0
0
0
0
0
0
0
0
0
0
0
0
0
0
0
0
0
0
0
0
0
0
0
0
0
0
0
0
0
0
0
0
0
0
0
0
0
0
0
0
0
0
0
0
0
0
0
0
0
0
0
0
0
0
0
0
0
0
0
0
0
0
0
0
0
0
0
0
0
0
0
0
0
0
0
0
0
0
0
0
0
0
0
0
0
0
0
0
0
0
0
0
0
0
0
0
0
0
0
0
0
0
0
0
0
0
0
0
0
0
0
0
0
0
0
0
0
0
0
0
0
0
0
0
0
0
0
0
0
0
0
0
0
0
0
0
0
0
0
0
0
0
0
0
0
0
0
0
0
0
0
0
0
0
0
0
0
0
0
0
0
0
0
0
0
0
0
0
0
0
0
0
0
0
0
0
0
0
0
0
0
0
0
0
0
0
0
0
0
0
0
0
0
0
0
0
0
0
0
0
0
0
0
0
0
0
0
0
0
0
0
0
0
0
0
0
0
0
0
0
0
0
0
0
0
0
0
0
0
0
0
0
0
0
0
0
0
0
0
0
0
0
0
0
0
0
0
0
0
0
0
0
0
0
0
0
0
0
0
0
0
0
0
0
0
0
0
0
0
0
0
0
0
0
0
0
0
0
0
0
0
0
0
0
0
0
0
0
0
0
0
0
0
0
0
0
0
0
0
0
0
0
0
0
0
0
0
0
0
0
0
0
0
0
0
0
0
0
0
0
0
0
0
0
0
0
0
0
0
0
0
0
0
0
0
0
0
0
0
0
0
0
0
0
0
0
0
0
0
0
0
0
0
0
0
0
0
0
0
0
0
0
0
0
0
0
0
0
0
0
0
0
0
0
0
0
0
0
0
0
0
0
0
0
0
0
0
0
0
0
0
0
0
0
0
0
0
0
0
0
0
0
0
0
0
0
0
0
0
0
0
0
0
0
0
0
0
0
0
0
0
0
0
0
0
0
0
0
0
0
0
0
0
0
0
0
0
0
0
0
0
0
0
0
0
0
0
0
0
0
0
0
0
0
0
0
0
0
0
0
0
0
0
0
0
0
0
0
0
0
0
0
0
0
0
0
0
0
0
0
0
0
0
0
0
0
0
0
0
0
0
0
0
0
0
0
0
0
0
0
0
0
0
0
0
0
0
0
0
0
0
0
0
0
0
0
0
0
0
0
0
0
0
0
0
0
0
0
0
0
0
0
0
0
0
0
0
0
0
0
0
0
0
0
0
0
0
0
0
0
0
0
0
0
0
0
0
0
0
0
0
0
0
0
0
0
0
0
0
0
0
0
0
0
0
0
0
0
0
0
0
0
0
0
0
0
0
0
0
0
0
0
0
0
0
0
0
0
0
0
0
0
0
0
0
0
0
0
0
0
0
0
0
0
0
0
0
0
0
0
0
0
0
0
0
0
0
0
0
0
0
0
0
0
0
0
0
0
0
0
0
0
0
0
0
0
0
0
0
0
0
0
0
0
0
0
0
0
0
0
0
0
0
0
0
0
0
0
0
0
0
0
0
0
0
0
0
0
0
0
0
0
0
0
0
0
0
0
0
0
0
0
0
0
0
0
0
0
0
0
0
0
0
0
0
0
0
0
0
0
0
0
0
0
0
0
0
0
0
0
0
0
0
0
0
0
0
0
0
0
0
0
0
0
0
0
0
0
0
0
0
0
0
0
0
0
0
0
0
0
0
0
0
0
0
0
0
0
0
0
0
0
0
0
0
0
0
0
0
0
0
0
0
0
0
0
0
0
0
0
0
0
0
0
0
0
0
0
0
0
0
0
0
0
0
0
0
0
0
0
0
0
0
0
0
0
0
0
0
0
0
0
0
0
0
0
0
0
0
0
0
0
0
0
0
0
0
0
0
0
0
0
0
0
0
0
0
0
0
0
0
0
0
0
0
0
0
0
0
0
0
0
0
0
0
0
0
0
0
0
0
0
0
0
0
0
0
0
0
0
0
0
0
0
0
0
0
0
0
0
0
0
0
0
0
0
0
0
0
0
0
0
0
0
0
0
0
0
0
0
0
0
0
0
0
0
0
0
0
0
0
0
0
0
0
0
0
0
0
0
0
0
0
0
0
0
0
0
0
0
0
0
0
0
0
0
0
0
0
0
0
0
0
0
0
0
0
0
0
0
0
0
0
0
0
0
0
0
0
0
0
0
0
0
0
0
0
0
0
0
0
0
0
0
0
0
0
0
0
0
0
0
0
0
0
0
0
0
0
0
0
0
0
0
0
0
0
0
0
0
0
0
0
0
0
0
0
0
0
0
0
0
0
0
0
0
0
0
0
0
0
0
0
0
0
0
0
0
0
0
0
0
0
0
0
0
0
0
0
0
0
0
0
0
0
0
0
0
0
0
0
0
0
0
0
0
0
0
0
0
0
0
0
0
0
0
0
0
0
0
0
0
0
0
0
0
0
0
0
0
0
0
0
0
0
0
0
0
0
0
0
0
0
0
0
0
0
0
0
0
0
0
0
0
0
0
0
0
0
0
0
0
0
0
0
0
0
0
0
0
0
0
0
0
0
0
0
0
0
0
0
0
0
0
0
0
0
0
0
0
0
0
0
0
0
0
0
0
0
0
0
0
0
0
0
0
0
0
0
0
0
0
0
0
0
0
0
0
0
0
0
0
0
0
0
0
0
0
0
0
0
0
0
0
0
0
0
0
0
0
0
0
0
0
0
0
0
0
0
0
0
0
0
0
0
0
0
0
0
0
0
0
0
0
0
0
0
0
0
0
0
0
0
0
0
0
0
0

SCALARS 2DELEM_Plastic_Strain_Lower float 1
LOOKUP_TABLE default
0
0
0
0
0
0
0
0
0
0
0
0
0
0
0
0
0
0
0
0
0
0
0
0
0
0
0
0
0
0
0
0
0
0
0
0
0
0
0
0
0
0
0
0
0
0
0
0
0
0
0
0
0
0
0
0
0
0
0
0
0
0
0
0
0
0
0
0
0
0
0
0
0
0
0
0
0
0
0
0
0
0
0
0
0
0
0
0
0
0
0
0
0
0
0
0
0
0
0
0
0
0
0
0
0
0
0
0
0
0
0
0
0
0
0
0
0
0
0
0
0
0
0
0
0
0
0
0
0
0
0
0
0
0
0
0
0
0
0
0
0
0
0
0
0
0
0
0
0
0
0
0
0
0
0
0
0
0
0
0
0
0
0
0
0
0
0
0
0
0
0
0
0
0
0
0
0
0
0
0
0
0
0
0
0
0
0
0
0
0
0
0
0
0
0
0
0
0
0
0
0
0
0
0
0
0
0
0
0
0
0
0
0
0
0
0
0
0
0
0
0
0
0
0
0
0
0
0
0
0
0
0
0
0
0
0
0
0
0
0
0
0
0
0
0
0
0
0
0
0
0
0
0
0
0
0
0
0
0
0
0
0
0
0
0
0
0
0
0
0
0
0
0
0
0
0
0
0
0
0
0
0
0
0
0
0
0
0
0
0
0
0
0
0
0
0
0
0
0
0
0
0
0
0
0
0
0
0
0
0
0
0
0
0
0
0
0
0
0
0
0
0
0
0
0
0
0
0
0
0
0
0
0
0
0
0
0
0
0
0
0
0
0
0
0
0
0
0
0
0
0
0
0
0
0
0
0
0
0
0
0
0
0
0
0
0
0
0
0
0
0
0
0
0
0
0
0
0
0
0
0
0
0
0
0
0
0
0
0
0
0
0
0
0
0
0
0
0
0
0
0
0
0
0
0
0
0
0
0
0
0
0
0
0
0
0
0
0
0
0
0
0
0
0
0
0
0
0
0
0
0
0
0
0
0
0
0
0
0
0
0
0
0
0
0
0
0
0
0
0
0
0
0
0
0
0
0
0
0
0
0
0
0
0
0
0
0
0
0
0
0
0
0
0
0
0
0
0
0
0
0
0
0
0
0
0
0
0
0
0
0
0
0
0
0
0
0
0
0
0
0
0
0
0
0
0
0
0
0
0
0
0
0
0
0
0
0
0
0
0
0
0
0
0
0
0
0
0
0
0
0
0
0
0
0
0
0
0
0
0
0
0
0
0
0
0
0
0
0
0
0
0
0
0
0
0
0
0
0
0
0
0
0
0
0
0
0
0
0
0
0
0
0
0
0
0
0
0
0
0
0
0
0
0
0
0
0
0
0
0
0
0
0
0
0
0
0
0
0
0
0
0
0
0
0
0
0
0
0
0
0
0
0
0
0
0
0
0
0
0
0
0
0
0
0
0
0
0
0
0
0
0
0
0
0
0
0
0
0
0
0
0
0
0
0
0
0
0
0
0
0
0
0
0
0
0
0
0
0
0
0
0
0
0
0
0
0
0
0
0
0
0
0
0
0
0
0
0
0
0
0
0
0
0
0
0
0
0
0
0
0
0
0
0
0
0
0
0
0
0
0
0
0
0
0
0
0
0
0
0
0
0
0
0
0
0
0
0
0
0
0
0
0
0
0
0
0
0
0
0
0
0
0
0
0
0
0
0
0
0
0
0
0
0
0
0
0
0
0
0
0
0
0
0
0
0
0
0
0
0
0
0
0
0
0
0
0
0
0
0
0
0
0
0
0
0
0
0
0
0
0
0
0
0
0
0
0
0
0
0
0
0
0
0
0
0
0
0
0
0
0
0
0
0
0
0
0
0
0
0
0
0
0
0
0
0
0
0
0
0
0
0
0
0
0
0
0
0
0
0
0
0
0
0
0
0
0
0
0
0
0
0
0
0
0
0
0
0
0
0
0
0
0
0
0
0
0
0
0
0
0
0
0
0
0
0
0
0
0
0
0
0
0
0
0
0
0
0
0
0
0
0
0
0
0
0
0
0
0
0
0
0
0
0
0
0
0
0
0
0
0
0
0
0
0
0
0
0
0
0
0
0
0
0
0
0
0
0
0
0
0
0
0
0
0
0
0
0
0
0
0
0
0
0
0
0
0
0
0
0
0
0
0
0
0
0
0
0
0
0
0
0
0
0
0
0
0
0
0
0
0
0
0
0
0
0
0
0
0
0
0
0
0
0
0
0
0
0
0
0
0
0
0
0
0
0
0
0
0
0
0
0
0
0
0
0
0
0
0
0
0
0
0
0
0
0
0
0
0
0
0
0
0
0
0
0
0
0
0
0
0
0
0
0
0
0
0
0
0
0
0
0
0
0
0
0
0
0
0
0
0
0
0
0
0
0
0
0
0
0
0
0
0
0
0
0
0
0
0
0
0
0
0
0
0
0
0
0
0
0
0
0
0
0
0
0
0
0
0
0
0
0
0
0
0
0
0
0
0
0
0
0
0
0
0
0
0
0
0
0
0
0
0
0
0
0
0
0
0
0
0
0
0
0
0
0
0
0
0
0
0
0
0
0
0
0
0
0
0
0
0
0
0
0
0
0
0
0
0
0
0
0
0
0
0
0
0
0
0
0
0
0
0
0
0
0
0
0
0
0
0
0
0
0
0
0
0
0
0
0
0
0
0
0
0
0
0
0
0
0
0
0
0
0
0
0
0
0
0
0
0
0
0
0
0
0
0
0
0
0
0
0
0
0
0
0
0
0
0
0
0
0
0
0
0
0
0
0
0
0
0
0
0
0
0
0
0
0
0
0
0
0
0
0
0
0
0
0
0
0
0
0
0
0
0
0
0
0
0
0
0
0
0
0
0
0
0
0
0
0
0
0
0
0
0
0
0
0
0
0
0
0
0
0
0
0
0
0
0
0
0
0
0
0
0
0
0
0
0
0
0
0
0
0
0
0
0
0
0
0
0
0
0
0
0
0
0
0
0
0
0
0
0
0
0
0
0
0
0
0
0
0
0
0
0
0
0
0
0
0
0
0
0
0
0
0
0
0
0
0
0
0
0
0
0
0
0
0
0
0
0
0
0
0
0
0
0
0
0
0
0
0
0
0
0
0
0
0
0
0
0
0
0
0
0
0
0
0
0
0
0
0
0
0
0
0
0
0
0
0
0
0
0
0
0
0
0
0
0
0
0
0
0
0
0
0
0
0
0
0
0
0
0
0
0
0
0
0
0
0
0
0
0
0
0
0
0
0
0
0
0
0
0
0
0
0
0
0
0
0
0
0
0
0
0
0
0
0
0
0
0
0
0
0
0
0
0
0
0
0
0
0
0
0
0
0
0
0
0
0
0
0
0
0
0
0
0
0
0
0
0
0
0
0
0
0
0
0
0
0
0
0
0
0
0
0
0
0
0
0
0
0
0
0
0
0
0
0
0
0
0
0
0
0
0
0
0
0
0
0
0
0
0
0
0
0
0
0
0
0
0
0
0
0
0
0
0
0
0
0
0
0
0
0
0
0
0
0
0
0
0
0
0
0
0
0
0
0
0
0
0
0
0
0
0
0
0
0
0
0
0
0
0
0
0
0
0
0
0
0
0
0
0
0
0
0
0
0
0
0
0
0
0
0
0
0
0
0
0
0
0
0
0
0
0
0
0
0
0
0
0
0
0
0
0
0
0
0
0
0
0
0
0
0
0
0
0
0
0
0
0
0
0
0
0
0
0
0
0
0
0
0
0
0
0
0
0
0
0
0
0
0
0
0
0
0
0
0
0
0
0
0
0
0
0
0
0
0
0
0
0
0
0
0
0
0
0
0
0
0
0
0
0
0
0
0
0
0
0
0
0
0
0
0
0
0
0
0
0
0
0
0
0
0
0
0
0
0
0
0
0
0
0
0
0
0
0
0
0
0
0
0
0
0
0
0
0
0
0
0
0
0
0
0
0
0
0
0
0
0
0
0
0
0
0
0
0
0
0
0
0
0
0
0
0
0
0
0
0
0
0
0
0
0
0
0
0
0
0
0
0
0
0
0
0
0
0
0
0
0
0
0
0
0
0
0
0
0
0
0
0
0
0
0
0
0
0
0
0
0
0
0
0
0
0
0
0
0
0
0
0
0
0
0
0
0
0
0
0
0
0
0
0
0
0
0
0
0
0
0
0
0
0
0
0
0
0
0
0
0
0
0
0
0
0
0
0
0
0
0
0
0
0
0
0
0
0
0
0
0
0
0
0
0
0
0
0
0
0
0
0
0
0
0
0
0
0
0
0
0
0
0
0
0
0
0
0
0
0
0
0
0
0
0
0
0
0
0
0
0
0
0
0
0
0
0
0
0
0
0
0
0
0
0
0
0
0
0
0
0
0
0
0
0
0
0
0
0
0
0
0
0
0
0
0
0
0
0
0
0
0
0
0
0
0
0
0
0
0
0
0
0
0
0
0
0
0
0
0
0
0
0
0
0
0
0
0
0
0
0
0
0
0
0
0
0
0
0
0
0
0
0
0
0
0
0
0
0
0
0
0
0
0
0
0
0
0
0
0
0
0
0
0
0
0
0
0
0
0
0
0
0
0
0
0
0
0
0
0
0
0
0
0
0
0
0
0
0
0
0
0
0
0
0
0
0
0
0.00170872
0.00168638
0
0
0
0
0
0
0
0
0
0
0
0
0
0
0
0
0
0
0
0
0
0
0
0
0
0
0
0
0
0
0
0
0
0
0
0
0
0
0
0
0
0
0
0
0
0
0
0
0
0
0
0
0
0
0
0
0
0
0
0
0
0
0
0
0
0
0
0
0
0
0
0
0
0
0
0
0
0
0
0
0
0
0
0
0
0
0
0
0.00210918
0.00184087
0
0
0
0
0
0
0
0
0
0
0
0
0
0
0
0
0
0
0
0
0
0
0
0
0
0
0
0
0
0
0
0
0
0
0
0
0
0
0
0
0
0
0
0
0
0
0
0
0
0
0
0
0
0
0
0
0
0
0
0
0
0
0
0
0
0
0
0
0
0
0
0
0
0
0
0
0
0
0
0
0
0
0
0
0
0
0
0
0
0.00256968
0.00226983
0
0
0
0
0
0
0
0
0
0
0
0
0
0
0
0
0
0
0
0
0
0
0
0
0
0
0
0
0
0
0
0
0
0
0
0
0
0
0
0
0
0
0
0
0
0
0
0
0
0
0
0
0
0
0
0
0
0
0
0
0
0
0
0
0
0
0
0
0
0
0
0
0
0
0
0
0
0
0
0
0
0
0
0
0
0
0
0
0
0
0
0.000187957
0.00453683
0.00448106
7.0382e-05
0
0
0
0
0
0
0
0
0
0
0
0
0
0
0
0
0
0
0
0
0
0
0
0
0
0
0
0
0
0
0
0
0
0
0
0
0
0
0
0
0
0
0
0
0
0
0
0
0
0
0
0
0
0
0
0
0
0
0
0
0
0
0
0
0
0
0
0
0
0
0
0
0
0
0
0
0
0
0
0
0
0
0
0
0
0
0
0
0
0
0
0
0
0.000439532
0.000145097
0
0
0
0
0
0
0
0
0
0
0
0
0
0
0
0
0
0
0
0
0
0
0
0
0
0
0
0
0
0
0
0
0
0
0
0
0
0
0
0
0
0
0
0
0
0
0
0
0
0
0
0
0
0
0
0
0
0
0
0
0
0
0
0
0
0
0
0
0
0
0
0
0
0
0
0
0
0
0
0
0
0
0
0
0
0
0
0
0
0
0
0
0
0
0
0
0
0
0
0
0
0
0
0
0
0
0
0
0
0
0
0
0
0
0
0
0
0
0
0
0
0
0
0
0
0
0
0
0
0
0
0
0
0
0
0
0
0
0
0
0
0
0
0
0
0
0
0
0
0
0
0
0
0
0
0
0
0
0
0
0
0
0
0
0
0
0
0
0
0
0
0
0
0
0
0
0
0
0
0
0
0
0
0
0
0
0
0
0
0
0
0
0
0
0
0
0
0
0
0
0
0
0
0
0
0
0
0
0
0
0
0
0
0
0
0
0
0
0
0
0
0
0
0
0
0
0
0
0
0
0
0
0
0
0
0
0
0
0
0
0
0
0
0
0
0
0
0
0
0
0
0
0
0
0
0
0
0
0
0
0
0
0
0
0
0
0
0
0
0
0
0
0
0
0
0
0
0
0
0
0
0
0
0
0
0
0
0
0
0
0
0
0
0
0
0
0.000458657
0.000471814
0
0
0
0
0
0
0
0
0
0
0
0
0
0
0
0
0
0
0
0
0
0
0
0
0
0
0
0
0
0
0
0
0
0
0
0
0
0
0
0
0
0
0
0
0
0
0
0
0
0
0
0
0
0
0
0
0
0
0
0
0
0
0
0
0
0
0
0
0
0
0
0
0
0
0
0
0
0
0
0
0
0
0
0
0
0
0
0
0
0
0
0
0
0
0
0
0
0
0
0
0
0
0.000654361
0.000248771
0
0
0
0
0
0
0
0
0
0
0
0
0
0
0
0
0
0
0
0
0
0
0
0
0
0
0
0
0
0
0
0
0
0
0
0
0
0
0
0
0
0
0
0
0
0
0
0
0
0
0
0
0
0
0
0
0
0
0
0
0
0
0
0
0
0
0
0
0
0
0
0
0
0
0
0
0
0
0
0
0
0
0
0
0
0
0
0
0
0
0
0
0
0
0
0
0
0
0
0
0
0
0
0
0.00169284
0.000898525
0
0
0
0
0
0
0
0
0
0
0
0
0
0
0
0
0
0
0
0
0
0
0
0
0
0
0
0
0
0
0
0
0
0
0
0
0
0
0
0
0
0
0
0
0
0
0
0
0
0
0
0
0
0
0
0
0
0
0
0
0
0
0
0
0
0
0
0
0
0
0
0
0
0
0
0
0
0
0
0
0
0
0
0
0
0
0
0
0
0
0
0
0
0
0
0
0
0
0
0
0
0
0
0
0
0
0.00239976
0.00232936
0
0
0
0
0
0
0
0
0
0
0
0
0
0
0
0
0
0
0
0
0
0
0
0
0
0
0
0
0
0
0
0
0
0
0
0
0
0
0
0
0
0
0
0
0
0
0
0
0
0
0
0
0
0
0
0
0
0
0
0
0
0
0
0
0
0
0
0
0
0
0
0
0
0
0
0
0
0
0
0
0
0
0
0
0
0
0
0
0
0
0
0
0
0
0
0
0
0
0
0
0
0
0
0
0
0
0
4.85258e-05
0.00339508
0.00300219
0
0
0
0
0
0
0
0
0
0
0
0
0
0
0
0
0
0
0
0
0
0
0
0
0
0
0
0
0
0
0
0
0
0
0
0
0
0
0
0
0
0
0
0
0
0
0
0
0
0
0
0
0
0
0
0
0
0
0
0
0
0
0
0
0
0
0
0
0
0
0
0
0
0
0
0
0
0
0
0
0
0
0
0
0
0
0
0
0
0
0
0
0
0
0
0
0
0
0
0
0
0
0
0
0
0
0
0
0
0.00121824
0.00747393
0.00676881
0.00109381
0
0
0
0
0
0
0
0
0
0
0
0
0
0
0
0
0
0
0
0
0
0
0
0
0
0
0
0
0
0
0
0
0
0
0
0
0
0
0
0
0
0
0
0
0
0
0
0
0
0
0
0
0
0
0
0
0
0
0
0
0
0
0
0
0
0
0
0
0
0
0
0
0
0
0
0
0
0
0
0
0
0
0
0
0
0
0
0
0
0
0
0
0
0
0
0
0
0
0
0
0
0
0
0
0
0
0
0
0
0
0.000748603
0.00242388
0.000961602
0
0
0
0
0
0
0
0
0
0
0
0
0
0
0
0
0
0
0
0
0
0
0
0
0
0
0
0
0
0
0
0
0
0
0
0
0
0
0
0
0
0
0
0
0
0
0
0
0
0
0
0
0
0
0
0
0
0
0
0
0
0
0
0
0
0
0
0
0
0
0
0
0
0
0
0
0
0
0
0
0
0
0
0
0
0
0
0
0
0
0
0
0
0
0
0
0
0
0
0
0
0
0
0
0
0
0
0
0
0
0
0
0.00151928
0.00718811
0.00567624
0.000426688
0
0
0
0
0
0
0
0
0
0
0
0
0
0
0
0
0
0
0
0
0
0
0
0
0
0
0
0
0
0
0
0
0
0
0
0
0
0
0
0
0
0
0
0
0
0
0
0
0
0
0
0
0
0
0
0
0
0
0
0
0
0
0
0
0
0
0
0
0
0
0
0
0
0
0
0
0
0
0
0
0
0
0
0
0
0
0
0
0
0
0
0
0
0
0
0
0
0
0
0
0
0
0
0
0
0
0
0
0
0
0
0
0
0
0.00275772
0.0106881
0.00742961
0.00146873
0
0
0
0
0
0
0
0
0
0
0
0
0
0
0
0
0
0
0
0
0
0
0
0
0
0
0
0
0
0
0
0
0
0
0
0
0
0
0
0
0
0
0
0
0
0
0
0
0
0
0
0
0
0
0
0
0
0
0
0
0
0
0
0
0
0
0
0
0
0
0
0
0
0
0
0
0
0
0
0
0
0
0
0
0
0
0
0
0
0
0
0
0
0
0
0
0
0
0
0
0
0
0
0
0
0
0
0
0
0
0
0
0
0
0
0
0.00146797
0.00368934
0.00250664
0
0
0
0
0
0
0
0
0
0
0
0
0
0
0
0
0
0
0
0
0
0
0
0
0
0
0
0
0
0
0
0
0
0
0
0
0
0
0
0
0
0
0
0
0
0
0
0
0
0
0
0
0
0
0
0
0
0
0
0
0
0
0
0
0
0
0
0
0
0
0
0
0
0
0
0
0
0
0
0
0
0
0
0
0
0
0
0
0
0
0
0
0
0
0
0
0
0
0
0
0
0
0
0
0
0
0
0
0
0
0
0
0
0
0
0
0
0
0
0
0.00183139
0.00175909
0
0
0
0
0
0
0
0
0
0
0
0
0
0
0
0
0
0
0
0
0
0
0
0
0
0
0
0
0
0
0
0
0
0
0
0
0
0
0
0
0
0
0
0
0
0
0
0
0
0
0
0
0
0
0
0
0
0
0
0
0
0
0
0
0
0
0
0
0
0
0
0
0
0
0
0
0
0
0
0
0
0
0
0
0
0
0
0
0
0
0
0
0
0
0
0
0
0
0
0
0
0
0
0
0
0
0
0
0
0
0
0
0
0
0
0
0
0
0
0
0
0
0.000292041
0.000493769
0.000530468
0
0
0
0
0
0
0
0
0
0
0
0
0
0
0
0
0
0
0
0
0
0
0
0
0
0
0
0
0
0
0
0
0
0
0
0
0
0
0
0
0
0
0
0
0
0
0
0
0
0
0
0
0
0
0
0
0
0
0
0
0
0
0
0
0
0
0
0
0
0
0
0
0
0
0
0
0
0
0
0
0
0
0
0
0
0
0
0
0
0
0
0
0
0
0
0
0
0
0
0
0
0
0
0
0
0
0
0
0
0
0
0
0
0
0
0
0
0
0
0
0
0
0
0
0.00353472
0.00575169
0.000521671
0
0
0
0
0
0
0
0
0
0
0
0
0
0
0
0
0
0
0
0
0
0
0
0
0
0
0
0
0
0
0
0
0
0
0
0
0
0
0
0
0
0
0
0
0
0
0
0
0
0
0
0
0
0
0
0
0
0
0
0
0
0
0
0
0
0
0
0
0
0
0
0
0
0
0
0
0
0
0
0
0
0
0
0
0
0
0
0
0
0
0
0
0
0
0
0
0
0
0
0
0
0
0
0
0
0
0
0
0
0
0
0
0
0
0
0
0
0
0
0
0
0
0
0
0.000177475
0.00417977
0.00788595
0.00169683
0
0
0
0
0
0
0
0
0
0
0
0
0
0
0
0
0
0
0
0
0
0
0
0
0
0
0
0
0
0
0
0
0
0
0
0
0
0
0
0
0
0
0
0
0
0
0
0
0
0
0
0
0
0
0
0
0
0
0
0
0
0
0
0
0
0
0
0
0
0
0
0
0
0
0
0
0
0
0
0
0
0
0
0
0
0
0
0
0
0
0
0
0
0
0
0
0
0
0
0
0
0
0
0
0
0
0
0
0
0
0
0
0
0
0
0
0
0
0
0
0
0
0
0
0
0
0
0.00123823
0.00339132
0.000557177
0
0
0
0
0
0
0
0
0
0
0
0
0
0
0
0
0
0
0
0
0
0
0
0
0
0
0
0
0
0
0
0
0
0
0
0
0
0
0
0
0
0
0
0
0
0
0
0
0
0
0
0
0
0
0
0
0
0
0
0
0
0
0
0
0
0
0
0
0
0
0
0
0
0
0
0
0
0
0
0
0
0
0
0
0
0
0
0
0
0
0
0
0
0
0
0
0
0
0
0
0
0
0
0
0
0
0
0
0
0
0
0
0
0
0
0
0
0
0
0
0
0
0
0
0
0
0
0
0
0.00206592
0.00247381
0
0
0
0
0
0
0
0
0
0
0
0
0
0
0
0
0
0
0
0
0
0
0
0
0
0
0
0
0
0
0
0
0
0
0
0
0
0
0
0
0
0
0
0
0
0
0
0
0
0
0
0
0
0
0
0
0
0
0
0
0
0
0
0
0
0
0
0
0
0
0
0
0
0
0
0
0
0
0
0
0
0
0
0
0
0
0
0
0
0
0
0
0
0
0
0
0
0
0
0
0
0
0
0
0
0
0
0
0
0
0
0
0
0
0
0
0
0
0
0
0
0
0
0
0
0
0
0
0
0
0
0
0.00237596
0.00302936
0.000649641
0
0
0
0
0
0
0
0
0
0
0
0
0
0
0
0
0
0
0
0
0
0
0
0
0
0
0
0
0
0
0
0
0
0
0
0
0
0
0
0
0
0
0
0
0
0
0
0
0
0
0
0
0
0
0
0
0
0
0
0
0
0
0
0
0
0
0
0
0
0
0
0
0
0
0
0
0
0
0
0
0
0
0
0
0
0
0
0
0
0
0
0
0
0
0
0
0
0
0
0
0
0
0
0
0
0
0
0
0
0
0
0
0
0
0
0
0
0
0
0
0
0
0
0
0
0
0
0
0
0
0
0
0
0.00180189
0.0059895
0.00739598
0.00156707
8.0782e-06
0
0
0
0
0
0
0
0
0
0
0
0
0
0
0
0
0
0
0
0
0
0
0
0
0
0
0
0
0
0
0
0
0
0
0
0
0
0
0
0
0
0
0
0
0
0
0
0
0
0
0
0
0
0
0
0
0
0
0
0
0
0
0
0
0
0
0
0
0
0
0
0
0
0
0
0
0
0
0
0
0
0
0
0
0
0
0
0
0
0
0
0
0
0
0
0
0
0
0
0
0
0
0
0
0
0
0
0
0
0
0
0
0
0
0
0
0
0
0
0
0
0
0
0
0
0
0
0
0
0
0
0
0
0.00038847
0.00796229
0.0124196
0.00323921
0.000132659
0
0
0
0
0
0
0
0
0
0
0
0
0
0
0
0
0
0
0
0
0
0
0
0
0
0
0
0
0
0
0
0
0
0
0
0
0
0
0
0
0
0
0
0
0
0
0
0
0
0
0
0
0
0
0
0
0
0
0
0
0
0
0
0
0
0
0
0
0
0
0
0
0
0
0
0
0
0
0
0
0
0
0
0
0
0
0
0
0
0
0
0
0
0
0
0
0
0
0
0
0
0
0
0
0
0
0
0
0
0
0
0
0
0
0
0
0
0
0
0
0
0
0
0
0
0
0
0
0
0
0
0
0
0
0
0
0.00206501
0.00538297
0.00340814
0.000109409
0
0
0
0
0
0
0
0
0
0
0
0
0
0
0
0
0
0
0
0
0
0
0
0
0
0
0
0
0
0
0
0
0
0
0
0
0
0
0
0
0
0
0
0
0
0
0
0
0
0
0
0
0
0
0
0
0
0
0
0
0
0
0
0
0
0
0
0
0
0
0
0
0
0
0
0
0
0
0
0
0
0
0
0
0
0
0
0
0
0
0
0
0
0
0
0
0
0
0
0
0
0
0
0
0
0
0
0
0
0
0
0
0
0
0
0
0
0
0
0
0
0
0
0
0
0
0
0
0
0
0
0
0
0
0
0
0
0
0.0024557
0.0101117
0.0088228
0.00327689
0.000637342
0
0
0
0
0
0
0
0
0
0
0
0
0
0
0
0
0
0
0
0
0
0
0
0
0
0
0
0
0
0
0
0
0
0
0
0
0
0
0
0
0
0
0
0
0
0
0
0
0
0
0
0
0
0
0
0
0
0
0
0
0
0
0
0
0
0
0
0
0
0
0
0
0
0
0
0
0
0
0
0
0
0
0
0
0
0
0
0
0
0
0
0
0
0
0
0
0
0
0
0
0
0
0
0
0
0
0
0
0
0
0
0
0
0
0
0
0
0
0
0
0
0
0
0
0
0
0
0
0
0
0
0
0
0
0
0
0
0
0.000227068
0.00223131
0.0131836
0.0171808
0.00599427
0.000386919
0
0
0
0
0
0
0
0
0
0
0
0
0
0
0
0
0
0
0
0
0
0
0
0
0
0
0
0
0
0
0
0
0
0
0
0
0
0
0
0
0
0
0
0
0
0
0
0
0
0
0
0
0
0
0
0
0
0
0
0
0
0
0
0
0
0
0
0
0
0
0
0
0
0
0
0
0
0
0
0
0
0
0
0
0
0
0
0
0
0
0
0
0
0
0
0
0
0
0
0
0
0
0
0
0
0
0
0
0
0
0
0
0
0
0
0
0
0
0
0
0
0
0
0
0
0
0
0
0
0
0
0
0
0
0
0
0
0
0
0
0
0.000428112
0.00447992
0.00626337
0.00372833
0
0
0
0
0
0
0
0
0
0
0
0
0
0
0
0
0
0
0
0
0
0
0
0
0
0
0
0
0
0
0
0
0
0
0
0
0
0
0
0
0
0
0
0
0
0
0
0
0
0
0
0
0
0
0
0
0
0
0
0
0
0
0
0
0
0
0
0
0
0
0
0
0
0
0
0
0
0
0
0
0
0
0
0
0
0
0
0
0
0
0
0
0
0
0
0
0
0
0
0
0
0
0
0
0
0
0
0
0
0
0
0
0
0
0
0
0
0
0
0
0
0
0
0
0
0
0
0
0
0
0
0
0
0
0
0
0
0
0
0
0
0
0
0
5.44307e-05
0.00146071
0.00143118
0.00010635
0
0
0
0
0
0
0
0
0
0
0
0
0
0
0
0
0
0
0
0
0
0
0
0
0
0
0
0
0
0
0
0
0
0
0
0
0
0
0
0
0
0
0
0
0
0
0
0
0
0
0
0
0
0
0
0
0
0
0
0
0
0
0
0
0
0
0
0
0
0
0
0
0
0
0
0
0
0
0
0
0
0
0
0
0
0
0
0
0
0
0
0
0
0
0
0
0
0
0
0
0
0
0
0
0
0
0
0
0
0
0
0
0
0
0
0
0
0
0
0
0
0
0
0
0
0
0
0
0
0
0
0
0
0
0
0
0
0
0
0
0
0
0
0
0
0
0
0
0
0.00260517
0.00388876
0
0
0
0
0
0
0
0
0
0
0
0
0
0
0
0
0
0
0
0
0
0
0
0
0
0
0
0
0
0
0
0
0
0
0
0
0
0
0
0
0
0
0
0
0
0
0
0
0
0
0
0
0
0
0
0
0
0
0
0
0
0
0
0
0
0
0
0
0
0
0
0
0
0
0
0
0
0
0
0
0
0
0
0
0
0
0
0
0
0
0
0
0
0
0
0
0
0
0
0
0
0
0
0
0
0
0
0
0
0
0
0
0
0
0
0
0
0
0
0
0
0
0
0
0
0
0
0
0
0
0
0
0
0
0
0
0
0
0
0
0
0
0
0
0
0
0
0
0
0
0.00208004
0.00428756
0
0
0
0
0
0
0
0
0
0
0
0
0
0
0
0
0
0
0
0
0
0
0
0
0
0
0
0
0
0
0
0
0
0
0
0
0
0
0
0
0
0
0
0
0
0
0
0
0
0
0
0
0
0
0
0
0
0
0
0
0
0
0
0
0
0
0
0
0
0
0
0
0
0
0
0
0
0
0
0
0
0
0
0
0
0
0
0
0
0
0
0
0
0
0
0
0
0
0
0
0
0
0
0
0
0
0
0
0
0
0
0
0
0
0
0
0
0
0
0
0
0
0
0
0
0
0
0
0
0
0
0
0
0
0
0
0
0
0
0
0
0
0
0
0
0
0
0
0
0
0
0
0
0.0046556
0.00503652
0
0
0
0
0
0
0
0
0
0
0
0
0
0
0
0
0
0
0
0
0
0
0
0
0
0
0
0
0
0
0
0
0
0
0
0
0
0
0
0
0
0
0
0
0
0
0
0
0
0
0
0
0
0
0
0
0
0
0
0
0
0
0
0
0
0
0
0
0
0
0
0
0
0
0
0
0
0
0
0
0
0
0
0
0
0
0
0
0
0
0
0
0
0
0
0
0
0
0
0
0
0
0
0
0
0
0
0
0
0
0
0
0
0
0
0
0
0
0
0
0
0
0
0
0
0
0
0
0
0
0
0
0
0
0
0
0
0
0
0
0
0
0
0
0
0
0
0
0
0
0
0
0
0
0.00271778
0.00662736
0.00382554
0
0
0
0
0
0
0
0
0
0
0
0
0
0
0
0
0
0
0
0
0
0
0
0
0
0
0
0
0
0
0
0
0
0
0
0
0
0
0
0
0
0
0
0
0
0
0
0
0
0
0
0
0
0
0
0
0
0
0
0
0
0
0
0
0
0
0
0
0
0
0
0
0
0
0
0
0
0
0
0
0
0
0
0
0
0
0
0
0
0
0
0
0
0
0
0
0
0
0
0
0
0
0
0
0
0
0
0
0
0
0
0
0
0
0
0
0
0
0
0
0
0
0
0
0
0
0
0
0
0
0
0
0
0
0
0
0
0
0
0
0
0
0
0
0
0
0
0
0
0
0
0
0
0
0
0
0.00763354
0.00841763
0.00206502
0
0
0
0
0
0
0
0
0
0
0
0
0
0
0
0
0
0
0
0
0
0
0
0
0
0
0
0
0
0
0
0
0
0
0
0
0
0
0
0
0
0
0
0
0
0
0
0
0
0
0
0
0
0
0
0
0
0
0
0
0
0
0
0
0
0
0
0
0
0
0
0
0
0
0
0
0
0
0
0
0
0
0
0
0
0
0
0
0
0
0
0
0
0
0
0
0
0
0
0
0
0
0
0
0
0
0
0
0
0
0
0
0
0
0
0
0
0
0
0
0
0
0
0
0
0
0
0
0
0
0
0
0
0
0
0
0
0
0
0
0
0
0
0
0
0
0
0
0
0
0
0
0
0
0
0
0
0.00416541
0.00824666
0.00577308
0.00196477
0
0
0
0
0
0
0
0
0
0
0
0
0
0
0
0
0
0
0
0
0
0
0
0
0
0
0
0
0
0
0
0
0
0
0
0
0
0
0
0
0
0
0
0
0
0
0
0
0
0
0
0
0
0
0
0
0
0
0
0
0
0
0
0
0
0
0
0
0
0
0
0
0
0
0
0
0
0
0
0
0
0
0
0
0
0
0
0
0
0
0
0
0
0
0
0
0
0
0
0
0
0
0
0
0
0
0
0
0
0
0
0
0
0
0
0
0
0
0
0
0
0
0
0
0
0
0
0
0
0
0
0
0
0
0
0
0
0
0
0
0
0
0
0
0
0
0
0
0
0
0
0
0
0
0
0
0
0
0
0.00477161
0.00915141
0.00649388
3.75159e-05
0
0
0
0
0
0
0
0
0
0
0
0
0
0
0
0
0
0
0
0
0
0
0
0
0
0
0
0
0
0
0
0
0
0
0
0
0
0
0
0
0
0
0
0
0
0
0
0
0
0
0
0
0
0
0
0
0
0
0
0
0
0
0
0
0
0
0
0
0
0
0
0
0
0
0
0
0
0
0
0
0
0
0
0
0
0
0
0
0
0
0
0
0
0
0
0
0
0
0
0
0
0
0
0
0
0
0
0
0
0
0
0
0
0
0
0
0
0
0
0
0
0
0
0
0
0
0
0
0
0
0
0
0
0
0
0
0
0
0
0
0
0
0
0
0
0
0
0
0
0
0
0
0
0
0
0
0
0
0
0
0
0.00480813
0.00811053
0.00413415
0.00183623
0
0
0
0
0
0
0
0
0
0
0
0
0
0
0
0
0
0
0
0
0
0
0
0
0
0
0
0
0
0
0
0
0
0
0
0
0
0
0
0
0
0
0
0
0
0
0
0
0
0
0
0
0
0
0
0
0
0
0
0
0
0
0
0
0
0
0
0
0
0
0
0
0
0
0
0
0
0
0
0
0
0
0
0
0
0
0
0
0
0
0
0
0
0
0
0
0
0
0
0
0
0
0
0
0
0
0
0
0
0
0
0
0
0
0
0
0
0
0
0
0
0
0
0
0
0
0
0
0
0
0
0
0
0
0
0
0
0
0
0
0
0
0
0
0
0
0
0
0
0
0
0
0
0
0
0
0
0
0
0
0
0
0.000535413
0.00310419
0.00345046
0.00223315
0.0018996
0
0
0
0
0
0
0
0
0
0
0
0
0
0
0
0
0
0
0
0
0
0
0
0
0
0
0
0
0
0
0
0
0
0
0
0
0
0
0
0
0
0
0
0
0
0
0
0
0
0
0
0
0
0
0
0
0
0
0
0
0
0
0
0
0
0
0
0
0
0
0
0
0
0
0
0
0
0
0
0
0
0
0
0
0
0
0
0
0
0
0
0
0
0
0
0
0
0
0
0
0
0
0
0
0
0
0
0
0
0
0
0
0
0
0
0
0
0
0
0
0
0
0
0
0
0
0
0
0
0
0
0
0
0
0
0
0
0
0
0
0
0
0
0
0
0
0
0
0
0
0
0
0
0
0
0
0
0
0
0
0
0
0
0
0.00015651
0.000426912
0.00249594
0.00230695
0
0
0
0
0
0
0
0
0
0
0
0
0
0
0
0
0
0
0
0
0
0
0
0
0
0
0
0
0
0
0
0
0
0
0
0
0
0
0
0
0
0
0
0
0
0
0
0
0
0
0
0
0
0
0
0
0
0
0
0
0
0
0
0
0
0
0
0
0
0
0
0
0
0
0
0
0
0
0
0
0
0
0
0
0
0
0
0
0
0
0
0
0
0
0
0
0
0
0
0
0
0
0
0
0
0
0
0
0
0
0
0
0
0
0
0
0
0
0
0
0
0
0
0
0
0
0
0
0
0
0
0
0
0
0
0
0
0
0
0
0
0
0
0
0
0
0
0
0
0
0
0
0
0
0
0
0
0
0
0
0
0
0
0
0
0
0
0
0
0.000599353
7.55285e-05
0
0
0
0
0
0
0
0
0
0
0
0
0
0
0
0
0
0
0
0
0
0
0
0
0
0
0
0
0
0
0
0
0
0
0
0
0
0
0
0
0
0
0
0
0
0
0
0
0
0
0
0
0
0
0
0
0
0
0
0
0
0
0
0
0
0
0
0
0
0
0
0
0
0
0
0
0
0
0
0
0
0
0
0
0
0
0
0
0
0
0
0
0
0
0
0
0
0
0
0
0
0
0
0
0
0
0
0
0
0
0
0
0
0
0
0
0
0
0
0
0
0
0
0
0
0
0
0
0
0
0
0
0
0
0
0
0
0
0
0
0
0
0
0
0
0
0
0
0
0
0
0
0
0
0
0
0
0
0
0
0
0
0
0
0
0
0.000157216
5.18726e-05
0
0
0
0
0
0
0
0
0
0
0
0
0
0
0
0
0
0
0
0
0
0
0
0
0
0
0
0
0
0
0
0
0
0
0
0
0
0
0
0
0
0
0
0
0
0
0
0
0
0
0
0
0
0
0
0
0
0
0
0
0
0
0
0
0
0
0
0
0
0
0
0
0
0
0
0
0
0
0
0
0
0
0
0
0
0
0
0
0
0
0
0
0
0
0
0
0
0
0
0
0
0
0
0
0
0
0
0
0
0
0
0
0
0
0
0
0
0
0
0
0
0
0
0
0
0
0
0
0
0
0
0
0
0
0
0
0
0
0
0
0
0
0
0
0
0
0
0
0
0
0
0
0
0
0
0
0
0
0
0
0
0
0
0
0
0
0
0
0
0
0
0
0
0
0
0
0
0
0
0
0
0
0
0
0
0
0
0
0
0
0
0
0
0
0
0
0
0
0
0
0
0
0
0
0
0
0
0
0
0
0
0
0
0
0
0
0
0
0
0
0
0
0
0
0
0
0
0
0
0
0
0
0
0
0
0
0
0
0
0
0
0
0
0
0
0
0
0
0
0
0
0
0
0
0
0
0
0
0
0
0
0
0
0
0
0
0
0
0
0
0
0
0
0
0
0
0
0
0
0
0
0
0
0
0
0
0
0
0
0
0
0
0
0
0
0
0
0
0
0
0
0
0
0
0
0
0
0
0
0
0
0
0
0
0
0
0
0
0
0
0
0
0
0
0
0
0
0
0
0
0
0
0
0
0
0
0
0
0
0
0
0
0
0
0
0
0
0
0
0
0
0
0
0
0
0
0
0
0
0
0
0
0
0
0
0
0
0
0
0
0
0
0
0
0
0
0
0
0
0
0
0
0
0
0
0
0
0
0
0
0
0
0
0
0
0
0
0
0
0
0
0
0
0
0
0
0
0
0
0
0
0
0
0
0
0
0
0
0
0
0
0
0
0
0
0
0
0
0
0
0
0
0
0
0
0
0
0
0
0
0
0
0
0
0
0
0
0
0
0
0
0
0
0
0
0
0
0
0
0
0
0
0
0
0
0
0
0
0
0
0
0
0
0
0
0
0
0
0
0
0
0
0
0
0
0
0
0
0
0
0
0
0
0
0
0
0
0
0
0
0
0
0
0
0
0
0
0
0
0
0
0
0
0
0
0
0
0
0
0
0
0
0
0
0
0
0
0
0
0
0
0
0
0
0
0
0
0
0
0
0
0
0
0
0
0
0
0
0
0
0
0
0
0
0
0
0
0
0
0
0
0
0
0
0
0
0
0
0
0
0
0
0
0
0
0
0
0
0
0
0
0
0
0
0
0
0
0
0
0
0
0
0
0
0
0
0
0
0
0
0
0
0
0
0
0
0
0
0
0
0
0
0
0
0
0
0
0
0
0
0
0
0
0
0
0
0
0
0
0
0
0
0
0
0
0
0
0
0
0
0
0
0
0
0
0
0
0
0
0
0
0
0
0
0
0
0
0
0
0
0
0
0
0
0
0
0
0
0
0
0
0
0
0
0
0
0
0
0
0
0
0
0
0
0
0
0
0
0
0
0
0
0
0
0
0
0
0
0
0
0
0
0
0
0
0
0
0
0
0
0
0
0
0
0
0
0
0
0
0
0
0
0
0
0
0
0
0
0
0
0
0
0
0
0
0
0
0
0
0
0
0
0
0
0
0
0
0
0
0
0
0
0
0
0
0
0
0
0
0
0
0
0
0
0
0
0
0
0
0
0
0
0
0
0
0
0
0
0
0
0
0
0
0
0
0
0
0
0
0
0
0
0
0
0
0
0
0
0
0
0
0
0
0
0
0
0
0
0
0
0
0
0
0
0
0
0
0
0
0
0
0
0
0
0
0
0
0
0
0
0
0
0
0
0
0
0
0
0
0
0
0
0
0
0
0
0
0
0
0
0
0
0
0
0
0
0
0
0
0
0
0
0
0
0
0
0
0
0
0
0
0
0
0
0
0
0
0
0
0
0
0
0
0
0
0
0
0
0
0
0
0
0
0
0
0
0
0
0
0
0
0
0
0
0
0
0
0
0
0
0
0
0
0
0
0
0
0
0
0
0
0
0
0
0
0
0
0
0
0
0
0
0
0
0
0
0
0
0
0
0
0
0
0
0
0
0
0
0
0
0
0
0
0
0
0
0
0
0
0
0
0
0
0
0
0
0
0
0
0
0
0
0
0
0
0
0
0
0
0
0
0
0
0
0
0
0
0
0
0
0
0
0
0
0
0
0
0
0
0
0
0
0
0
0
0
0
0
0
0
0
0
0
0
0
0
0
0
0
0
0
0
0
0
0
0
0
0
0
0
0
0
0
0
0
0
0
0
0
0
0
0
0
0
0
0
0
0
0
0
0
0
0
0
0
0
0
0
0
0
0
0
0
0
0
0
0
0
0
0
0
0
0
0
0
0
0
0
0
0
0
0
0
0
0
0
0
0
0
0
0
0
0
0
0
0
0
0
0
0
0
0
0
0
0
0
0
0
0
0
0
0
0
0
0
0
0
0
0
0
0
0
0
0
0
0
0
0
0
0
0
0
0
0
0
0
0
0
0
0
0
0
0
0
0
0
0
0
0
0
0
0
0
0
0
0
0
0
0
0
0
0
0
0
0
0
0
0
0
0
0
0
0
0
0
0
0
0
0
0
0
0
0
0
0
0
0
0
0
0
0
0
0
0
0
0
0
0
0
0
0
0
0
0
0
0
0
0
0
0
0
0
0
0
0
0
0
0
0
0
0
0
0
0
0
0
0
0
0
0
0
0
0
0
0
0
0
0
0
0
0
0
0
0
0
0
0
0
0
0
0
0
0
0
0
0
0
0
0
0
0
0
0
0
0
0
0
0
0
0
0
0
0
0
0
0
0
0
0
0
0
0
0
0
0
0
0
0
0
0
0
0
0
0
0
0
0
0
0
0
0
0
0
0
0
0
0
0
0
0
0
0
0
0
0
0
0
0
0
0
0
0
0
0
0
0
0
0
0
0
0
0
0
0
0
0
0
0
0
0
0
0
0
0
0
0
0
0
0
0
0
0
0
0
0
0
0
0
0
0
0
0
0
0
0
0
0
0
0
0
0
0
0
0
0
0
0
0
0
0
0
0
0
0
0
0
0
0
0
0
0
0
0
0
0
0
0
0
0
0
0
0
0
0
0
0
0
0
0
0
0
0
0
0
0
0
0
0
0
0
0
0
0
0
0
0
0
0
0
0
0
0
0
0
0
0
0
0
0
0
0
0
0
0
0
0
0
0
0
0
0
0
0
0
0
0
0
0
0
0
0
0
0
0
0
0
0
0
0
0
0
0
0
0
0
0
0
0
0
0
0
0
0
0
0
0
0
0
0
0
0
0
0
0
0
0
0
0
0
0
0
0
0
0
0
0
0
0
0
0
0
0
0
0
0
0
0
0
0
0
0
0
0
0
0
0
0
0
0
0
0
0
0
0
0
0
0
0
0
0
0
0
0
0
0
0
0
0
0
0
0
0
0
0
0
0
0
0
0
0
0
0
0
0
0
0
0
0
0
0
0
0
0
0
0
0
0
0
0
0
0
0
0
0
0
0
0
0
0
0
0
0
0
0
0
0
0
0
0
0
0
0
0
0
0
0
0
0
0
0
0
0
0
0
0
0
0
0
0
0
0
0
0
0
0
0
0
0
0
0
0
0
0
0
0
0
0
0
0
0
0
0
0
0
0
0
0
0
0
0
0
0
0
0
0
0
0
0
0
0
0
0
0
0
0
0
0
0
0
0
0
0
0
0
0
0
0
0
0
0
0
0
0
0
0
0
0
0
0
0
0
0
0
0
0
0
0
0
0
0
0
0
0
0
0
0
0
0
0
0
0
0
0
0
0
0
0
0
0
0
0
0
0
0
0
0
0
0
0
0
0
0
0
0
0
0
0
0
0
0
0
0
0
0
0
0
0
0
0
0
0
0
0
0
0
0
0
0
0
0
0
0
0
0
0
0
0
0
0
0
0
0
0
0
0
0
0
0
0
0
0
0
0
0
0
0
0
0
0
0
0
0
0
0
0
0
0
0
0
0
0
0
0
0
0
0
0
0
0
0
0
0
0
0
0
0
0
0
0
0
0
0
0
0
0
0
0
0
0
0
0
0
0
0
0
0
0
0
0
0
0
0
0
0
0
0
0
0
0
0
0
0
0
0
0
0
0
0
0
0
0
0
0
0
0
0
0
0
0
0
0
0
0
0
0
0
0
0
0
0
0
0
0
0
0
0
0
0
0
0
0
0
0
0
0
0
0
0
0
0
0
0
0
0
0
0
0
0
0
0
0
0
0
0
0
0
0
0
0
0
0
0
0
0
0
0
0
0
0
0
0
0
0
0
0
0
0
0
0
0
0
0
0
0
0
0
0
0
0
0
0
0
0
0
0
0
0
0
0
0
0
0
0
0
0
0
0
0
0
0
0
0
0
0
0
0
0
0
0
0
0
0
0
0
0
0
0
0
0
0
0
0
0
0
0
0
0
0
0
0
0
0
0
0
0
0
0
0
0
0
0
0
0
0
0
0
0
0
0
0
0
0
0
0
0
0
0
0
0
0
0
0
0
0
0
0
0
0
0
0
0
0
0
0
0
0
0
0
0
0
0
0
0
0
0
0
0
0
0
0
0
0
0
0
0
0
0
0
0
0
0
0
0
0
0
0
0
0
0
0
0
0
0
0
0
0
0
0
0
0
0
0
0
0
0
0
0
0
0
0
0
0
0
0
0
0
0
0
0
0
0
0
0
0
0
0
0
0
0
0
0
0
0
0
0
0
0
0
0
0
0
0
0
0
0
0
0
0
0
0
0
0
0
0
0
0
0
0
0
0
0
0
0
0
0
0
0
0
0
0
0
0
0
0
0
0
0
0
0
0
0
0
0
0
0
0
0
0
0
0
0
0
0
0
0
0
0
0
0
0
0
0
0
0
0
0
0
0
0
0
0
0
0
0
0
0
0
0
0
0
0
0
0
0
0
0
0
0
0
0
0
0
0
0
0
0
0
0
0
0
0
0
0
0
0
0
0
0
0
0
0
0
0
0
0
0
0
0
0
0
0
0
0
0
0
0
0
0
0
0
0
0
0
0
0
0
0
0
0
0
0
0
0
0
0
0
0
0
0
0
0
0
0
0
0
0
0
0
0
0
0
0
0
0
0
0
0
0
0
0
0
0
0
0
0
0
0
0
0
0
0
0
0
0
0
0
0
0
0
0
0
0
0
0
0
0
0
0
0
0
0
0
0
0
0
0
0
0
0
0
0
0
0
0
0
0
0
0
0
0
0
0
0
0
0
0
0
0
0
0
0
0
0
0
0
0
0
0
0
0
0
0
0
0
0
0
0
0
0
0
0
0
0
0
0
0
0
0
0
0
0
0
0
0
0
0
0
0
0
0
0
0
0
0
0
0
0
0
0
0
0
0
0
0
0
0
0
0
0
0
0
0
0
0
0
0
0
0
0
0
0
0
0
0
0
0
0
0
0
0
0
0
0
0
0
0
0
0
0
0
0
0
0
0
0
0
0
0
0
0
0
0
0
0
0
0
0
0
0
0
0
0
0
0
0
0
0
0
0
0
0
0
0
0
0
0
0
0
0
0
0
0
0
0
0
0
0
0
0
0
0
0
0
0
0
0
0
0
0
0
0
0
0
0
0

TENSORS 2DELEM_Stress_(upper) float
0 0 0 
0 0 0 
0 0 0 
0 0 0 
0 0 0 
0 0 0 
0 0 0 
0 0 0 
0 0 0 
0 0 0 
0 0 0 
0 0 0 
0 0 0 
0 0 0 
0 0 0 
0 0 0 
0 0 0 
0 0 0 
0 0 0 
0 0 0 
0 0 0 
0 0 0 
0 0 0 
0 0 0 
0 0 0 
0 0 0 
0 0 0 
0 0 0 
0 0 0 
0 0 0 
0 0 0 
0 0 0 
0 0 0 
0 0 0 
0 0 0 
0 0 0 
0 0 0 
0 0 0 
0 0 0 
0 0 0 
0 0 0 
0 0 0 
0 0 0 
0 0 0 
0 0 0 
0 0 0 
0 0 0 
0 0 0 
0 0 0 
0 0 0 
0 0 0 
0 0 0 
0 0 0 
0 0 0 
0 0 0 
0 0 0 
0 0 0 
0 0 0 
0 0 0 
0 0 0 
0 0 0 
0 0 0 
0 0 0 
0 0 0 
0 0 0 
0 0 0 
0 0 0 
0 0 0 
0 0 0 
0 0 0 
0 0 0 
0 0 0 
0 0 0 
0 0 0 
0 0 0 
0 0 0 
0 0 0 
0 0 0 
0 0 0 
0 0 0 
0 0 0 
0 0 0 
0 0 0 
0 0 0 
0 0 0 
0 0 0 
0 0 0 
0 0 0 
0 0 0 
0 0 0 
0 0 0 
0 0 0 
0 0 0 
0 0 0 
0 0 0 
0 0 0 
0 0 0 
0 0 0 
0 0 0 
0 0 0 
0 0 0 
0 0 0 
0 0 0 
0 0 0 
0 0 0 
0 0 0 
0 0 0 
0 0 0 
0 0 0 
0 0 0 
0 0 0 
0 0 0 
0 0 0 
0 0 0 
0 0 0 
0 0 0 
0 0 0 
0 0 0 
0 0 0 
0 0 0 
704084 1.64355e+06 0 
1.64355e+06 5.60051e+06 0 
0 0 0 
-2.18472e+06 1.92451e+06 0 
1.92451e+06 -1.02484e+07 0 
0 0 0 
0 0 0 
0 0 0 
0 0 0 
-919222 -4.14593e+06 0 
-4.14593e+06 3.33262e+06 0 
0 0 0 
0 0 0 
0 0 0 
0 0 0 
1.39696e+07 4.18811e+06 0 
4.18811e+06 2.1097e+07 0 
0 0 0 
-2.3378e+07 -6.89499e+06 0 
-6.89499e+06 -2.90656e+07 0 
0 0 0 
-1.66603e+07 -6.23979e+06 0 
-6.23979e+06 2.5461e+07 0 
0 0 0 
0 0 0 
0 0 0 
0 0 0 
-3.00593e+06 -1.6086e+06 0 
-1.6086e+06 92631.7 0 
0 0 0 
-1.86817e+06 3.68524e+06 0 
3.68524e+06 -2.36288e+07 0 
0 0 0 
0 0 0 
0 0 0 
0 0 0 
1.0595e+07 5.92706e+06 0 
5.92706e+06 -1.18262e+07 0 
0 0 0 
-3.5724e+07 164674 0 
164674 -3.28236e+07 0 
0 0 0 
2.75155e+07 2.43933e+06 0 
2.43933e+06 3.49202e+07 0 
0 0 0 
-1.48644e+06 920816 0 
920816 -1.71585e+07 0 
0 0 0 
0 0 0 
0 0 0 
0 0 0 
-1.18237e+06 -7.45231e+06 0 
-7.45231e+06 -3.1006e+06 0 
0 0 0 
-1.32557e+07 -992438 0 
-992438 -1.86609e+07 0 
0 0 0 
-8.02579e+06 -3.6732e+06 0 
-3.6732e+06 1.11181e+07 0 
0 0 0 
0 0 0 
0 0 0 
0 0 0 
2.49262e+07 -600537 0 
-600537 9.17634e+06 0 
0 0 0 
-2.78662e+07 -586490 0 
-586490 -1.09279e+07 0 
0 0 0 
-1.15342e+07 -249701 0 
-249701 437376 0 
0 0 0 
-1.51384e+07 -4.04106e+06 0 
-4.04106e+06 -1.09348e+07 0 
0 0 0 
-7.89014e+06 -1.09697e+06 0 
-1.09697e+06 -1.19002e+06 0 
0 0 0 
0 0 0 
0 0 0 
0 0 0 
9.85847e+06 811339 0 
811339 -5.82596e+06 0 
0 0 0 
1.80905e+07 -1.46966e+06 0 
-1.46966e+06 -3.60319e+06 0 
0 0 0 
2.88599e+07 2.95569e+06 0 
2.95569e+06 1.35966e+07 0 
0 0 0 
3.65826e+07 -5.88856e+06 0 
-5.88856e+06 2.57313e+07 0 
0 0 0 
0 0 0 
0 0 0 
0 0 0 
1.35849e+07 -8.56271e+06 0 
-8.56271e+06 -8.56423e+06 0 
0 0 0 
-2.30648e+07 -420834 0 
-420834 -2.06233e+07 0 
0 0 0 
-2.0918e+07 2.13099e+06 0 
2.13099e+06 -2.0823e+07 0 
0 0 0 
-5.70965e+06 6.9898e+06 0 
6.9898e+06 -1.0216e+07 0 
0 0 0 
2.3315e+07 3.09415e+06 0 
3.09415e+06 -2.1591e+06 0 
0 0 0 
3.41727e+07 5.47544e+06 0 
5.47544e+06 2.04988e+07 0 
0 0 0 
0 0 0 
0 0 0 
0 0 0 
1.26509e+06 9.70295e+06 0 
9.70295e+06 7.75954e+06 0 
0 0 0 
-253293 4.07003e+06 0 
4.07003e+06 -3.75345e+07 0 
0 0 0 
2.00631e+07 -1.0341e+06 0 
-1.0341e+06 1.97491e+07 0 
0 0 0 
5.00489e+06 -1.17856e+07 0 
-1.17856e+07 5.62958e+06 0 
0 0 0 
1.60491e+07 1.84748e+06 0 
1.84748e+06 2.00868e+07 0 
0 0 0 
0 0 0 
0 0 0 
0 0 0 
7.77966e+06 -1.01135e+07 0 
-1.01135e+07 7.13332e+06 0 
0 0 0 
-1.90259e+07 -4.72146e+06 0 
-4.72146e+06 -1.55838e+07 0 
0 0 0 
2.65142e+06 1.47805e+06 0 
1.47805e+06 -1.97385e+06 0 
0 0 0 
-7.8736e+06 4.56478e+06 0 
4.56478e+06 266503 0 
0 0 0 
2.23981e+07 -158943 0 
-158943 -3.98419e+06 0 
0 0 0 
9.08751e+06 8.19939e+06 0 
8.19939e+06 4.90669e+06 0 
0 0 0 
2.37049e+07 7.10616e+06 0 
7.10616e+06 2.89172e+06 0 
0 0 0 
0 0 0 
0 0 0 
0 0 0 
1.19041e+07 4.56512e+06 0 
4.56512e+06 2.4013e+07 0 
0 0 0 
-1.24196e+07 1.24438e+07 0 
1.24438e+07 -4.62528e+07 0 
0 0 0 
6.04208e+06 6.45861e+06 0 
6.45861e+06 5.4569e+06 0 
0 0 0 
2.16221e+07 -173237 0 
-173237 5.09353e+06 0 
0 0 0 
3.71385e+07 5.1664e+06 0 
5.1664e+06 4.84159e+07 0 
0 0 0 
2.74589e+07 8.43388e+06 0 
8.43388e+06 6.30786e+06 0 
0 0 0 
0 0 0 
0 0 0 
0 0 0 
8.22076e+06 -3.86057e+06 0 
-3.86057e+06 6.66169e+06 0 
0 0 0 
-1.05019e+07 1.55553e+06 0 
1.55553e+06 1.167e+07 0 
0 0 0 
8.12884e+06 1.08432e+07 0 
1.08432e+07 1.10763e+07 0 
0 0 0 
-5.16944e+06 -559321 0 
-559321 -3.37727e+06 0 
0 0 0 
1.54746e+07 5.3324e+06 0 
5.3324e+06 -238564 0 
0 0 0 
2.37442e+07 -574213 0 
-574213 -9.8181e+06 0 
0 0 0 
2.09542e+07 4.38826e+06 0 
4.38826e+06 -8.11522e+06 0 
0 0 0 
3.61632e+07 -3.40663e+06 0 
-3.40663e+06 -8.7074e+06 0 
0 0 0 
0 0 0 
0 0 0 
0 0 0 
-1.27896e+06 5.38353e+06 0 
5.38353e+06 2.22967e+07 0 
0 0 0 
-3.41483e+07 2.24684e+06 0 
2.24684e+06 -4.71485e+07 0 
0 0 0 
-2.43061e+07 2.38838e+06 0 
2.38838e+06 -2.63353e+06 0 
0 0 0 
-4.27531e+07 3.30389e+06 0 
3.30389e+06 -1.98225e+07 0 
0 0 0 
-3.29558e+07 -181140 0 
-181140 2.00267e+07 0 
0 0 0 
-6.52252e+07 804284 0 
804284 -1.94556e+07 0 
0 0 0 
-8.94855e+07 3.93183e+06 0 
3.93183e+06 -6.44437e+07 0 
0 0 0 
0 0 0 
0 0 0 
0 0 0 
1.45407e+06 -6.68839e+06 0 
-6.68839e+06 2.13951e+06 0 
0 0 0 
-8.91344e+06 -8.14038e+06 0 
-8.14038e+06 -605078 0 
0 0 0 
1.62154e+07 4.38894e+06 0 
4.38894e+06 9.3113e+06 0 
0 0 0 
-1.21229e+07 -905396 0 
-905396 -6.35997e+06 0 
0 0 0 
2.57419e+07 5.30283e+06 0 
5.30283e+06 1.13648e+07 0 
0 0 0 
1.63074e+07 1.8497e+06 0 
1.8497e+06 9.45524e+06 0 
0 0 0 
4.13584e+07 -5.96805e+06 0 
-5.96805e+06 1.48477e+07 0 
0 0 0 
-9.23566e+07 3.34826e+06 0 
3.34826e+06 -3.36963e+07 0 
0 0 0 
-7.53384e+07 -658791 0 
-658791 -3.04439e+07 0 
0 0 0 
0 0 0 
0 0 0 
0 0 0 
1.01322e+07 -2.71062e+06 0 
-2.71062e+06 1.77167e+07 0 
0 0 0 
-1.53323e+07 -5.94306e+06 0 
-5.94306e+06 -4.61973e+07 0 
0 0 0 
6.031e+06 -3.40448e+06 0 
-3.40448e+06 2.09468e+07 0 
0 0 0 
1.26946e+07 -7.33348e+06 0 
-7.33348e+06 -982100 0 
0 0 0 
2.73711e+07 1.29325e+06 0 
1.29325e+06 3.76699e+07 0 
0 0 0 
1.89122e+07 -8.06795e+06 0 
-8.06795e+06 6.9236e+06 0 
0 0 0 
7.50515e+06 1.22693e+07 0 
1.22693e+07 -1.9722e+07 0 
0 0 0 
1.63826e+07 -1.35683e+06 0 
-1.35683e+06 -7.95862e+06 0 
0 0 0 
0 0 0 
0 0 0 
0 0 0 
7.07707e+06 5.52693e+06 0 
5.52693e+06 1.12264e+07 0 
0 0 0 
-1.05912e+07 3.39325e+06 0 
3.39325e+06 6.34771e+06 0 
0 0 0 
7.09336e+06 -2.95785e+06 0 
-2.95785e+06 -8.72931e+06 0 
0 0 0 
-2.42999e+07 -1.15712e+07 0 
-1.15712e+07 -1.99384e+07 0 
0 0 0 
3.4345e+07 -363150 0 
-363150 -700943 0 
0 0 0 
1.10772e+07 -5.45345e+06 0 
-5.45345e+06 4.97847e+06 0 
0 0 0 
4.73424e+07 3.78473e+06 0 
3.78473e+06 3.79365e+07 0 
0 0 0 
-4.04311e+07 6.13805e+06 0 
6.13805e+06 2.58037e+07 0 
0 0 0 
1.2058e+07 8.6956e+06 0 
8.6956e+06 6.05511e+06 0 
0 0 0 
1.53802e+07 -1.2621e+06 0 
-1.2621e+06 3.51294e+07 0 
0 0 0 
0 0 0 
0 0 0 
0 0 0 
149218 4.91046e+06 0 
4.91046e+06 6.06721e+06 0 
0 0 0 
-9.69127e+06 3.97189e+06 0 
3.97189e+06 -3.164e+07 0 
0 0 0 
1.21667e+07 1.38191e+07 0 
1.38191e+07 1.81082e+07 0 
0 0 0 
2.36327e+06 3.2249e+06 0 
3.2249e+06 -2.66605e+06 0 
0 0 0 
7.3204e+06 -963788 0 
-963788 3.00399e+07 0 
0 0 0 
3.10194e+06 866030 0 
866030 1.69923e+06 0 
0 0 0 
-1.3076e+07 -1.59191e+06 0 
-1.59191e+06 -1.69115e+07 0 
0 0 0 
-2.04778e+07 1.07735e+07 0 
1.07735e+07 -2.27584e+07 0 
0 0 0 
-9.09478e+06 -2.15271e+06 0 
-2.15271e+06 -7.21823e+06 0 
0 0 0 
0 0 0 
0 0 0 
0 0 0 
1.38815e+07 1.17948e+06 0 
1.17948e+06 -3.60322e+06 0 
0 0 0 
-3.08935e+07 -6.71783e+06 0 
-6.71783e+06 -1.61889e+07 0 
0 0 0 
-8.148e+06 -1.3127e+07 0 
-1.3127e+07 -9.94585e+06 0 
0 0 0 
-2.35234e+07 -1.04542e+06 0 
-1.04542e+06 -3.16589e+07 0 
0 0 0 
4.46208e+07 4.35216e+06 0 
4.35216e+06 -8.59764e+06 0 
0 0 0 
5.38901e+06 1.8984e+07 0 
1.8984e+07 -1.57346e+07 0 
0 0 0 
3.87078e+07 2.13902e+06 0 
2.13902e+06 -485001 0 
0 0 0 
-5.71174e+07 7.89748e+06 0 
7.89748e+06 -4.32232e+07 0 
0 0 0 
-1.37484e+07 4.6613e+06 0 
4.6613e+06 -1.33679e+07 0 
0 0 0 
-1.69226e+06 5.8827e+06 0 
5.8827e+06 2.34605e+07 0 
0 0 0 
-6.40112e+06 -4.18105e+06 0 
-4.18105e+06 3.82717e+06 0 
0 0 0 
0 0 0 
0 0 0 
0 0 0 
-507521 1.35971e+06 0 
1.35971e+06 1.13779e+07 0 
0 0 0 
-1.7336e+07 3.69323e+06 0 
3.69323e+06 -2.43552e+07 0 
0 0 0 
-1.51736e+07 8.28142e+06 0 
8.28142e+06 1.33448e+07 0 
0 0 0 
-3.63998e+07 2.29445e+06 0 
2.29445e+06 -2.87687e+07 0 
0 0 0 
-2.19911e+07 -1.82572e+06 0 
-1.82572e+06 9.90278e+06 0 
0 0 0 
-1.57004e+07 2.7339e+06 0 
2.7339e+06 2.13121e+06 0 
0 0 0 
3.70341e+06 2.72304e+06 0 
2.72304e+06 631393 0 
0 0 0 
2.3928e+06 1.37784e+07 0 
1.37784e+07 -2.2125e+07 0 
0 0 0 
8.56946e+06 -260648 0 
-260648 -3.36927e+06 0 
0 0 0 
1.91769e+07 1.0535e+07 0 
1.0535e+07 2.56736e+07 0 
0 0 0 
0 0 0 
0 0 0 
0 0 0 
2.0458e+07 552574 0 
552574 9.62774e+06 0 
0 0 0 
-3.81928e+07 2.53958e+06 0 
2.53958e+06 -6.52531e+06 0 
0 0 0 
835342 -1.34211e+07 0 
-1.34211e+07 1.34452e+07 0 
0 0 0 
3.78725e+06 -2.08025e+06 0 
-2.08025e+06 2.0928e+07 0 
0 0 0 
6.87023e+07 8.72897e+06 0 
8.72897e+06 4.51132e+07 0 
0 0 0 
1.32796e+07 4.87936e+06 0 
4.87936e+06 2.03909e+07 0 
0 0 0 
3.83093e+07 2.96155e+06 0 
2.96155e+06 1.8992e+07 0 
0 0 0 
-3.88204e+07 -3.53935e+06 0 
-3.53935e+06 -6.02493e+06 0 
0 0 0 
-2.287e+07 -501100 0 
-501100 -1.75033e+07 0 
0 0 0 
-3.08447e+07 -403571 0 
-403571 -2.15374e+07 0 
0 0 0 
8.76812e+06 -8.84024e+06 0 
-8.84024e+06 8.34561e+06 0 
0 0 0 
2.19363e+07 1.62966e+06 0 
1.62966e+06 1.30668e+07 0 
0 0 0 
0 0 0 
0 0 0 
0 0 0 
-9.72397e+06 -9.09232e+06 0 
-9.09232e+06 -5.88533e+06 0 
0 0 0 
-7.39646e+06 1.52005e+06 0 
1.52005e+06 1.4328e+07 0 
0 0 0 
-1.6574e+07 -1.0625e+06 0 
-1.0625e+06 -1.19724e+07 0 
0 0 0 
-1.57394e+06 4.19326e+06 0 
4.19326e+06 3.10931e+06 0 
0 0 0 
2.49747e+07 8.44591e+06 0 
8.44591e+06 1.03407e+07 0 
0 0 0 
2.15623e+07 9.50334e+06 0 
9.50334e+06 2.06976e+07 0 
0 0 0 
1.15087e+07 5.86837e+06 0 
5.86837e+06 6.14103e+06 0 
0 0 0 
5.11921e+06 1.03564e+07 0 
1.03564e+07 -1.90571e+07 0 
0 0 0 
1.91021e+07 1.02947e+07 0 
1.02947e+07 -4.72393e+06 0 
0 0 0 
2.62094e+07 -1.04597e+06 0 
-1.04597e+06 1.79666e+07 0 
0 0 0 
3.04887e+07 2.09258e+06 0 
2.09258e+06 1.19532e+07 0 
0 0 0 
0 0 0 
0 0 0 
0 0 0 
1.99065e+07 -60883 0 
-60883 6.77664e+06 0 
0 0 0 
-2.01282e+07 9.34035e+06 0 
9.34035e+06 2.16398e+06 0 
0 0 0 
-1.98088e+07 313010 0 
313010 2.17442e+07 0 
0 0 0 
1.23913e+07 -7.42169e+06 0 
-7.42169e+06 4.11619e+07 0 
0 0 0 
7.6696e+07 -1.87821e+06 0 
-1.87821e+06 5.03827e+07 0 
0 0 0 
1.00634e+07 3.19543e+06 0 
3.19543e+06 7.75269e+06 0 
0 0 0 
1.82403e+07 -5.16201e+06 0 
-5.16201e+06 -1.3294e+07 0 
0 0 0 
-5.37883e+07 -7.59593e+06 0 
-7.59593e+06 -6.24279e+07 0 
0 0 0 
-2.85403e+07 5.71689e+06 0 
5.71689e+06 -5.68926e+07 0 
0 0 0 
-2.43499e+07 2.08188e+07 0 
2.08188e+07 -3.58423e+07 0 
0 0 0 
1.70126e+07 2.24397e+07 0 
2.24397e+07 -1.46096e+06 0 
0 0 0 
6.51436e+07 1.06092e+06 0 
1.06092e+06 4.50546e+07 0 
0 0 0 
3.41583e+07 6.12276e+06 0 
6.12276e+06 1.00056e+07 0 
0 0 0 
0 0 0 
0 0 0 
0 0 0 
-1.14589e+07 -9.21278e+06 0 
-9.21278e+06 -2.69643e+07 0 
0 0 0 
2.23068e+06 -5.53595e+06 0 
-5.53595e+06 3.90504e+07 0 
0 0 0 
-1.60667e+07 69292.9 0 
69292.9 -2.59418e+06 0 
0 0 0 
-1.49356e+07 1.7723e+07 0 
1.7723e+07 1.63237e+06 0 
0 0 0 
-3.07514e+07 6.51905e+06 0 
6.51905e+06 -697348 0 
0 0 0 
-3.20488e+07 6.92487e+06 0 
6.92487e+06 -9.90178e+06 0 
0 0 0 
-4.05865e+07 6.13307e+06 0 
6.13307e+06 -8.50416e+06 0 
0 0 0 
-5.88662e+07 1.16091e+07 0 
1.16091e+07 -3.5585e+07 0 
0 0 0 
-6.52287e+07 8.1695e+06 0 
8.1695e+06 -4.24285e+07 0 
0 0 0 
-5.47669e+07 3.34827e+06 0 
3.34827e+06 -1.07813e+07 0 
0 0 0 
-4.54201e+07 1.23e+07 0 
1.23e+07 -1.01866e+07 0 
0 0 0 
-5.45509e+07 5.96068e+06 0 
5.96068e+06 4.00613e+06 0 
0 0 0 
0 0 0 
0 0 0 
0 0 0 
4.0091e+07 8.59619e+06 0 
8.59619e+06 1.26146e+07 0 
0 0 0 
-2.75831e+07 1.28192e+07 0 
1.28192e+07 -2.18963e+07 0 
0 0 0 
-4.43148e+07 9.79207e+06 0 
9.79207e+06 -2.74718e+07 0 
0 0 0 
-3.12831e+07 -678380 0 
-678380 -1.275e+07 0 
0 0 0 
7.90921e+07 -1.85447e+06 0 
-1.85447e+06 2.68392e+07 0 
0 0 0 
1.44508e+07 -9.84398e+06 0 
-9.84398e+06 1.05115e+07 0 
0 0 0 
1.28905e+07 -1.07865e+07 0 
-1.07865e+07 9.8857e+06 0 
0 0 0 
-2.19488e+07 -1.09316e+07 0 
-1.09316e+07 1.29016e+07 0 
0 0 0 
2.00448e+07 -3.86492e+06 0 
-3.86492e+06 2.57486e+07 0 
0 0 0 
2.16749e+06 1.95905e+07 0 
1.95905e+07 -4.96357e+06 0 
0 0 0 
1.5809e+07 2.35618e+07 0 
2.35618e+07 -1.76878e+06 0 
0 0 0 
1.08043e+07 1.58155e+07 0 
1.58155e+07 1.35953e+07 0 
0 0 0 
-4.37102e+07 7.41954e+06 0 
7.41954e+06 -4.47074e+06 0 
0 0 0 
-4.13792e+07 8.64927e+06 0 
8.64927e+06 -8.51988e+06 0 
0 0 0 
0 0 0 
0 0 0 
0 0 0 
-348101 -3.29937e+06 0 
-3.29937e+06 -2.36734e+07 0 
0 0 0 
3.4837e+07 6.30212e+06 0 
6.30212e+06 4.54361e+07 0 
0 0 0 
5.13089e+07 1.42881e+06 0 
1.42881e+06 3.33264e+07 0 
0 0 0 
5.90506e+07 4.4963e+06 0 
4.4963e+06 2.57606e+07 0 
0 0 0 
4.64684e+07 -8.77425e+06 0 
-8.77425e+06 1.764e+07 0 
0 0 0 
2.82794e+07 -1.39057e+06 0 
-1.39057e+06 -849430 0 
0 0 0 
3.81214e+07 -1.29154e+07 0 
-1.29154e+07 3.6077e+07 0 
0 0 0 
9.63208e+06 8.1343e+06 0 
8.1343e+06 -1.81192e+07 0 
0 0 0 
-8.86924e+06 -68207 0 
-68207 -1.79213e+07 0 
0 0 0 
-1.66415e+07 6.45292e+06 0 
6.45292e+06 -1.14902e+06 0 
0 0 0 
-3.7942e+07 3.39212e+06 0 
3.39212e+06 -5.37256e+06 0 
0 0 0 
-2.67481e+07 7.58619e+06 0 
7.58619e+06 1.56437e+07 0 
0 0 0 
-3.1136e+07 9.65207e+06 0 
9.65207e+06 2.32884e+06 0 
0 0 0 
0 0 0 
0 0 0 
0 0 0 
4.3624e+07 -8.80355e+06 0 
-8.80355e+06 2.70904e+06 0 
0 0 0 
-1.67752e+07 2.61659e+06 0 
2.61659e+06 -2.04478e+07 0 
0 0 0 
-5.66506e+07 1.00013e+07 0 
1.00013e+07 -2.67472e+07 0 
0 0 0 
-2.15012e+07 2.92844e+06 0 
2.92844e+06 -9.11718e+06 0 
0 0 0 
5.47343e+07 5.17146e+06 0 
5.17146e+06 1.79399e+07 0 
0 0 0 
1.08536e+07 -1.46239e+06 0 
-1.46239e+06 3.87658e+06 0 
0 0 0 
1.55671e+07 -8.73806e+06 0 
-8.73806e+06 1.95676e+07 0 
0 0 0 
-2.83946e+07 -5.11192e+06 0 
-5.11192e+06 277376 0 
0 0 0 
3.44663e+07 -3.04304e+06 0 
-3.04304e+06 2.39064e+07 0 
0 0 0 
3.24405e+07 9.24147e+06 0 
9.24147e+06 3.55014e+07 0 
0 0 0 
1.55916e+07 1.5128e+07 0 
1.5128e+07 4.35096e+06 0 
0 0 0 
-2.59531e+07 2.94587e+06 0 
2.94587e+06 -3.49706e+07 0 
0 0 0 
-4.50309e+07 -5.30644e+06 0 
-5.30644e+06 -5.84979e+07 0 
0 0 0 
-4.34443e+07 2.9624e+06 0 
2.9624e+06 -2.58619e+07 0 
0 0 0 
-6.55929e+07 5.65668e+06 0 
5.65668e+06 -7.17644e+07 0 
0 0 0 
0 0 0 
0 0 0 
0 0 0 
3.20328e+06 3.10375e+06 0 
3.10375e+06 -9.4275e+06 0 
0 0 0 
3.06493e+07 8.78282e+06 0 
8.78282e+06 4.10809e+07 0 
0 0 0 
2.40642e+07 1.16934e+07 0 
1.16934e+07 7.8009e+06 0 
0 0 0 
3.54864e+06 -6.0484e+06 0 
-6.0484e+06 6.41651e+06 0 
0 0 0 
4.9059e+06 -5.507e+06 0 
-5.507e+06 -4.49373e+06 0 
0 0 0 
-3.93858e+06 -1.3609e+07 0 
-1.3609e+07 -1.16507e+07 0 
0 0 0 
5.67734e+06 1.86767e+06 0 
1.86767e+06 3.49017e+07 0 
0 0 0 
6.60199e+06 -4.21192e+06 0 
-4.21192e+06 -8.70895e+06 0 
0 0 0 
2.09006e+07 6.34081e+06 0 
6.34081e+06 -5.50274e+06 0 
0 0 0 
4.38414e+07 -1.3711e+06 0 
-1.3711e+06 1.98912e+07 0 
0 0 0 
6.72076e+07 1.05889e+07 0 
1.05889e+07 2.21412e+07 0 
0 0 0 
8.48656e+07 -1.25416e+06 0 
-1.25416e+06 5.37445e+07 0 
0 0 0 
6.73223e+07 -427784 0 
-427784 3.1525e+07 0 
0 0 0 
4.74255e+07 -2.74396e+06 0 
-2.74396e+06 7.35318e+06 0 
0 0 0 
0 0 0 
0 0 0 
0 0 0 
2.74492e+07 -9.12406e+06 0 
-9.12406e+06 1.02519e+07 0 
0 0 0 
2.31169e+07 -2.2568e+06 0 
-2.2568e+06 -1.30146e+07 0 
0 0 0 
-8.05265e+07 1.61045e+07 0 
1.61045e+07 -6.77815e+07 0 
0 0 0 
-3.17445e+07 5.68602e+06 0 
5.68602e+06 -4.86792e+07 0 
0 0 0 
3.79275e+07 7.34571e+06 0 
7.34571e+06 1.69284e+06 0 
0 0 0 
4.97257e+06 -3.76698e+06 0 
-3.76698e+06 1.34986e+07 0 
0 0 0 
2.85383e+06 -7.07105e+06 0 
-7.07105e+06 1.67987e+07 0 
0 0 0 
5.77618e+06 -9.80406e+06 0 
-9.80406e+06 3.90754e+07 0 
0 0 0 
4.8647e+07 -175961 0 
-175961 4.84036e+07 0 
0 0 0 
3.55798e+07 1.07149e+07 0 
1.07149e+07 2.23056e+07 0 
0 0 0 
1.82782e+07 6.31593e+06 0 
6.31593e+06 1.79197e+07 0 
0 0 0 
-5.04594e+07 1.70679e+06 0 
1.70679e+06 -1.86715e+07 0 
0 0 0 
-1.56964e+06 -7.17959e+06 0 
-7.17959e+06 -1.8438e+06 0 
0 0 0 
-4.19995e+07 6.28665e+06 0 
6.28665e+06 1.2378e+06 0 
0 0 0 
3.36819e+07 9.64687e+06 0 
9.64687e+06 -3.09217e+07 0 
0 0 0 
7.12188e+07 9.74898e+06 0 
9.74898e+06 4.14828e+07 0 
0 0 0 
0 0 0 
0 0 0 
0 0 0 
6.52675e+06 8.25563e+06 0 
8.25563e+06 1.21361e+07 0 
0 0 0 
6.35971e+06 1.11395e+07 0 
1.11395e+07 1.72206e+07 0 
0 0 0 
-2.9041e+07 2.5766e+06 0 
2.5766e+06 -4.26239e+06 0 
0 0 0 
-4.33354e+07 1.0075e+06 0 
1.0075e+06 -2.53255e+07 0 
0 0 0 
-4.35214e+07 5.15637e+06 0 
5.15637e+06 -2.36092e+07 0 
0 0 0 
-2.01518e+07 -8.27024e+06 0 
-8.27024e+06 -1.92987e+07 0 
0 0 0 
1.535e+07 1.57243e+06 0 
1.57243e+06 4.46896e+07 0 
0 0 0 
-3.39702e+06 3.28407e+06 0 
3.28407e+06 -4.84117e+06 0 
0 0 0 
-9.19799e+06 8.15718e+06 0 
8.15718e+06 -5.93258e+06 0 
0 0 0 
792574 1.00094e+07 0 
1.00094e+07 -3.70941e+06 0 
0 0 0 
-7.96187e+06 6.3847e+06 0 
6.3847e+06 148444 0 
0 0 0 
-7.22847e+06 1.04966e+07 0 
1.04966e+07 1.42076e+07 0 
0 0 0 
7.63721e+06 1.72434e+06 0 
1.72434e+06 9.0079e+06 0 
0 0 0 
1.22346e+07 -1.38015e+06 0 
-1.38015e+06 7.65195e+06 0 
0 0 0 
-1.59153e+07 2.13789e+06 0 
2.13789e+06 -4.68951e+07 0 
0 0 0 
0 0 0 
0 0 0 
0 0 0 
1.31048e+07 -9.66356e+06 0 
-9.66356e+06 3.80646e+06 0 
0 0 0 
5.59523e+07 -8.7121e+06 0 
-8.7121e+06 2.8991e+07 0 
0 0 0 
-5.95619e+07 2.5296e+06 0 
2.5296e+06 -1.05905e+07 0 
0 0 0 
-1.64143e+07 9.65997e+06 0 
9.65997e+06 2.44416e+06 0 
0 0 0 
3.72114e+07 1.47457e+07 0 
1.47457e+07 7.47901e+06 0 
0 0 0 
-1.61073e+07 4.84807e+06 0 
4.84807e+06 -2.768e+07 0 
0 0 0 
-2.9276e+07 3.40442e+06 0 
3.40442e+06 -2.40743e+07 0 
0 0 0 
1.83962e+06 -5.27094e+06 0 
-5.27094e+06 -2.14849e+07 0 
0 0 0 
5.04568e+07 -2.18741e+06 0 
-2.18741e+06 1.06729e+07 0 
0 0 0 
3.21775e+07 715950 0 
715950 2.31031e+07 0 
0 0 0 
2.18916e+06 -2.63927e+06 0 
-2.63927e+06 -8.402e+06 0 
0 0 0 
-6.24397e+07 -8.10832e+06 0 
-8.10832e+06 -2.73563e+07 0 
0 0 0 
-1.85512e+06 -3.05468e+06 0 
-3.05468e+06 391705 0 
0 0 0 
-1.87362e+07 4.56628e+06 0 
4.56628e+06 -1.18779e+07 0 
0 0 0 
5.72601e+07 1.28343e+07 0 
1.28343e+07 6.83086e+06 0 
0 0 0 
-2.01859e+07 8.23447e+06 0 
8.23447e+06 1.74945e+07 0 
0 0 0 
-4.13643e+07 7.73758e+06 0 
7.73758e+06 -2.60623e+07 0 
0 0 0 
0 0 0 
0 0 0 
0 0 0 
-4.09275e+06 -408831 0 
-408831 1.78182e+07 0 
0 0 0 
-3.59194e+07 -1.04669e+06 0 
-1.04669e+06 4.43196e+06 0 
0 0 0 
-4.93316e+07 -4.34798e+06 0 
-4.34798e+06 -2.57757e+07 0 
0 0 0 
-3.36697e+07 -3.28376e+06 0 
-3.28376e+06 -1.48528e+07 0 
0 0 0 
-2.53683e+07 3.57527e+06 0 
3.57527e+06 -1.57639e+07 0 
0 0 0 
-3.08632e+07 1.35018e+07 0 
1.35018e+07 -1.22002e+07 0 
0 0 0 
-1.60087e+07 1.19902e+07 0 
1.19902e+07 1.52644e+07 0 
0 0 0 
-9.56426e+06 8.76002e+06 0 
8.76002e+06 1.11825e+07 0 
0 0 0 
1.57397e+07 1.50678e+07 0 
1.50678e+07 -1.9417e+06 0 
0 0 0 
3.13308e+07 1.47371e+07 0 
1.47371e+07 9.59254e+06 0 
0 0 0 
4.38676e+07 7.63898e+06 0 
7.63898e+06 6.41998e+06 0 
0 0 0 
4.60753e+07 2.68727e+06 0 
2.68727e+06 2.74706e+07 0 
0 0 0 
1.79835e+07 -3.07498e+06 0 
-3.07498e+06 7.97046e+06 0 
0 0 0 
8.6791e+06 -6.2328e+06 0 
-6.2328e+06 1.02691e+07 0 
0 0 0 
-1.56569e+07 -2.95532e+06 0 
-2.95532e+06 -3.58959e+07 0 
0 0 0 
1.72422e+07 1.02345e+07 0 
1.02345e+07 2.95373e+07 0 
0 0 0 
0 0 0 
0 0 0 
0 0 0 
4.35745e+06 -5.45707e+06 0 
-5.45707e+06 8.11173e+06 0 
0 0 0 
6.68364e+07 -3.634e+06 0 
-3.634e+06 3.71413e+07 0 
0 0 0 
-4.44017e+07 3.43514e+06 0 
3.43514e+06 -639201 0 
0 0 0 
3.82585e+06 1.85492e+07 0 
1.85492e+07 -3.14015e+06 0 
0 0 0 
1.06263e+07 1.46766e+07 0 
1.46766e+07 -4.33073e+06 0 
0 0 0 
-2.74414e+07 -2.93496e+06 0 
-2.93496e+06 -1.20177e+07 0 
0 0 0 
-3.82971e+07 -5.68849e+06 0 
-5.68849e+06 -3.39433e+07 0 
0 0 0 
3.50243e+07 3.04258e+06 0 
3.04258e+06 -1.25823e+07 0 
0 0 0 
3.03984e+07 1.81695e+07 0 
1.81695e+07 -5.41944e+06 0 
0 0 0 
7.80431e+06 -4.15808e+06 0 
-4.15808e+06 -1.16105e+07 0 
0 0 0 
4.93734e+06 -8.78988e+06 0 
-8.78988e+06 -3.87147e+06 0 
0 0 0 
-6.18323e+07 3.4256e+06 0 
3.4256e+06 -2.14231e+07 0 
0 0 0 
2.23423e+07 7.35954e+06 0 
7.35954e+06 2.16987e+07 0 
0 0 0 
-9.68368e+06 6.22689e+06 0 
6.22689e+06 1.90812e+07 0 
0 0 0 
6.96124e+07 -182004 0 
-182004 3.29895e+07 0 
0 0 0 
-4.1277e+07 1.22065e+07 0 
1.22065e+07 -2.03988e+06 0 
0 0 0 
9.37096e+06 6.32215e+06 0 
6.32215e+06 -6.12203e+06 0 
0 0 0 
1.80157e+07 467061 0 
467061 1.7447e+07 0 
0 0 0 
0 0 0 
0 0 0 
0 0 0 
1.01716e+07 -575078 0 
-575078 2.22027e+07 0 
0 0 0 
2.7628e+07 -5.84006e+06 0 
-5.84006e+06 2.51293e+07 0 
0 0 0 
1.79658e+07 -3.70416e+06 0 
-3.70416e+06 -3.4388e+06 0 
0 0 0 
1.12526e+07 8.59966e+06 0 
8.59966e+06 -162422 0 
0 0 0 
5.28516e+06 2.89147e+06 0 
2.89147e+06 8.33087e+06 0 
0 0 0 
1.86234e+07 1.06082e+07 0 
1.06082e+07 1.70649e+07 0 
0 0 0 
2.69782e+07 1.40257e+07 0 
1.40257e+07 1.93997e+07 0 
0 0 0 
1.31589e+07 8.21076e+06 0 
8.21076e+06 1.15744e+07 0 
0 0 0 
-1.54353e+07 2.08853e+07 0 
2.08853e+07 -881062 0 
0 0 0 
-3.40575e+07 1.04956e+07 0 
1.04956e+07 -1.62436e+07 0 
0 0 0 
-3.87893e+07 2.14554e+07 0 
2.14554e+07 -2.11695e+07 0 
0 0 0 
-4.62617e+07 -4.60368e+06 0 
-4.60368e+06 -2.95636e+07 0 
0 0 0 
-4.17878e+07 1.8978e+06 0 
1.8978e+06 -1.22736e+07 0 
0 0 0 
-2.24938e+07 -9.5869e+06 0 
-9.5869e+06 1.32973e+07 0 
0 0 0 
-2.01346e+07 7.30666e+06 0 
7.30666e+06 -2.69524e+07 0 
0 0 0 
-6.75423e+06 5.96598e+06 0 
5.96598e+06 2.2953e+07 0 
0 0 0 
-2.29137e+07 1.07164e+07 0 
1.07164e+07 -2.80917e+07 0 
0 0 0 
0 0 0 
0 0 0 
0 0 0 
-4.11651e+06 -5.31339e+06 0 
-5.31339e+06 -1.13021e+07 0 
0 0 0 
5.5435e+07 1.80638e+06 0 
1.80638e+06 1.92736e+06 0 
0 0 0 
-3.77435e+07 -3.92331e+06 0 
-3.92331e+06 -2.831e+07 0 
0 0 0 
1.37666e+07 5.3945e+06 0 
5.3945e+06 -3.13447e+06 0 
0 0 0 
-4.46212e+06 1.03007e+07 0 
1.03007e+07 2.27997e+06 0 
0 0 0 
-4.54499e+07 -2.99704e+06 0 
-2.99704e+06 -1.90334e+07 0 
0 0 0 
-2.50949e+07 -526630 0 
-526630 -2.0351e+07 0 
0 0 0 
6.23789e+07 2.34013e+06 0 
2.34013e+06 5.01746e+06 0 
0 0 0 
9.25194e+06 1.00481e+07 0 
1.00481e+07 -1.45096e+07 0 
0 0 0 
-4.09687e+06 2.21106e+06 0 
2.21106e+06 -1.03051e+07 0 
0 0 0 
2.4461e+06 -3.06949e+06 0 
-3.06949e+06 -277914 0 
0 0 0 
-3.28315e+07 5.71368e+06 0 
5.71368e+06 -2.0633e+06 0 
0 0 0 
8.99397e+06 5.95324e+06 0 
5.95324e+06 -299673 0 
0 0 0 
-2.86417e+06 8.07956e+06 0 
8.07956e+06 -9.30298e+06 0 
0 0 0 
4.9866e+07 1.01309e+07 0 
1.01309e+07 1.81398e+07 0 
0 0 0 
-5.88569e+07 5.7328e+06 0 
5.7328e+06 -3.7857e+07 0 
0 0 0 
-1.0479e+07 -3.12317e+06 0 
-3.12317e+06 -3.29591e+07 0 
0 0 0 
-2.01961e+07 -6.75764e+06 0 
-6.75764e+06 3.48151e+06 0 
0 0 0 
-2.08317e+07 2.14634e+06 0 
2.14634e+06 -4.5812e+07 0 
0 0 0 
0 0 0 
0 0 0 
0 0 0 
1.51702e+07 2.67835e+06 0 
2.67835e+06 3.01107e+07 0 
0 0 0 
1.51668e+06 846690 0 
846690 8.6592e+06 0 
0 0 0 
5.28657e+06 -3.52361e+06 0 
-3.52361e+06 -1.20503e+07 0 
0 0 0 
2.18486e+07 -4.89327e+06 0 
-4.89327e+06 1.39282e+07 0 
0 0 0 
2.47627e+07 641442 0 
641442 1.3236e+07 0 
0 0 0 
1.20707e+07 2.2838e+06 0 
2.2838e+06 1.83064e+07 0 
0 0 0 
-7.48549e+06 2.20145e+06 0 
2.20145e+06 1.18509e+07 0 
0 0 0 
-1.90322e+07 -4.13708e+06 0 
-4.13708e+06 -2.40506e+06 0 
0 0 0 
-3.90711e+07 4.25152e+06 0 
4.25152e+06 -1.9403e+06 0 
0 0 0 
-4.83158e+07 8.66843e+06 0 
8.66843e+06 -2.27294e+07 0 
0 0 0 
-6.04544e+07 2.18571e+06 0 
2.18571e+06 -3.05776e+07 0 
0 0 0 
-5.15361e+07 4.17439e+06 0 
4.17439e+06 -3.41712e+07 0 
0 0 0 
-1.57526e+07 1.03451e+07 0 
1.03451e+07 -6.59058e+06 0 
0 0 0 
1.54118e+07 7.93106e+06 0 
7.93106e+06 2.40806e+07 0 
0 0 0 
1.89004e+07 697829 0 
697829 4.93932e+06 0 
0 0 0 
2.76918e+07 1.0219e+07 0 
1.0219e+07 2.13796e+07 0 
0 0 0 
87330.1 -1.78913e+06 0 
-1.78913e+06 -2.61064e+07 0 
0 0 0 
5.7246e+06 -8.38904e+06 0 
-8.38904e+06 3.94502e+06 0 
0 0 0 
0 0 0 
0 0 0 
0 0 0 
7.76355e+06 -4.62179e+06 0 
-4.62179e+06 1.06933e+07 0 
0 0 0 
4.70137e+07 -4.93448e+06 0 
-4.93448e+06 1.90561e+07 0 
0 0 0 
-1.46223e+07 -992406 0 
-992406 541444 0 
0 0 0 
2.3849e+07 5.31083e+06 0 
5.31083e+06 6.13349e+06 0 
0 0 0 
-2.39773e+07 1.1118e+07 0 
1.1118e+07 -3.68351e+07 0 
0 0 0 
-6.90592e+07 -1.10409e+07 0 
-1.10409e+07 -5.43586e+07 0 
0 0 0 
-1.25593e+07 -4.78518e+06 0 
-4.78518e+06 -2.76053e+07 0 
0 0 0 
9.20065e+07 1.7484e+07 0 
1.7484e+07 3.69711e+07 0 
0 0 0 
-2.96862e+06 1.87327e+07 0 
1.87327e+07 2.61953e+07 0 
0 0 0 
-4.71476e+06 -4.72944e+06 0 
-4.72944e+06 2.31141e+06 0 
0 0 0 
2.92723e+06 5.93981e+06 0 
5.93981e+06 2.82299e+06 0 
0 0 0 
-1.7788e+07 6.21e+06 0 
6.21e+06 -4.84329e+06 0 
0 0 0 
-1.13651e+07 -1.987e+06 0 
-1.987e+06 -1.47022e+07 0 
0 0 0 
1.24465e+07 3.10006e+06 0 
3.10006e+06 -1.67646e+07 0 
0 0 0 
4.65577e+07 1.93048e+06 0 
1.93048e+06 -9.62776e+06 0 
0 0 0 
-7.08465e+07 1.40624e+07 0 
1.40624e+07 -2.33576e+07 0 
0 0 0 
3.50896e+06 6.90077e+06 0 
6.90077e+06 1.26625e+07 0 
0 0 0 
973441 -6.30921e+06 0 
-6.30921e+06 2.65258e+07 0 
0 0 0 
-1.49149e+07 1.60049e+06 0 
1.60049e+06 -4.30572e+07 0 
0 0 0 
2.4237e+07 -6.21162e+06 0 
-6.21162e+06 2.90883e+07 0 
0 0 0 
0 0 0 
0 0 0 
0 0 0 
-1.87709e+06 -969921 0 
-969921 2.62846e+07 0 
0 0 0 
1.28193e+07 2.85275e+06 0 
2.85275e+06 1.71564e+07 0 
0 0 0 
7.5086e+06 1.51175e+06 0 
1.51175e+06 -3.16019e+07 0 
0 0 0 
1.72761e+07 -4.77415e+06 0 
-4.77415e+06 1.216e+07 0 
0 0 0 
2.23391e+07 -1.09241e+06 0 
-1.09241e+06 3.00971e+07 0 
0 0 0 
1.79716e+07 -879547 0 
-879547 1.51425e+07 0 
0 0 0 
7.62266e+06 3.65509e+06 0 
3.65509e+06 2.42993e+07 0 
0 0 0 
-216984 1.52922e+06 0 
1.52922e+06 -2.51667e+06 0 
0 0 0 
3.16984e+07 5.08091e+06 0 
5.08091e+06 3.80186e+07 0 
0 0 0 
-5.66544e+06 9.55686e+06 0 
9.55686e+06 -2.31291e+07 0 
0 0 0 
1.05394e+07 1.26717e+07 0 
1.26717e+07 3.55407e+06 0 
0 0 0 
2.37652e+07 1.9145e+07 0 
1.9145e+07 -6.54293e+06 0 
0 0 0 
3.31509e+07 1.46491e+07 0 
1.46491e+07 1.79693e+07 0 
0 0 0 
1.96409e+07 1.55718e+07 0 
1.55718e+07 1.09841e+07 0 
0 0 0 
3.75672e+06 900362 0 
900362 1.35878e+06 0 
0 0 0 
-1.46184e+07 1.31744e+06 0 
1.31744e+06 411453 0 
0 0 0 
-4.77969e+07 -7.51485e+06 0 
-7.51485e+06 -4.72848e+07 0 
0 0 0 
-4.17584e+07 -1.81088e+06 0 
-1.81088e+06 -2.41729e+07 0 
0 0 0 
-2.58608e+07 3.97683e+06 0 
3.97683e+06 -2.42241e+07 0 
0 0 0 
0 0 0 
0 0 0 
0 0 0 
2.01111e+06 -7.57538e+06 0 
-7.57538e+06 -8.1795e+06 0 
0 0 0 
3.0311e+07 -1.27969e+06 0 
-1.27969e+06 1.43595e+07 0 
0 0 0 
-2.42584e+06 -5.36102e+06 0 
-5.36102e+06 1.23648e+07 0 
0 0 0 
5.7166e+07 -1.63466e+06 0 
-1.63466e+06 3.45052e+07 0 
0 0 0 
-2.40768e+07 2.95772e+06 0 
2.95772e+06 1.25455e+07 0 
0 0 0 
-4.70069e+07 3.34933e+06 0 
3.34933e+06 5.64167e+06 0 
0 0 0 
6.88894e+06 4.74103e+06 0 
4.74103e+06 3.18533e+07 0 
0 0 0 
1.24455e+08 1.54614e+07 0 
1.54614e+07 5.80138e+07 0 
0 0 0 
-3.80118e+07 8.50989e+06 0 
8.50989e+06 -8.12702e+06 0 
0 0 0 
-7.93873e+06 -1.0194e+06 0 
-1.0194e+06 1.44925e+07 0 
0 0 0 
8.31542e+06 1.38444e+06 0 
1.38444e+06 6.15213e+06 0 
0 0 0 
-2.91076e+07 -5.51299e+06 0 
-5.51299e+06 -3.37854e+07 0 
0 0 0 
-6.55742e+06 2.89633e+06 0 
2.89633e+06 -2.25196e+07 0 
0 0 0 
1.31057e+07 3.8892e+06 0 
3.8892e+06 -1.50692e+07 0 
0 0 0 
5.45917e+07 1.24823e+07 0 
1.24823e+07 -319527 0 
0 0 0 
-7.954e+07 8.37867e+06 0 
8.37867e+06 -5.07847e+07 0 
0 0 0 
-1.12582e+07 6.25051e+06 0 
6.25051e+06 -3.02858e+07 0 
0 0 0 
-2.70426e+07 1.42617e+07 0 
1.42617e+07 -3.19784e+07 0 
0 0 0 
2.08975e+07 -3.39504e+06 0 
-3.39504e+06 1.89871e+06 0 
0 0 0 
-8.05633e+06 1.47572e+07 0 
1.47572e+07 -750273 0 
0 0 0 
-1.0756e+07 -1.69858e+06 0 
-1.69858e+06 1.20594e+07 0 
0 0 0 
0 0 0 
0 0 0 
0 0 0 
1.28372e+07 -1.51275e+06 0 
-1.51275e+06 3.62842e+07 0 
0 0 0 
-1.86233e+07 8.92673e+06 0 
8.92673e+06 939620 0 
0 0 0 
-4.68956e+07 -1.28163e+06 0 
-1.28163e+06 -4.40255e+07 0 
0 0 0 
-2.82259e+07 1.20414e+07 0 
1.20414e+07 -5.64559e+06 0 
0 0 0 
-1.27668e+07 3.67847e+06 0 
3.67847e+06 1.07471e+07 0 
0 0 0 
-4.57201e+06 -4.09234e+06 0 
-4.09234e+06 1.17351e+07 0 
0 0 0 
903190 -1.28491e+07 0 
-1.28491e+07 2.71633e+07 0 
0 0 0 
-1.39024e+07 6.99745e+06 0 
6.99745e+06 -7.06092e+06 0 
0 0 0 
-7.8064e+06 -3.96732e+06 0 
-3.96732e+06 3.04173e+07 0 
0 0 0 
-1.42624e+07 6.23753e+06 0 
6.23753e+06 -2.55473e+07 0 
0 0 0 
964046 1.37734e+07 0 
1.37734e+07 1.40189e+07 0 
0 0 0 
-7.63012e+06 2.1804e+07 0 
2.1804e+07 -1.89155e+07 0 
0 0 0 
1.0123e+06 9.35957e+06 0 
9.35957e+06 5.32736e+06 0 
0 0 0 
-1.54862e+06 6.71591e+06 0 
6.71591e+06 -3.00087e+06 0 
0 0 0 
2.16626e+07 -188205 0 
-188205 -5.68033e+06 0 
0 0 0 
2.90245e+07 -1.28752e+07 0 
-1.28752e+07 9.17103e+06 0 
0 0 0 
3.39775e+07 -3.87288e+06 0 
-3.87288e+06 -1.2047e+07 0 
0 0 0 
6.96853e+07 7.48795e+06 0 
7.48795e+06 2.31437e+07 0 
0 0 0 
7.3943e+07 2.46906e+07 0 
2.46906e+07 2.33462e+07 0 
0 0 0 
6.97797e+07 1.93937e+07 0 
1.93937e+07 2.35347e+07 0 
0 0 0 
0 0 0 
0 0 0 
0 0 0 
1.02535e+07 -2.7768e+06 0 
-2.7768e+06 1.71527e+07 0 
0 0 0 
2.45063e+07 5.04252e+06 0 
5.04252e+06 2.49064e+07 0 
0 0 0 
-1.13037e+07 -3.60112e+06 0 
-3.60112e+06 1.55305e+07 0 
0 0 0 
7.75234e+07 -1.18461e+07 0 
-1.18461e+07 2.73929e+07 0 
0 0 0 
-3.01023e+07 3.40719e+06 0 
3.40719e+06 -2.64895e+07 0 
0 0 0 
-7.42724e+07 -4.57187e+06 0 
-4.57187e+06 -4.30206e+07 0 
0 0 0 
1.76169e+07 8.49506e+06 0 
8.49506e+06 -7.40551e+06 0 
0 0 0 
1.01855e+08 1.92e+07 0 
1.92e+07 4.02399e+07 0 
0 0 0 
-4.41442e+07 1.26097e+06 0 
1.26097e+06 -2.26139e+07 0 
0 0 0 
-2.36281e+07 2.51252e+06 0 
2.51252e+06 -3.32521e+07 0 
0 0 0 
-1.40261e+07 -5.86369e+06 0 
-5.86369e+06 -1.81774e+07 0 
0 0 0 
-1.23815e+07 -4.14272e+06 0 
-4.14272e+06 -6.22514e+06 0 
0 0 0 
1.92104e+06 -2.45464e+06 0 
-2.45464e+06 -9.17297e+06 0 
0 0 0 
1.87848e+07 -3.7879e+06 0 
-3.7879e+06 -2.07742e+06 0 
0 0 0 
7.91217e+07 1.04528e+07 0 
1.04528e+07 2.68477e+07 0 
0 0 0 
-6.77036e+07 2.03899e+07 0 
2.03899e+07 -1.23758e+07 0 
0 0 0 
9.61444e+06 1.90985e+07 0 
1.90985e+07 2.61465e+07 0 
0 0 0 
-2.99089e+07 1.19614e+06 0 
1.19614e+06 2.27511e+07 0 
0 0 0 
3.57923e+07 -4.1051e+06 0 
-4.1051e+06 4.70876e+07 0 
0 0 0 
-5.58231e+06 6.99965e+06 0 
6.99965e+06 1.75428e+07 0 
0 0 0 
9.12666e+07 1.15924e+07 0 
1.15924e+07 3.81042e+07 0 
0 0 0 
7.92726e+07 3.15882e+06 0 
3.15882e+06 2.88155e+07 0 
0 0 0 
0 0 0 
0 0 0 
0 0 0 
5.89017e+06 -1.10287e+07 0 
-1.10287e+07 2.18339e+07 0 
0 0 0 
-2.93528e+06 -1.05121e+07 0 
-1.05121e+07 1.70523e+07 0 
0 0 0 
-1.23689e+07 4.72565e+06 0 
4.72565e+06 -2.50996e+07 0 
0 0 0 
1.06417e+07 5.14795e+06 0 
5.14795e+06 1.82006e+07 0 
0 0 0 
1.03008e+07 1.23976e+07 0 
1.23976e+07 574051 0 
0 0 0 
2.24662e+07 5.90298e+06 0 
5.90298e+06 2.89359e+07 0 
0 0 0 
3.70002e+07 3.16415e+06 0 
3.16415e+06 2.40052e+07 0 
0 0 0 
4.67342e+07 -868019 0 
-868019 2.49518e+07 0 
0 0 0 
4.74932e+07 -899351 0 
-899351 3.61502e+07 0 
0 0 0 
4.51404e+07 8.8627e+06 0 
8.8627e+06 1.513e+07 0 
0 0 0 
3.40248e+07 3.60375e+06 0 
3.60375e+06 2.13224e+07 0 
0 0 0 
-1.71844e+07 1.10839e+07 0 
1.10839e+07 -1.09457e+07 0 
0 0 0 
-3.81594e+07 6.56008e+06 0 
6.56008e+06 -1.98434e+07 0 
0 0 0 
-3.68226e+07 6.22399e+06 0 
6.22399e+06 -2.54078e+07 0 
0 0 0 
-3.22354e+07 1.12444e+07 0 
1.12444e+07 -1.38202e+07 0 
0 0 0 
3.46117e+06 1.1658e+06 0 
1.1658e+06 -7.14424e+06 0 
0 0 0 
2.10851e+07 1.22812e+07 0 
1.22812e+07 -4.28013e+06 0 
0 0 0 
3.82625e+07 1.42541e+07 0 
1.42541e+07 3.41831e+07 0 
0 0 0 
1.47278e+07 1.15939e+07 0 
1.15939e+07 1.77278e+06 0 
0 0 0 
-7.77533e+06 8.86076e+06 0 
8.86076e+06 -9.07569e+06 0 
0 0 0 
-2.1488e+07 6.79067e+06 0 
6.79067e+06 -3.93605e+06 0 
0 0 0 
0 0 0 
0 0 0 
0 0 0 
1.51626e+07 1.72765e+06 0 
1.72765e+06 -1.09969e+06 0 
0 0 0 
-6.86942e+06 3.96709e+06 0 
3.96709e+06 -1.62766e+07 0 
0 0 0 
-4.8267e+07 -2.55449e+06 0 
-2.55449e+06 -2.89631e+07 0 
0 0 0 
1.10649e+08 -1.88072e+07 0 
-1.88072e+07 3.74581e+07 0 
0 0 0 
-2.67917e+07 -2.94195e+06 0 
-2.94195e+06 -9.88087e+06 0 
0 0 0 
-4.53046e+07 6.50678e+06 0 
6.50678e+06 -9.15075e+06 0 
0 0 0 
3.4995e+07 1.77917e+07 0 
1.77917e+07 1.69503e+07 0 
0 0 0 
7.64626e+07 1.28106e+07 0 
1.28106e+07 2.99737e+06 0 
0 0 0 
-5.04329e+07 4.67821e+06 0 
4.67821e+06 -3.38137e+07 0 
0 0 0 
-3.37323e+07 -596769 0 
-596769 -2.1674e+07 0 
0 0 0 
-1.65634e+07 -3.83914e+06 0 
-3.83914e+06 -2.90386e+07 0 
0 0 0 
-1.94997e+07 -307013 0 
-307013 -2.30992e+07 0 
0 0 0 
2.28749e+06 -6.37673e+06 0 
-6.37673e+06 -6.36677e+06 0 
0 0 0 
2.85951e+07 7.69651e+06 0 
7.69651e+06 6.38264e+06 0 
0 0 0 
9.06859e+07 7.34968e+06 0 
7.34968e+06 2.10733e+07 0 
0 0 0 
-6.10715e+07 1.43039e+07 0 
1.43039e+07 -4.05869e+07 0 
0 0 0 
-2.80944e+07 1.17538e+07 0 
1.17538e+07 -3.51296e+07 0 
0 0 0 
-7.11018e+07 1.36411e+07 0 
1.36411e+07 -5.29599e+07 0 
0 0 0 
1.99483e+07 -967930 0 
-967930 -3.43797e+07 0 
0 0 0 
-3.43043e+07 -2.68474e+06 0 
-2.68474e+06 -4.40418e+07 0 
0 0 0 
7.27127e+07 2.23022e+06 0 
2.23022e+06 -1.96172e+06 0 
0 0 0 
-2.7557e+07 -9.50079e+06 0 
-9.50079e+06 -2.76232e+07 0 
0 0 0 
-4.95488e+07 -447800 0 
-447800 -3.70022e+07 0 
0 0 0 
0 0 0 
0 0 0 
0 0 0 
9.65843e+06 920627 0 
920627 1.30992e+07 0 
0 0 0 
4.43236e+07 5.08832e+06 0 
5.08832e+06 3.97513e+07 0 
0 0 0 
3.78429e+07 6.7667e+06 0 
6.7667e+06 1.36738e+07 0 
0 0 0 
4.42338e+07 2.4928e+07 0 
2.4928e+07 3.55457e+07 0 
0 0 0 
2.46658e+07 1.46589e+07 0 
1.46589e+07 296305 0 
0 0 0 
3.32573e+07 1.04097e+07 0 
1.04097e+07 2.35908e+07 0 
0 0 0 
4.51542e+07 2.85154e+06 0 
2.85154e+06 1.17561e+07 0 
0 0 0 
3.43636e+07 -6.95068e+06 0 
-6.95068e+06 1.98921e+07 0 
0 0 0 
3.54121e+07 -1306.73 0 
-1306.73 3.01963e+07 0 
0 0 0 
1.76985e+07 159498 0 
159498 1.77712e+07 0 
0 0 0 
2.32612e+06 -2.58127e+06 0 
-2.58127e+06 3.21585e+06 0 
0 0 0 
2.56406e+07 -1.17529e+06 0 
-1.17529e+06 8.71494e+06 0 
0 0 0 
3.05574e+07 5.44884e+06 0 
5.44884e+06 1.47732e+07 0 
0 0 0 
3.01438e+07 2.15378e+07 0 
2.15378e+07 1.75706e+06 0 
0 0 0 
2.19037e+07 1.34055e+07 0 
1.34055e+07 -4.69997e+06 0 
0 0 0 
9.52541e+06 1.52906e+07 0 
1.52906e+07 9.5751e+06 0 
0 0 0 
848164 1.0109e+07 0 
1.0109e+07 -1.93342e+07 0 
0 0 0 
-1.34372e+06 1.08557e+07 0 
1.08557e+07 2.22544e+07 0 
0 0 0 
-1.53185e+07 2.20442e+06 0 
2.20442e+06 -3.33743e+06 0 
0 0 0 
-4.41415e+07 5.98738e+06 0 
5.98738e+06 -3.27398e+07 0 
0 0 0 
-6.06487e+07 -4.63315e+06 0 
-4.63315e+06 -3.33465e+07 0 
0 0 0 
-7.49288e+07 -5.4152e+06 0 
-5.4152e+06 -3.76062e+07 0 
0 0 0 
0 0 0 
0 0 0 
0 0 0 
2.60013e+07 -1.77993e+06 0 
-1.77993e+06 1.36776e+07 0 
0 0 0 
-2.22906e+07 -4.11332e+06 0 
-4.11332e+06 6.79401e+06 0 
0 0 0 
-2.11386e+07 5.47011e+06 0 
5.47011e+06 -2.51731e+06 0 
0 0 0 
1.0649e+08 -1.34969e+06 0 
-1.34969e+06 3.2998e+07 0 
0 0 0 
-2.3636e+07 -1.25975e+06 0 
-1.25975e+06 3.17089e+06 0 
0 0 0 
-2.92583e+07 -2.74679e+06 0 
-2.74679e+06 -1.09555e+07 0 
0 0 0 
4.50072e+07 6.90507e+06 0 
6.90507e+06 1.53756e+07 0 
0 0 0 
6.22272e+07 3.9059e+06 0 
3.9059e+06 2.58078e+07 0 
0 0 0 
-4.11036e+07 -2.46463e+06 0 
-2.46463e+06 -3.59722e+07 0 
0 0 0 
-5.47153e+07 2.06674e+06 0 
2.06674e+06 -4.73817e+07 0 
0 0 0 
-9.98009e+06 3.9991e+06 0 
3.9991e+06 -4.16568e+06 0 
0 0 0 
954201 7.53416e+06 0 
7.53416e+06 1.55905e+07 0 
0 0 0 
-1.68784e+06 -2.50732e+06 0 
-2.50732e+06 1.25509e+07 0 
0 0 0 
3.62224e+07 -552775 0 
-552775 1.70446e+07 0 
0 0 0 
1.01738e+08 815118 0 
815118 4.01857e+07 0 
0 0 0 
-3.83513e+07 7.61948e+06 0 
7.61948e+06 -1.19713e+07 0 
0 0 0 
-2.0307e+07 1.6542e+07 0 
1.6542e+07 -1.01772e+07 0 
0 0 0 
-6.7234e+07 4.2308e+06 0 
4.2308e+06 -3.25178e+07 0 
0 0 0 
3.20248e+06 -9.44194e+06 0 
-9.44194e+06 -7.03807e+06 0 
0 0 0 
-1.92284e+07 -1.50639e+06 0 
-1.50639e+06 -1.95829e+07 0 
0 0 0 
8.33378e+07 -6.19457e+06 0 
-6.19457e+06 2.35511e+06 0 
0 0 0 
-5.70369e+07 -2.15717e+06 0 
-2.15717e+06 -4.70754e+07 0 
0 0 0 
-6.63182e+07 -2.86824e+06 0 
-2.86824e+06 -4.69214e+07 0 
0 0 0 
-4.59242e+07 7.59362e+06 0 
7.59362e+06 -3.4128e+07 0 
0 0 0 
0 0 0 
0 0 0 
0 0 0 
1.83573e+06 -3.89155e+06 0 
-3.89155e+06 1.12336e+07 0 
0 0 0 
-5.86955e+06 7.1489e+06 0 
7.1489e+06 3.18001e+07 0 
0 0 0 
-2.17566e+07 1.3873e+06 0 
1.3873e+06 2.19766e+06 0 
0 0 0 
-2.78785e+07 1.04394e+07 0 
1.04394e+07 1.8861e+07 0 
0 0 0 
-4.10995e+07 1.21081e+06 0 
1.21081e+06 -3.38064e+07 0 
0 0 0 
-2.727e+07 1.12948e+07 0 
1.12948e+07 -7.9922e+06 0 
0 0 0 
-3.52904e+07 2.79857e+06 0 
2.79857e+06 -2.27366e+07 0 
0 0 0 
-7.9694e+06 -5.87436e+06 0 
-5.87436e+06 1.10513e+07 0 
0 0 0 
-1.71792e+06 5.0332e+06 0 
5.0332e+06 1.35855e+07 0 
0 0 0 
1.00776e+07 -5.65538e+06 0 
-5.65538e+06 5.25306e+06 0 
0 0 0 
3.44889e+07 -5.38262e+06 0 
-5.38262e+06 1.86348e+07 0 
0 0 0 
2.12124e+07 -840547 0 
-840547 1.03286e+07 0 
0 0 0 
3.45385e+07 6.41558e+06 0 
6.41558e+06 4.81422e+07 0 
0 0 0 
2.68135e+06 9.28008e+06 0 
9.28008e+06 -7.5218e+06 0 
0 0 0 
-1.79204e+07 1.06659e+07 0 
1.06659e+07 -7.91533e+06 0 
0 0 0 
-4.55754e+07 4.10509e+06 0 
4.10509e+06 -3.99329e+07 0 
0 0 0 
-5.33688e+07 2.28893e+06 0 
2.28893e+06 -1.55861e+07 0 
0 0 0 
-6.10937e+07 -1.44155e+06 0 
-1.44155e+06 -2.52498e+07 0 
0 0 0 
-5.96227e+07 -2.94762e+06 0 
-2.94762e+06 2.57698e+06 0 
0 0 0 
-4.41317e+07 -3.29921e+06 0 
-3.29921e+06 -3.89151e+07 0 
0 0 0 
-2.0517e+07 4.90778e+06 0 
4.90778e+06 -3.09843e+07 0 
0 0 0 
1.88194e+07 -3.24061e+06 0 
-3.24061e+06 -3.76622e+06 0 
0 0 0 
4.76615e+07 1.18977e+07 0 
1.18977e+07 -2.40305e+06 0 
0 0 0 
0 0 0 
0 0 0 
0 0 0 
4.0006e+06 -9.21347e+06 0 
-9.21347e+06 -1.39183e+07 0 
0 0 0 
-4.03203e+07 339010 0 
339010 -4.50461e+07 0 
0 0 0 
-1.54559e+07 -6.31586e+06 0 
-6.31586e+06 -2.41688e+07 0 
0 0 0 
1.03595e+08 -1.0044e+07 0 
-1.0044e+07 3.02432e+07 0 
0 0 0 
-3.35456e+07 -7.91117e+06 0 
-7.91117e+06 -2.05634e+07 0 
0 0 0 
-1.47321e+07 4.66809e+06 0 
4.66809e+06 2.45177e+06 0 
0 0 0 
6.5065e+07 1.18653e+07 0 
1.18653e+07 3.13614e+07 0 
0 0 0 
3.98555e+07 -2.00618e+06 0 
-2.00618e+06 7.05552e+06 0 
0 0 0 
-2.78228e+07 292768 0 
292768 -2.13164e+06 0 
0 0 0 
-2.45478e+07 6.46938e+06 0 
6.46938e+06 1.57498e+07 0 
0 0 0 
-1.33897e+07 1.27061e+07 0 
1.27061e+07 1.42992e+07 0 
0 0 0 
1.37249e+07 7.42394e+06 0 
7.42394e+06 1.06522e+07 0 
0 0 0 
-9.78592e+06 6.39527e+06 0 
6.39527e+06 4.32669e+06 0 
0 0 0 
-35106.1 1.60023e+06 0 
1.60023e+06 1.07652e+07 0 
0 0 0 
1.29195e+08 -2.04115e+06 0 
-2.04115e+06 3.17033e+07 0 
0 0 0 
-5.05843e+07 2.60978e+06 0 
2.60978e+06 -3.83663e+07 0 
0 0 0 
-3.11055e+07 2.22085e+06 0 
2.22085e+06 -4.43105e+07 0 
0 0 0 
-7.89215e+07 1.90272e+06 0 
1.90272e+06 -5.29562e+07 0 
0 0 0 
-5.87494e+06 -76042.1 0 
-76042.1 -2.20284e+07 0 
0 0 0 
-9.45659e+06 4.53431e+06 0 
4.53431e+06 -1.45795e+07 0 
0 0 0 
8.39611e+07 1.83484e+06 0 
1.83484e+06 3.02321e+07 0 
0 0 0 
-3.84124e+07 -691998 0 
-691998 -6.29454e+06 0 
0 0 0 
-1.80314e+07 2.31318e+06 0 
2.31318e+06 1.90989e+06 0 
0 0 0 
5.16416e+07 6.47604e+06 0 
6.47604e+06 -6.73868e+06 0 
0 0 0 
4.25084e+07 -3.8465e+06 0 
-3.8465e+06 1.07016e+07 0 
0 0 0 
0 0 0 
0 0 0 
0 0 0 
-4.49902e+06 -4.18608e+06 0 
-4.18608e+06 -2.06742e+06 0 
0 0 0 
1.21013e+07 -2.72327e+06 0 
-2.72327e+06 4.96126e+07 0 
0 0 0 
3.94573e+06 -3.19365e+06 0 
-3.19365e+06 1.48282e+07 0 
0 0 0 
1.17888e+07 3.34231e+06 0 
3.34231e+06 1.85535e+07 0 
0 0 0 
1.02082e+07 5.84695e+06 0 
5.84695e+06 -5.3615e+06 0 
0 0 0 
-3.46779e+06 -2.05968e+06 0 
-2.05968e+06 -6.27813e+06 0 
0 0 0 
-2.9458e+06 1.91348e+07 0 
1.91348e+07 2.73643e+06 0 
0 0 0 
2.38137e+07 1.07031e+07 0 
1.07031e+07 2.39676e+07 0 
0 0 0 
2.88368e+07 1.27088e+07 0 
1.27088e+07 1.5736e+07 0 
0 0 0 
3.20986e+07 1.72841e+07 0 
1.72841e+07 4.21175e+06 0 
0 0 0 
4.07528e+07 1.37193e+07 0 
1.37193e+07 2.89839e+07 0 
0 0 0 
4.85904e+07 1.04948e+07 0 
1.04948e+07 1.6739e+07 0 
0 0 0 
6.11868e+07 5.69452e+06 0 
5.69452e+06 6.62767e+07 0 
0 0 0 
3.49659e+07 1.06724e+06 0 
1.06724e+06 -5.58227e+06 0 
0 0 0 
4.66031e+07 -9.15658e+06 0 
-9.15658e+06 1.87066e+07 0 
0 0 0 
2.96061e+07 -7.73576e+06 0 
-7.73576e+06 -2.61244e+07 0 
0 0 0 
4.10864e+07 2.02644e+06 0 
2.02644e+06 2.15543e+07 0 
0 0 0 
4.34376e+07 3.72442e+06 0 
3.72442e+06 2.19854e+07 0 
0 0 0 
4.81331e+07 6.41892e+06 0 
6.41892e+06 1.8739e+07 0 
0 0 0 
2.41215e+07 4.89924e+06 0 
4.89924e+06 -3.57855e+06 0 
0 0 0 
2.49564e+07 9.18708e+06 0 
9.18708e+06 -4.10612e+06 0 
0 0 0 
2.27417e+07 1.83212e+07 0 
1.83212e+07 -2.29336e+07 0 
0 0 0 
1.66259e+07 8.05168e+06 0 
8.05168e+06 1.29022e+07 0 
0 0 0 
-3.70107e+07 6.77464e+06 0 
6.77464e+06 -6.8977e+07 0 
0 0 0 
0 0 0 
0 0 0 
0 0 0 
5.37788e+06 -4.17463e+06 0 
-4.17463e+06 1.56271e+07 0 
0 0 0 
-2.60088e+07 -5.55346e+06 0 
-5.55346e+06 5.00853e+06 0 
0 0 0 
1.28796e+07 1.7536e+07 0 
1.7536e+07 1.1209e+07 0 
0 0 0 
9.81128e+07 2.59578e+06 0 
2.59578e+06 3.97424e+07 0 
0 0 0 
-1.70765e+07 4.58193e+06 0 
4.58193e+06 8.55926e+06 0 
0 0 0 
-5.58919e+06 7.28959e+06 0 
7.28959e+06 1.03936e+07 0 
0 0 0 
7.71549e+07 7.60708e+06 0 
7.60708e+06 4.14239e+07 0 
0 0 0 
3.61194e+07 -1.13528e+06 0 
-1.13528e+06 4.01038e+07 0 
0 0 0 
-2.362e+07 -3.35479e+06 0 
-3.35479e+06 6.28767e+06 0 
0 0 0 
-2.88806e+07 5.26183e+06 0 
5.26183e+06 -8.59956e+06 0 
0 0 0 
-7.41483e+06 7.95198e+06 0 
7.95198e+06 8174.83 0 
0 0 0 
6.06736e+06 5.57533e+06 0 
5.57533e+06 4.9796e+06 0 
0 0 0 
-2.81571e+07 -8.66737e+06 0 
-8.66737e+06 -1.54576e+07 0 
0 0 0 
-6.9239e+06 -307540 0 
-307540 -1.09138e+07 0 
0 0 0 
1.19374e+08 -9.67224e+06 0 
-9.67224e+06 3.28659e+07 0 
0 0 0 
-3.21265e+07 -1.20926e+06 0 
-1.20926e+06 -2.17426e+07 0 
0 0 0 
-1.73799e+07 8.14583e+06 0 
8.14583e+06 -6.77961e+06 0 
0 0 0 
-7.38975e+07 1.12559e+07 0 
1.12559e+07 -3.1359e+07 0 
0 0 0 
1.74516e+07 -823261 0 
-823261 5.18185e+06 0 
0 0 0 
-2.30726e+07 7.96123e+06 0 
7.96123e+06 -9.16374e+06 0 
0 0 0 
8.99712e+07 2.06188e+06 0 
2.06188e+06 3.90829e+07 0 
0 0 0 
-2.54614e+07 4.45118e+06 0 
4.45118e+06 1.68463e+07 0 
0 0 0 
-1.65586e+07 9.13186e+06 0 
9.13186e+06 1.71364e+07 0 
0 0 0 
3.60359e+07 -1.58074e+07 0 
-1.58074e+07 3.2833e+07 0 
0 0 0 
-1.88965e+07 -2.82827e+06 0 
-2.82827e+06 -7.80353e+06 0 
0 0 0 
-2.67961e+07 -9.46745e+06 0 
-9.46745e+06 -1.04363e+07 0 
0 0 0 
0 0 0 
0 0 0 
0 0 0 
3.69942e+06 -4.19285e+06 0 
-4.19285e+06 -9.54043e+06 0 
0 0 0 
1.87222e+07 -3.18456e+06 0 
-3.18456e+06 5.06149e+07 0 
0 0 0 
4.6251e+06 90606.3 0 
90606.3 2.77419e+07 0 
0 0 0 
3.29464e+06 9.21418e+06 0 
9.21418e+06 1.25872e+07 0 
0 0 0 
-3.16407e+07 257151 0 
257151 -2.3513e+07 0 
0 0 0 
-2.52211e+07 2.59271e+06 0 
2.59271e+06 -3.65966e+06 0 
0 0 0 
-2.71461e+07 8.76779e+06 0 
8.76779e+06 1.90081e+06 0 
0 0 0 
-3.64299e+07 8.21487e+06 0 
8.21487e+06 9.36628e+06 0 
0 0 0 
-1.53068e+07 1.37205e+07 0 
1.37205e+07 2.65247e+06 0 
0 0 0 
-9.55254e+06 1.77719e+07 0 
1.77719e+07 -9.0177e+06 0 
0 0 0 
726215 2.77576e+06 0 
2.77576e+06 8.19014e+06 0 
0 0 0 
-1.46298e+07 5.73628e+06 0 
5.73628e+06 -5.51018e+06 0 
0 0 0 
-1.78794e+07 -4.62563e+06 0 
-4.62563e+06 3.74811e+07 0 
0 0 0 
-5.71076e+07 3.90574e+06 0 
3.90574e+06 -4.95786e+07 0 
0 0 0 
-4.18621e+07 -4.33614e+06 0 
-4.33614e+06 -1.52617e+07 0 
0 0 0 
-3.86654e+07 -2.2738e+06 0 
-2.2738e+06 -3.64097e+07 0 
0 0 0 
-3.72306e+06 2.58768e+06 0 
2.58768e+06 9.96387e+06 0 
0 0 0 
5.75988e+06 194357 0 
194357 1.09525e+07 0 
0 0 0 
1.81914e+07 406411 0 
406411 1.73318e+07 0 
0 0 0 
1.7036e+07 2.10676e+06 0 
2.10676e+06 -2.17308e+07 0 
0 0 0 
2.47762e+07 6.3855e+06 0 
6.3855e+06 2.3028e+07 0 
0 0 0 
-3.25418e+07 -613129 0 
-613129 -6.4161e+07 0 
0 0 0 
-3.09391e+07 -2.77451e+06 0 
-2.77451e+06 8.77414e+06 0 
0 0 0 
-6.55229e+07 -3.16105e+06 0 
-3.16105e+06 -9.84603e+07 0 
0 0 0 
-5.29695e+07 -5.40442e+06 0 
-5.40442e+06 -6.54612e+06 0 
0 0 0 
0 0 0 
0 0 0 
0 0 0 
-2.81516e+07 -1.6227e+07 0 
-1.6227e+07 -3.18172e+07 0 
0 0 0 
-1.22207e+06 7.32658e+06 0 
7.32658e+06 -1.27212e+07 0 
0 0 0 
1.85477e+07 1.13145e+07 0 
1.13145e+07 7.36983e+06 0 
0 0 0 
7.17831e+07 -1.46937e+06 0 
-1.46937e+06 2.57925e+07 0 
0 0 0 
3.70435e+06 3.07407e+06 0 
3.07407e+06 1.9829e+07 0 
0 0 0 
1.34931e+07 1.79844e+07 0 
1.79844e+07 3.62683e+07 0 
0 0 0 
4.42178e+07 8.09743e+06 0 
8.09743e+06 4.67155e+07 0 
0 0 0 
3.73434e+07 -1.74157e+07 0 
-1.74157e+07 3.44308e+07 0 
0 0 0 
-1.05909e+07 -7.82653e+06 0 
-7.82653e+06 2.00769e+07 0 
0 0 0 
-2.06575e+07 981751 0 
981751 9.23387e+06 0 
0 0 0 
-286184 3.48513e+06 0 
3.48513e+06 -3.35604e+06 0 
0 0 0 
-1.81265e+06 988612 0 
988612 -1.42288e+07 0 
0 0 0 
-2.90206e+07 1.04917e+07 0 
1.04917e+07 -6.33636e+06 0 
0 0 0 
-2.18595e+07 -5.40633e+06 0 
-5.40633e+06 -8.11702e+06 0 
0 0 0 
1.06372e+08 -1.56841e+07 0 
-1.56841e+07 2.06342e+07 0 
0 0 0 
-2.89686e+07 -1.09486e+07 0 
-1.09486e+07 -3.22757e+07 0 
0 0 0 
3.72475e+06 3.80004e+06 0 
3.80004e+06 -3.45448e+07 0 
0 0 0 
-9.39435e+07 7.37144e+06 0 
7.37144e+06 -5.87801e+07 0 
0 0 0 
1.23718e+07 5.93108e+06 0 
5.93108e+06 -3.14808e+07 0 
0 0 0 
-3.74531e+07 8.28127e+06 0 
8.28127e+06 -3.46705e+07 0 
0 0 0 
6.13306e+07 1.02029e+07 0 
1.02029e+07 -8.26749e+06 0 
0 0 0 
-2.06444e+07 1.51715e+06 0 
1.51715e+06 -4.14267e+07 0 
0 0 0 
-5.25911e+07 3.15647e+06 0 
3.15647e+06 -5.16172e+07 0 
0 0 0 
3.17605e+06 -4.64064e+06 0 
-4.64064e+06 -3.0735e+07 0 
0 0 0 
-2.60217e+07 -1.72211e+06 0 
-1.72211e+06 -1.03826e+07 0 
0 0 0 
-5.33145e+07 -3.86191e+06 0 
-3.86191e+06 -3.79826e+07 0 
0 0 0 
-2.20403e+07 8.05265e+06 0 
8.05265e+06 1.7964e+07 0 
0 0 0 
0 0 0 
0 0 0 
0 0 0 
888360 5.2726e+06 0 
5.2726e+06 -1.0263e+07 0 
0 0 0 
3.20437e+07 3.03685e+06 0 
3.03685e+06 6.4972e+07 0 
0 0 0 
4.4505e+07 1.88552e+07 0 
1.88552e+07 4.04983e+07 0 
0 0 0 
4.47511e+07 6.0706e+06 0 
6.0706e+06 2.04039e+07 0 
0 0 0 
3.61972e+07 -961387 0 
-961387 -2.19516e+06 0 
0 0 0 
3.41106e+07 5.18535e+06 0 
5.18535e+06 1.3911e+07 0 
0 0 0 
2.66384e+07 4.07964e+06 0 
4.07964e+06 2.53115e+07 0 
0 0 0 
5.82255e+06 1.08546e+07 0 
1.08546e+07 2.68991e+07 0 
0 0 0 
-3.93645e+07 1.42225e+07 0 
1.42225e+07 2.16359e+06 0 
0 0 0 
-6.16295e+07 1.89962e+07 0 
1.89962e+07 -2.72816e+07 0 
0 0 0 
-5.99502e+07 1.19545e+07 0 
1.19545e+07 -2.74889e+07 0 
0 0 0 
-4.4869e+07 3.91782e+06 0 
3.91782e+06 -7.94555e+06 0 
0 0 0 
-1.25714e+07 -5.09467e+06 0 
-5.09467e+06 1.47433e+07 0 
0 0 0 
-3.4683e+06 -734255 0 
-734255 -3.6042e+06 0 
0 0 0 
-1.0718e+06 1.26606e+07 0 
1.26606e+07 -5.00039e+06 0 
0 0 0 
1.28683e+07 1.20723e+07 0 
1.20723e+07 -1.71327e+07 0 
0 0 0 
1.52758e+07 1.21598e+07 0 
1.21598e+07 1.77012e+07 0 
0 0 0 
-139830 8.49233e+06 0 
8.49233e+06 -2.16852e+06 0 
0 0 0 
6.17045e+06 1.03796e+07 0 
1.03796e+07 1.8713e+07 0 
0 0 0 
-2.27738e+07 -3.93539e+06 0 
-3.93539e+06 -3.57474e+07 0 
0 0 0 
-3.05487e+07 -1.54622e+06 0 
-1.54622e+06 -7.73987e+06 0 
0 0 0 
-3.57844e+07 -4.64741e+06 0 
-4.64741e+06 -4.59455e+07 0 
0 0 0 
-1.71577e+07 -560413 0 
-560413 537159 0 
0 0 0 
-5.23985e+07 3.82319e+06 0 
3.82319e+06 -8.25284e+07 0 
0 0 0 
-7.22216e+06 -812998 0 
-812998 -4.44016e+06 0 
0 0 0 
1.47993e+06 7.51024e+06 0 
7.51024e+06 -7.05024e+06 0 
0 0 0 
0 0 0 
0 0 0 
0 0 0 
-1.37804e+07 -1.17946e+06 0 
-1.17946e+06 1.78648e+07 0 
0 0 0 
3.52779e+07 1.51654e+07 0 
1.51654e+07 3.80111e+07 0 
0 0 0 
1.73269e+07 6.17306e+06 0 
6.17306e+06 1.57403e+07 0 
0 0 0 
6.13161e+07 1.10943e+07 0 
1.10943e+07 2.10068e+07 0 
0 0 0 
7.39958e+06 1.08063e+07 0 
1.08063e+07 -7.3947e+06 0 
0 0 0 
-5.14742e+06 6.07715e+06 0 
6.07715e+06 -2.79328e+07 0 
0 0 0 
-6.17468e+06 7.97784e+06 0 
7.97784e+06 -2.87555e+07 0 
0 0 0 
2.06049e+07 -3.5549e+06 0 
-3.5549e+06 -1.93927e+07 0 
0 0 0 
-2.5546e+07 -5.04604e+06 0 
-5.04604e+06 -3.65498e+07 0 
0 0 0 
-2.71818e+07 -3.87339e+06 0 
-3.87339e+06 -3.23216e+07 0 
0 0 0 
-5.45281e+06 -885840 0 
-885840 -3.05708e+07 0 
0 0 0 
-1.90061e+07 2.61458e+06 0 
2.61458e+06 -2.53307e+07 0 
0 0 0 
-8.84035e+06 -3.49556e+06 0 
-3.49556e+06 -1.97381e+07 0 
0 0 0 
-4.44434e+07 5.88127e+06 0 
5.88127e+06 -7.87557e+06 0 
0 0 0 
9.89016e+07 -9.23178e+06 0 
-9.23178e+06 6.00566e+07 0 
0 0 0 
9.32055e+06 -6.08106e+06 0 
-6.08106e+06 4.04942e+07 0 
0 0 0 
4.1448e+07 122324 0 
122324 5.07932e+07 0 
0 0 0 
-6.88183e+07 2.05239e+06 0 
2.05239e+06 -9.47118e+06 0 
0 0 0 
3.29817e+07 -2.80696e+06 0 
-2.80696e+06 2.12011e+07 0 
0 0 0 
-3.53251e+07 7.24108e+06 0 
7.24108e+06 -3.93249e+07 0 
0 0 0 
4.35267e+07 7.79026e+06 0 
7.79026e+06 -1.98189e+07 0 
0 0 0 
-2.20594e+07 3.62215e+06 0 
3.62215e+06 -3.36026e+07 0 
0 0 0 
-3.42165e+07 1.19616e+06 0 
1.19616e+06 -2.86975e+07 0 
0 0 0 
3.0818e+06 -6.52296e+06 0 
-6.52296e+06 -9.98236e+06 0 
0 0 0 
-3.01168e+07 3.13914e+06 0 
3.13914e+06 -2.91966e+07 0 
0 0 0 
-2.87627e+07 1.06326e+07 0 
1.06326e+07 -2.52486e+07 0 
0 0 0 
1.09222e+07 3.89253e+06 0 
3.89253e+06 2.36566e+07 0 
0 0 0 
-1.70187e+07 3.12268e+06 0 
3.12268e+06 -2.5456e+06 0 
0 0 0 
0 0 0 
0 0 0 
0 0 0 
-2.58877e+06 5.38758e+06 0 
5.38758e+06 1.13616e+06 0 
0 0 0 
2.45521e+07 2.68341e+06 0 
2.68341e+06 5.86676e+07 0 
0 0 0 
2.09126e+06 4.51711e+06 0 
4.51711e+06 1.84994e+07 0 
0 0 0 
-6.25951e+06 4.67903e+06 0 
4.67903e+06 1.30733e+07 0 
0 0 0 
-7.69646e+06 7544.08 0 
7544.08 -3.00013e+07 0 
0 0 0 
907413 -5.30215e+06 0 
-5.30215e+06 8.78626e+06 0 
0 0 0 
-5.7249e+06 5.22933e+06 0 
5.22933e+06 2.93294e+07 0 
0 0 0 
1.95656e+06 5.55834e+06 0 
5.55834e+06 2.24745e+07 0 
0 0 0 
4.69736e+06 6.35365e+06 0 
6.35365e+06 2.20546e+07 0 
0 0 0 
-3.06148e+07 1.36902e+07 0 
1.36902e+07 -2.1881e+07 0 
0 0 0 
-3.35117e+07 1.14127e+07 0 
1.14127e+07 -2.3394e+07 0 
0 0 0 
-7.23274e+06 1.1558e+07 0 
1.1558e+07 1.29866e+06 0 
0 0 0 
5.06674e+06 1.11775e+07 0 
1.11775e+07 6.30418e+06 0 
0 0 0 
2.2576e+07 6.02703e+06 0 
6.02703e+06 2.50221e+07 0 
0 0 0 
1.78219e+07 1.14818e+06 0 
1.14818e+06 -1.00847e+07 0 
0 0 0 
3.22102e+06 2.82829e+06 0 
2.82829e+06 2.12222e+06 0 
0 0 0 
-2.40665e+06 5.25206e+06 0 
5.25206e+06 7.58037e+06 0 
0 0 0 
558024 1.07372e+07 0 
1.07372e+07 -1.41258e+07 0 
0 0 0 
3.987e+06 -4.92307e+06 0 
-4.92307e+06 6.67645e+06 0 
0 0 0 
-342780 -45891.1 0 
-45891.1 -1.48729e+07 0 
0 0 0 
4.14694e+06 -6.92747e+06 0 
-6.92747e+06 -1.21366e+07 0 
0 0 0 
9.59802e+06 1.22954e+07 0 
1.22954e+07 -9.61908e+06 0 
0 0 0 
4.75495e+07 -4.3302e+06 0 
-4.3302e+06 1.49853e+07 0 
0 0 0 
4.41627e+07 8.89435e+06 0 
8.89435e+06 -4.22404e+07 0 
0 0 0 
6.01315e+07 -31443.3 0 
-31443.3 2.18396e+06 0 
0 0 0 
7.19312e+07 4.88686e+06 0 
4.88686e+06 1.25883e+07 0 
0 0 0 
6.43199e+07 -1.29396e+07 0 
-1.29396e+07 4.51965e+07 0 
0 0 0 
0 0 0 
0 0 0 
0 0 0 
-2.20692e+07 -9.77715e+06 0 
-9.77715e+06 -1.92222e+07 0 
0 0 0 
2.8874e+07 9.29533e+06 0 
9.29533e+06 -7.0199e+06 0 
0 0 0 
1.71397e+07 6.99014e+06 0 
6.99014e+06 1.63609e+06 0 
0 0 0 
4.43758e+07 1.77778e+06 0 
1.77778e+06 3.16644e+07 0 
0 0 0 
1.58674e+07 -1.60573e+07 0 
-1.60573e+07 1.82238e+07 0 
0 0 0 
1.83693e+07 4.26879e+06 0 
4.26879e+06 1.57918e+07 0 
0 0 0 
6.65388e+06 2.34955e+06 0 
2.34955e+06 -5.6524e+06 0 
0 0 0 
-1.60927e+06 -1.28455e+07 0 
-1.28455e+07 -1.13737e+07 0 
0 0 0 
-3.92866e+06 -1.31416e+07 0 
-1.31416e+07 -8.49275e+06 0 
0 0 0 
-2.78084e+07 -5.68408e+06 0 
-5.68408e+06 -2.93019e+07 0 
0 0 0 
2.31611e+07 -1.24735e+06 0 
-1.24735e+06 4.19239e+06 0 
0 0 0 
-3.28604e+07 7.66131e+06 0 
7.66131e+06 -1.60987e+07 0 
0 0 0 
1.69162e+07 1.31194e+07 0 
1.31194e+07 6.04472e+06 0 
0 0 0 
-4.04672e+07 1.09585e+07 0 
1.09585e+07 -1.5074e+07 0 
0 0 0 
6.63157e+07 4.70372e+06 0 
4.70372e+06 3.11416e+07 0 
0 0 0 
-8.37744e+06 -3.29212e+06 0 
-3.29212e+06 8.44622e+06 0 
0 0 0 
3.2129e+07 -1.01118e+07 0 
-1.01118e+07 9.21084e+06 0 
0 0 0 
-6.23789e+07 -1.60758e+06 0 
-1.60758e+06 -2.16403e+07 0 
0 0 0 
1.76836e+07 -6.81249e+06 0 
-6.81249e+06 -5.10934e+06 0 
0 0 0 
-1.21163e+07 -1.45139e+07 0 
-1.45139e+07 -2.50513e+06 0 
0 0 0 
4.45246e+07 9.15813e+06 0 
9.15813e+06 5.51933e+06 0 
0 0 0 
-5.43475e+06 5.61916e+06 0 
5.61916e+06 -1.28563e+07 0 
0 0 0 
-3.75204e+07 1.04121e+07 0 
1.04121e+07 -3.32284e+07 0 
0 0 0 
-1.21045e+07 -3.85087e+06 0 
-3.85087e+06 -2.45944e+07 0 
0 0 0 
-2.16428e+07 1.54348e+06 0 
1.54348e+06 -1.88862e+07 0 
0 0 0 
-1.35795e+07 1.30816e+07 0 
1.30816e+07 -2.65551e+07 0 
0 0 0 
-5.13849e+07 1.11962e+07 0 
1.11962e+07 -6.01426e+07 0 
0 0 0 
3.55123e+07 -4.36697e+06 0 
-4.36697e+06 7.15264e+06 0 
0 0 0 
-134569 -1.1e+07 0 
-1.1e+07 -4.27292e+07 0 
0 0 0 
0 0 0 
0 0 0 
0 0 0 
8.93248e+06 4.21518e+06 0 
4.21518e+06 1.00668e+07 0 
0 0 0 
3.17622e+07 8.57993e+06 0 
8.57993e+06 6.08027e+07 0 
0 0 0 
1.19688e+07 6.3956e+06 0 
6.3956e+06 1.57034e+07 0 
0 0 0 
-7.77545e+06 2.70586e+06 0 
2.70586e+06 1.55605e+07 0 
0 0 0 
-3.50788e+07 1.92521e+06 0 
1.92521e+06 -4.02488e+07 0 
0 0 0 
-3.86474e+06 2.36128e+06 0 
2.36128e+06 1.5647e+07 0 
0 0 0 
-1.01919e+07 -1.25048e+07 0 
-1.25048e+07 1.47548e+07 0 
0 0 0 
-4.32602e+07 -5.21092e+06 0 
-5.21092e+06 1.1851e+07 0 
0 0 0 
-3.6844e+07 -4.59988e+06 0 
-4.59988e+06 1.17397e+07 0 
0 0 0 
-4.37147e+07 -2.36251e+06 0 
-2.36251e+06 -2.29306e+07 0 
0 0 0 
-4.83017e+07 1.91084e+07 0 
1.91084e+07 -1.96945e+07 0 
0 0 0 
-3.62851e+07 1.93154e+07 0 
1.93154e+07 -9.50812e+06 0 
0 0 0 
-2.37011e+07 1.51534e+07 0 
1.51534e+07 -1.28989e+06 0 
0 0 0 
-1.7471e+07 1.0364e+07 0 
1.0364e+07 -2.61044e+06 0 
0 0 0 
-2.54862e+07 6.07828e+06 0 
6.07828e+06 -2.65944e+07 0 
0 0 0 
-1.57512e+06 4.65289e+06 0 
4.65289e+06 1.4589e+07 0 
0 0 0 
-1.64035e+06 -2.29721e+06 0 
-2.29721e+06 1.90991e+06 0 
0 0 0 
-3.11827e+07 3.06016e+06 0 
3.06016e+06 -3.19775e+07 0 
0 0 0 
-3.91772e+07 -5.35305e+06 0 
-5.35305e+06 -1.53476e+07 0 
0 0 0 
-4.55632e+07 -2.66998e+06 0 
-2.66998e+06 -2.21328e+07 0 
0 0 0 
-4.64955e+07 -1.31776e+07 0 
-1.31776e+07 -2.68068e+07 0 
0 0 0 
-5.81522e+07 8.31604e+06 0 
8.31604e+06 -2.51839e+07 0 
0 0 0 
-8.05621e+07 341503 0 
341503 -2.73625e+07 0 
0 0 0 
-9.76623e+07 1.20807e+07 0 
1.20807e+07 -7.22806e+07 0 
0 0 0 
-9.21077e+07 9.68624e+06 0 
9.68624e+06 -6.6741e+07 0 
0 0 0 
-9.66028e+07 1.20985e+07 0 
1.20985e+07 -4.87113e+07 0 
0 0 0 
-7.70654e+07 -8.95963e+06 0 
-8.95963e+06 -4.57877e+06 0 
0 0 0 
-7.88588e+07 -3.54512e+06 0 
-3.54512e+06 -4.51014e+07 0 
0 0 0 
0 0 0 
0 0 0 
0 0 0 
-1.61428e+07 1.12436e+06 0 
1.12436e+06 8.62557e+06 0 
0 0 0 
7.06114e+07 1.01345e+07 0 
1.01345e+07 3.63231e+07 0 
0 0 0 
6.56123e+06 1.56841e+07 0 
1.56841e+07 6.04926e+06 0 
0 0 0 
76985.7 2.624e+06 0 
2.624e+06 -1.61681e+07 0 
0 0 0 
9.03374e+06 -4.99925e+06 0 
-4.99925e+06 -2.3266e+07 0 
0 0 0 
1.23052e+07 -3.40532e+06 0 
-3.40532e+06 -3.79186e+07 0 
0 0 0 
-1.80088e+07 -1.0708e+07 0 
-1.0708e+07 -5.85712e+07 0 
0 0 0 
-3.46206e+07 -2.10418e+06 0 
-2.10418e+06 -6.20698e+07 0 
0 0 0 
1.36517e+07 -8.34282e+06 0 
-8.34282e+06 -3.31468e+07 0 
0 0 0 
-2.83448e+07 3.22187e+06 0 
3.22187e+06 -3.00839e+07 0 
0 0 0 
1.33384e+07 5.98897e+06 0 
5.98897e+06 -1.74859e+07 0 
0 0 0 
-3.1177e+07 -1.07055e+06 0 
-1.07055e+06 -2.26094e+07 0 
0 0 0 
1.80732e+07 3.73327e+06 0 
3.73327e+06 -1.75884e+07 0 
0 0 0 
-4.54039e+07 8.60275e+06 0 
8.60275e+06 -3.9848e+07 0 
0 0 0 
3.60828e+07 3.37613e+06 0 
3.37613e+06 -1.73252e+07 0 
0 0 0 
-2.77729e+07 -2.06765e+06 0 
-2.06765e+06 -2.20624e+07 0 
0 0 0 
3.32825e+07 -1.3664e+06 0 
-1.3664e+06 2.0049e+07 0 
0 0 0 
-6.68887e+07 -1.58656e+07 0 
-1.58656e+07 -1.72381e+07 0 
0 0 0 
2.00219e+07 -1.69786e+07 0 
-1.69786e+07 9.79008e+06 0 
0 0 0 
-4.67184e+06 -1.18016e+07 0 
-1.18016e+07 -727287 0 
0 0 0 
6.3383e+07 -3.41395e+06 0 
-3.41395e+06 2.68604e+07 0 
0 0 0 
1.50965e+07 7.55958e+06 0 
7.55958e+06 6.52344e+06 0 
0 0 0 
-3.67567e+07 -4.7157e+06 0 
-4.7157e+06 -8.86357e+06 0 
0 0 0 
-2.41306e+07 -4.29843e+06 0 
-4.29843e+06 -1.219e+07 0 
0 0 0 
271434 -1.80277e+06 0 
-1.80277e+06 -7.80501e+06 0 
0 0 0 
8.38282e+06 1.10459e+07 0 
1.10459e+07 -8.20832e+06 0 
0 0 0 
-6.3027e+07 920137 0 
920137 -2.76921e+07 0 
0 0 0 
-795145 -2.37604e+06 0 
-2.37604e+06 -1.06239e+07 0 
0 0 0 
-7.60862e+07 -8.76221e+06 0 
-8.76221e+06 -5.84932e+07 0 
0 0 0 
-5.24733e+07 4.97041e+06 0 
4.97041e+06 -2.94054e+07 0 
0 0 0 
0 0 0 
0 0 0 
0 0 0 
-1.15724e+06 8.13865e+06 0 
8.13865e+06 1.67964e+07 0 
0 0 0 
-1.88958e+07 3.15038e+06 0 
3.15038e+06 4.10291e+07 0 
0 0 0 
-5.92048e+07 -5.92713e+06 0 
-5.92713e+06 -9.7574e+06 0 
0 0 0 
-5.14643e+07 2.65627e+06 0 
2.65627e+06 -1.20591e+07 0 
0 0 0 
-5.48526e+07 -3.01648e+06 0 
-3.01648e+06 -3.61697e+07 0 
0 0 0 
-4.3289e+07 2.63758e+06 0 
2.63758e+06 1.22155e+07 0 
0 0 0 
-1.34083e+07 3.51446e+06 0 
3.51446e+06 -3.69474e+06 0 
0 0 0 
4.95839e+07 4.65963e+06 0 
4.65963e+06 5.07987e+07 0 
0 0 0 
4.96394e+07 1.22661e+07 0 
1.22661e+07 2.86615e+07 0 
0 0 0 
6.11607e+07 2.31992e+06 0 
2.31992e+06 4.08567e+07 0 
0 0 0 
4.41228e+07 2.12328e+07 0 
2.12328e+07 1.03797e+07 0 
0 0 0 
2.38416e+07 1.84964e+07 0 
1.84964e+07 1.58737e+07 0 
0 0 0 
-1.73137e+07 9.46308e+06 0 
9.46308e+06 -1.84176e+07 0 
0 0 0 
-3.65625e+07 5.66899e+06 0 
5.66899e+06 -9.25722e+06 0 
0 0 0 
-4.31114e+07 6.17714e+06 0 
6.17714e+06 -2.69864e+07 0 
0 0 0 
-4.63559e+07 545226 0 
545226 -5.67594e+06 0 
0 0 0 
-3.15364e+07 1.02471e+07 0 
1.02471e+07 -3.82613e+06 0 
0 0 0 
-2.19645e+07 921781 0 
921781 -3.29424e+07 0 
0 0 0 
8.4228e+06 8.98588e+06 0 
8.98588e+06 6.2133e+06 0 
0 0 0 
-843771 -5.66514e+06 0 
-5.66514e+06 -2.72231e+07 0 
0 0 0 
1.67819e+07 1.26545e+06 0 
1.26545e+06 7.1812e+06 0 
0 0 0 
2.65225e+07 -2.53988e+06 0 
-2.53988e+06 1.31865e+07 0 
0 0 0 
2.0469e+07 4.83281e+06 0 
4.83281e+06 -6.99303e+06 0 
0 0 0 
2.35051e+07 -1.94355e+06 0 
-1.94355e+06 -1.11038e+07 0 
0 0 0 
1.52475e+07 1.29123e+07 0 
1.29123e+07 -2.53183e+07 0 
0 0 0 
2.08913e+07 6.71672e+06 0 
6.71672e+06 -2.17028e+07 0 
0 0 0 
3.50865e+07 260341 0 
260341 1.76416e+07 0 
0 0 0 
2.45878e+07 -2.61422e+06 0 
-2.61422e+06 -4.70873e+06 0 
0 0 0 
7.58287e+06 1.10157e+06 0 
1.10157e+06 -4.02138e+07 0 
0 0 0 
0 0 0 
0 0 0 
0 0 0 
-1.77863e+07 -2.22224e+06 0 
-2.22224e+06 -1.04069e+07 0 
0 0 0 
8.01047e+07 4.18494e+06 0 
4.18494e+06 2.31326e+07 0 
0 0 0 
-1.14618e+07 5.03844e+06 0 
5.03844e+06 -1.20263e+07 0 
0 0 0 
-1.30897e+07 -6.70609e+06 0 
-6.70609e+06 -1.2208e+07 0 
0 0 0 
2.98547e+07 -8.25983e+06 0 
-8.25983e+06 -1.4555e+06 0 
0 0 0 
8.34477e+06 -2.04621e+06 0 
-2.04621e+06 7.97247e+06 0 
0 0 0 
1.56173e+07 -1.01501e+07 0 
-1.01501e+07 1.48855e+07 0 
0 0 0 
-2.51388e+07 -5.8629e+06 0 
-5.8629e+06 -8.78763e+06 0 
0 0 0 
4.53366e+07 -2.42737e+06 0 
-2.42737e+06 1.22336e+07 0 
0 0 0 
-1.01131e+07 -534269 0 
-534269 -5.58951e+06 0 
0 0 0 
1.17587e+07 9.98753e+06 0 
9.98753e+06 6.14816e+06 0 
0 0 0 
-3.71471e+07 3.21772e+06 0 
3.21772e+06 -2.05245e+07 0 
0 0 0 
3.50623e+07 6.04459e+06 0 
6.04459e+06 5.43523e+06 0 
0 0 0 
-3.76486e+07 4.28829e+06 0 
4.28829e+06 -2.33723e+07 0 
0 0 0 
3.96191e+07 5.96348e+06 0 
5.96348e+06 1.66878e+06 0 
0 0 0 
-4.68683e+07 2.71593e+06 0 
2.71593e+06 -4.52143e+07 0 
0 0 0 
-2.59006e+06 -9.7112e+06 0 
-9.7112e+06 -4.21841e+07 0 
0 0 0 
-7.31476e+07 -7.00848e+06 0 
-7.00848e+06 -4.97513e+07 0 
0 0 0 
1.22957e+07 -5.85767e+06 0 
-5.85767e+06 -6.62385e+06 0 
0 0 0 
2.68674e+07 2.82362e+06 0 
2.82362e+06 2.3886e+07 0 
0 0 0 
5.65477e+07 5.11905e+06 0 
5.11905e+06 4.54353e+07 0 
0 0 0 
1.67493e+07 -7.79053e+06 0 
-7.79053e+06 2.26653e+07 0 
0 0 0 
-6.55571e+06 -2.08667e+06 0 
-2.08667e+06 7.43128e+06 0 
0 0 0 
-4.28434e+07 -2.38303e+06 0 
-2.38303e+06 -3.1437e+06 0 
0 0 0 
1.52657e+07 -4.8689e+06 0 
-4.8689e+06 4.35105e+06 0 
0 0 0 
1.31809e+07 -5.25414e+06 0 
-5.25414e+06 -1.319e+07 0 
0 0 0 
-7.05514e+07 5.28841e+06 0 
5.28841e+06 -5.85664e+07 0 
0 0 0 
-2.4922e+07 -4.89184e+06 0 
-4.89184e+06 -4.32796e+07 0 
0 0 0 
-5.47125e+07 -7.91396e+06 0 
-7.91396e+06 -6.33888e+07 0 
0 0 0 
2.73468e+06 -1.23768e+06 0 
-1.23768e+06 -9.97504e+06 0 
0 0 0 
-2.83738e+07 566665 0 
566665 -5.9416e+07 0 
0 0 0 
0 0 0 
0 0 0 
0 0 0 
9.39964e+06 -308120 0 
-308120 2.39528e+07 0 
0 0 0 
2.55068e+07 -1.07821e+07 0 
-1.07821e+07 4.21562e+07 0 
0 0 0 
3.42487e+07 -6.41606e+06 0 
-6.41606e+06 2.98391e+07 0 
0 0 0 
1.46394e+07 -571026 0 
-571026 3.34603e+06 0 
0 0 0 
1.43033e+07 4.67983e+06 0 
4.67983e+06 171909 0 
0 0 0 
4.95457e+07 1.10869e+07 0 
1.10869e+07 5.05948e+07 0 
0 0 0 
5.29616e+07 2.00025e+07 0 
2.00025e+07 2.87518e+07 0 
0 0 0 
7.35878e+07 1.66408e+07 0 
1.66408e+07 5.22871e+07 0 
0 0 0 
7.7153e+07 1.70592e+07 0 
1.70592e+07 4.14589e+07 0 
0 0 0 
7.79451e+07 7.30185e+06 0 
7.30185e+06 3.20749e+07 0 
0 0 0 
6.86725e+07 -2.7994e+06 0 
-2.7994e+06 2.35092e+07 0 
0 0 0 
3.85569e+07 -1.03418e+06 0 
-1.03418e+06 1.61928e+07 0 
0 0 0 
2.33091e+07 -3.90825e+06 0 
-3.90825e+06 -5.42473e+06 0 
0 0 0 
1.89002e+07 5.14459e+06 0 
5.14459e+06 1.31018e+07 0 
0 0 0 
-1.7454e+07 3.81562e+06 0 
3.81562e+06 -1.64957e+07 0 
0 0 0 
2.51487e+06 1.11055e+07 0 
1.11055e+07 8.52301e+06 0 
0 0 0 
-3.95707e+06 9.15885e+06 0 
9.15885e+06 2.04523e+07 0 
0 0 0 
-3.18592e+07 1.23781e+07 0 
1.23781e+07 -5.33123e+07 0 
0 0 0 
-1.60012e+07 1.5266e+06 0 
1.5266e+06 5.33559e+06 0 
0 0 0 
-3.06526e+07 -2.31293e+06 0 
-2.31293e+06 -5.73951e+07 0 
0 0 0 
-9.08186e+06 -3.23372e+06 0 
-3.23372e+06 1.35599e+07 0 
0 0 0 
-2.03613e+07 -319932 0 
-319932 -8.87277e+06 0 
0 0 0 
-2.76012e+06 4.26065e+06 0 
4.26065e+06 -1.04784e+07 0 
0 0 0 
-6.28968e+06 5.45779e+06 0 
5.45779e+06 -1.84865e+07 0 
0 0 0 
-6.08793e+06 3.57198e+06 0 
3.57198e+06 -2.50657e+07 0 
0 0 0 
-1.6654e+07 -987221 0 
-987221 -4.06091e+07 0 
0 0 0 
-6.11622e+06 -2.94793e+06 0 
-2.94793e+06 -433443 0 
0 0 0 
-2.3511e+07 -1.52497e+07 0 
-1.52497e+07 -2.81582e+07 0 
0 0 0 
-3.97902e+07 -5.10017e+06 0 
-5.10017e+06 -4.15605e+07 0 
0 0 0 
-5.47811e+07 -4.17666e+06 0 
-4.17666e+06 -3.6806e+07 0 
0 0 0 
0 0 0 
0 0 0 
0 0 0 
-1.41526e+07 3.28039e+06 0 
3.28039e+06 -364062 0 
0 0 0 
9.14537e+07 2.80271e+06 0 
2.80271e+06 3.77502e+07 0 
0 0 0 
-2.31566e+07 -1.45273e+06 0 
-1.45273e+06 -6.53593e+06 0 
0 0 0 
262766 840179 0 
840179 -5.3981e+06 0 
0 0 0 
2.91074e+07 -121417 0 
-121417 2.82223e+07 0 
0 0 0 
9.76171e+06 -6.50076e+06 0 
-6.50076e+06 1.26983e+07 0 
0 0 0 
2.00841e+07 -6.48627e+06 0 
-6.48627e+06 1.47975e+07 0 
0 0 0 
-2.81531e+07 -4.42598e+06 0 
-4.42598e+06 8.16785e+06 0 
0 0 0 
5.85295e+07 -5.18113e+06 0 
-5.18113e+06 3.13712e+07 0 
0 0 0 
1.61646e+06 -3.89171e+06 0 
-3.89171e+06 8.90079e+06 0 
0 0 0 
2.35652e+07 4.57189e+06 0 
4.57189e+06 6.67616e+06 0 
0 0 0 
-3.90979e+07 5.88433e+06 0 
5.88433e+06 -4.79339e+06 0 
0 0 0 
2.45785e+07 -1.41556e+06 0 
-1.41556e+06 1.32022e+07 0 
0 0 0 
-2.55023e+07 -2.47905e+06 0 
-2.47905e+06 -1.13822e+07 0 
0 0 0 
3.09262e+07 -7.77514e+06 0 
-7.77514e+06 -8.64835e+06 0 
0 0 0 
-5.15918e+07 -9.09215e+06 0 
-9.09215e+06 -2.73674e+07 0 
0 0 0 
1.69294e+07 1.46808e+06 0 
1.46808e+06 3.61703e+06 0 
0 0 0 
-5.01786e+07 2.80454e+06 0 
2.80454e+06 -1.79183e+07 0 
0 0 0 
2.08087e+07 2.5479e+06 0 
2.5479e+06 7.31853e+06 0 
0 0 0 
1.89901e+06 3.0802e+06 0 
3.0802e+06 -1.30865e+07 0 
0 0 0 
2.95055e+07 -1.08134e+07 0 
-1.08134e+07 -8.04207e+06 0 
0 0 0 
-1.70555e+06 -9.94119e+06 0 
-9.94119e+06 -3.15735e+07 0 
0 0 0 
-3.04607e+06 -4.4272e+06 0 
-4.4272e+06 -3.96348e+07 0 
0 0 0 
-6.88717e+07 -1.21195e+07 0 
-1.21195e+07 -5.55713e+07 0 
0 0 0 
3.55617e+06 -6.58011e+06 0 
-6.58011e+06 -2.07285e+07 0 
0 0 0 
2.05746e+07 -6.11346e+06 0 
-6.11346e+06 1.71952e+06 0 
0 0 0 
-4.24866e+07 -8.92125e+06 0 
-8.92125e+06 -6.39136e+06 0 
0 0 0 
-2.5246e+07 -1.1185e+07 0 
-1.1185e+07 -8.8326e+06 0 
0 0 0 
-2.92926e+07 -6.35528e+06 0 
-6.35528e+06 -1.47506e+07 0 
0 0 0 
-2.10061e+06 2.81285e+06 0 
2.81285e+06 -2.20219e+07 0 
0 0 0 
-6.20409e+07 7.68909e+06 0 
7.68909e+06 -6.3334e+07 0 
0 0 0 
-7.117e+07 1.00742e+07 0 
1.00742e+07 -5.11065e+07 0 
0 0 0 
0 0 0 
0 0 0 
0 0 0 
7.94939e+06 5.59214e+06 0 
5.59214e+06 2.2891e+07 0 
0 0 0 
1.1355e+07 3.13197e+06 0 
3.13197e+06 3.40593e+07 0 
0 0 0 
1.68049e+07 502738 0 
502738 2.4821e+07 0 
0 0 0 
3.86854e+07 3.37121e+06 0 
3.37121e+06 1.05517e+07 0 
0 0 0 
4.54388e+07 4.22123e+06 0 
4.22123e+06 3.06109e+07 0 
0 0 0 
4.347e+07 1.53433e+07 0 
1.53433e+07 5.18168e+07 0 
0 0 0 
3.27605e+07 2.11449e+07 0 
2.11449e+07 3.34786e+07 0 
0 0 0 
1.34949e+07 1.70483e+07 0 
1.70483e+07 2.47797e+07 0 
0 0 0 
103744 8.62587e+06 0 
8.62587e+06 2.3815e+06 0 
0 0 0 
-4.13162e+06 1.79291e+06 0 
1.79291e+06 -6.04463e+06 0 
0 0 0 
-456073 -224309 0 
-224309 158929 0 
0 0 0 
3.90964e+06 -9.28604e+06 0 
-9.28604e+06 -1.47342e+07 0 
0 0 0 
2.45158e+07 -5.09306e+06 0 
-5.09306e+06 1.72196e+07 0 
0 0 0 
3.1923e+07 -1.08906e+07 0 
-1.08906e+07 2.26761e+07 0 
0 0 0 
3.82468e+07 1.21915e+06 0 
1.21915e+06 1.11588e+07 0 
0 0 0 
4.02584e+07 1.54961e+07 0 
1.54961e+07 3.71398e+07 0 
0 0 0 
3.33008e+07 2.4925e+06 0 
2.4925e+06 8.08554e+06 0 
0 0 0 
3.39458e+06 659236 0 
659236 -3.70585e+07 0 
0 0 0 
2.17533e+07 2.82877e+06 0 
2.82877e+06 1.04731e+07 0 
0 0 0 
1.45725e+07 3.90379e+06 0 
3.90379e+06 -3.63124e+07 0 
0 0 0 
4.49568e+07 -1.08653e+06 0 
-1.08653e+06 2.87986e+07 0 
0 0 0 
4.58233e+07 4.37632e+06 0 
4.37632e+06 1.07732e+07 0 
0 0 0 
2.38209e+07 5.89216e+06 0 
5.89216e+06 1.16456e+07 0 
0 0 0 
1.24324e+07 6.85342e+06 0 
6.85342e+06 -1.20532e+07 0 
0 0 0 
9.0671e+06 1.17447e+07 0 
1.17447e+07 -2.56085e+07 0 
0 0 0 
5.19128e+06 -7329.14 0 
-7329.14 -4.48406e+07 0 
0 0 0 
2.32439e+07 -9.885e+06 0 
-9.885e+06 2.66766e+06 0 
0 0 0 
3.13588e+07 -1.35593e+07 0 
-1.35593e+07 -1.44145e+07 0 
0 0 0 
1.93445e+07 -2.22072e+07 0 
-2.22072e+07 -7.86592e+06 0 
0 0 0 
2.48825e+07 -5.96937e+06 0 
-5.96937e+06 -2.07985e+06 0 
0 0 0 
5.65819e+06 -1.50412e+06 0 
-1.50412e+06 -3.16116e+07 0 
0 0 0 
0 0 0 
0 0 0 
0 0 0 
-9.8906e+06 822167 0 
822167 -5.53502e+06 0 
0 0 0 
5.66615e+07 -3.23437e+06 0 
-3.23437e+06 1.08875e+07 0 
0 0 0 
8.63283e+06 -4.34107e+06 0 
-4.34107e+06 -2.40071e+06 0 
0 0 0 
-9.48527e+06 4.33397e+06 0 
4.33397e+06 8.59155e+06 0 
0 0 0 
4.00996e+07 3.11362e+06 0 
3.11362e+06 2.51476e+07 0 
0 0 0 
-1.78668e+07 -8.7831e+06 0 
-8.7831e+06 1.54262e+07 0 
0 0 0 
4.38892e+07 -1.11e+07 0 
-1.11e+07 2.68848e+07 0 
0 0 0 
-4.4486e+07 -1.01791e+07 0 
-1.01791e+07 -1.35054e+07 0 
0 0 0 
4.88994e+07 -7.19997e+06 0 
-7.19997e+06 1.32025e+07 0 
0 0 0 
1.16882e+07 -6.92325e+06 0 
-6.92325e+06 -1.19951e+06 0 
0 0 0 
1.73798e+07 -1.78193e+06 0 
-1.78193e+06 2.11913e+06 0 
0 0 0 
-3.46507e+07 -1.07975e+06 0 
-1.07975e+06 -2.10639e+07 0 
0 0 0 
8.8909e+06 2.92931e+06 0 
2.92931e+06 2.8136e+06 0 
0 0 0 
-1.07873e+07 -352140 0 
-352140 936631 0 
0 0 0 
1.73361e+07 -3.46683e+06 0 
-3.46683e+06 2.14656e+07 0 
0 0 0 
-1.88657e+07 692265 0 
692265 -4.53758e+06 0 
0 0 0 
2.30899e+07 8.34393e+06 0 
8.34393e+06 9.37196e+06 0 
0 0 0 
-4.82344e+07 4.29558e+06 0 
4.29558e+06 -1.23309e+07 0 
0 0 0 
1.89122e+07 -1.49395e+06 0 
-1.49395e+06 4.20905e+06 0 
0 0 0 
-1.38774e+07 1.56644e+06 0 
1.56644e+06 4.42488e+06 0 
0 0 0 
2.6728e+07 -5.47559e+06 0 
-5.47559e+06 1.40282e+06 0 
0 0 0 
2.69371e+06 -2.42379e+07 0 
-2.42379e+07 -2.48027e+07 0 
0 0 0 
6.12869e+06 -5.5663e+06 0 
-5.5663e+06 -3.45762e+07 0 
0 0 0 
-4.86063e+07 3.04068e+06 0 
3.04068e+06 -4.59832e+07 0 
0 0 0 
-1.26524e+07 3.73935e+06 0 
3.73935e+06 -1.75537e+07 0 
0 0 0 
2.55168e+07 -858525 0 
-858525 2.26245e+06 0 
0 0 0 
-6.73109e+07 -1.03327e+07 0 
-1.03327e+07 -4.3731e+07 0 
0 0 0 
-3.19674e+07 -1.57566e+07 0 
-1.57566e+07 -3.41247e+07 0 
0 0 0 
-2.99336e+07 -2.67074e+07 0 
-2.67074e+07 -4.32049e+07 0 
0 0 0 
1.51469e+07 -6.85627e+06 0 
-6.85627e+06 -2.80649e+07 0 
0 0 0 
-7.0623e+07 1.21507e+07 0 
1.21507e+07 -4.84568e+07 0 
0 0 0 
331644 9.64888e+06 0 
9.64888e+06 -2.50968e+07 0 
0 0 0 
-3.52838e+06 7.04704e+06 0 
7.04704e+06 -3.08416e+07 0 
0 0 0 
0 0 0 
0 0 0 
0 0 0 
8.01848e+06 2.73686e+06 0 
2.73686e+06 2.88274e+07 0 
0 0 0 
1.10343e+07 -2.37716e+06 0 
-2.37716e+06 2.57947e+07 0 
0 0 0 
7.44082e+06 -1.19184e+06 0 
-1.19184e+06 1.63317e+07 0 
0 0 0 
-6.18936e+06 6.64618e+06 0 
6.64618e+06 7.16707e+06 0 
0 0 0 
5.45591e+06 2.05635e+06 0 
2.05635e+06 2.52082e+07 0 
0 0 0 
2.37176e+07 1.90891e+07 0 
1.90891e+07 6.47744e+07 0 
0 0 0 
-6.79359e+06 1.13746e+07 0 
1.13746e+07 1.19624e+07 0 
0 0 0 
-2.01004e+07 9.2524e+06 0 
9.2524e+06 1.05768e+07 0 
0 0 0 
-6.26648e+07 994865 0 
994865 -4.30387e+07 0 
0 0 0 
-7.10134e+07 6.72894e+06 0 
6.72894e+06 -1.79489e+07 0 
0 0 0 
-7.10618e+07 -1.57358e+06 0 
-1.57358e+06 -2.27702e+07 0 
0 0 0 
-7.25975e+07 9.91455e+06 0 
9.91455e+06 -5.2945e+07 0 
0 0 0 
-5.22326e+07 2.14912e+06 0 
2.14912e+06 -5.41595e+06 0 
0 0 0 
-4.07148e+07 216935 0 
216935 497652 0 
0 0 0 
-1.78609e+07 4.97772e+06 0 
4.97772e+06 1.47217e+07 0 
0 0 0 
-2.14163e+07 4.66852e+06 0 
4.66852e+06 2.81315e+07 0 
0 0 0 
-5.12786e+07 1.14033e+07 0 
1.14033e+07 -4.2131e+07 0 
0 0 0 
-3.15126e+07 6.98056e+06 0 
6.98056e+06 -3.76404e+07 0 
0 0 0 
-3.47452e+07 9.68208e+06 0 
9.68208e+06 -2.60037e+07 0 
0 0 0 
-2.55914e+07 6.67513e+06 0 
6.67513e+06 -2.92962e+07 0 
0 0 0 
-5.90162e+06 5.26817e+06 0 
5.26817e+06 -1.78002e+06 0 
0 0 0 
6.80075e+06 5.86781e+06 0 
5.86781e+06 111986 0 
0 0 0 
3.24985e+07 -2.29786e+06 0 
-2.29786e+06 1.96091e+07 0 
0 0 0 
2.62906e+07 6.54972e+06 0 
6.54972e+06 -1.0416e+07 0 
0 0 0 
2.15996e+07 -186777 0 
-186777 -8.92345e+06 0 
0 0 0 
-1.98307e+07 324728 0 
324728 -7.81186e+07 0 
0 0 0 
9.05654e+06 1.63172e+06 0 
1.63172e+06 -3.93914e+06 0 
0 0 0 
2.48265e+06 -9.9912e+06 0 
-9.9912e+06 -2.79285e+07 0 
0 0 0 
4.33689e+07 -1.36617e+07 0 
-1.36617e+07 3.92363e+06 0 
0 0 0 
6.12452e+07 -3.09351e+06 0 
-3.09351e+06 1.28355e+07 0 
0 0 0 
5.44472e+07 -1.52522e+07 0 
-1.52522e+07 1.98312e+06 0 
0 0 0 
1.82648e+07 -1.40431e+06 0 
-1.40431e+06 -2.46562e+07 0 
0 0 0 
0 0 0 
0 0 0 
0 0 0 
3.76379e+06 6.19449e+06 0 
6.19449e+06 4.02884e+06 0 
0 0 0 
4.4373e+07 8.81028e+06 0 
8.81028e+06 2.42245e+07 0 
0 0 0 
2.71397e+07 4.66525e+06 0 
4.66525e+06 2.56568e+07 0 
0 0 0 
4.86464e+06 1.31999e+07 0 
1.31999e+07 2.39741e+07 0 
0 0 0 
3.09268e+07 6.29915e+06 0 
6.29915e+06 4.51243e+07 0 
0 0 0 
2.01637e+06 -1.04289e+06 0 
-1.04289e+06 3.54681e+07 0 
0 0 0 
2.37188e+07 -4.43273e+06 0 
-4.43273e+06 5.18722e+07 0 
0 0 0 
-3.00769e+07 -1.88724e+07 0 
-1.88724e+07 3.01597e+07 0 
0 0 0 
6.77258e+07 -1.35501e+07 0 
-1.35501e+07 5.01772e+07 0 
0 0 0 
1.47852e+07 -1.10921e+07 0 
-1.10921e+07 2.19619e+07 0 
0 0 0 
2.88432e+07 -1.00381e+07 0 
-1.00381e+07 1.12595e+07 0 
0 0 0 
-2.16007e+07 6.68042e+06 0 
6.68042e+06 -1.24886e+07 0 
0 0 0 
1.03083e+07 2.33175e+06 0 
2.33175e+06 -1.15827e+07 0 
0 0 0 
-4.24505e+07 -1.20406e+06 0 
-1.20406e+06 -2.59362e+07 0 
0 0 0 
1.61338e+07 -1.24948e+07 0 
-1.24948e+07 -1.94366e+07 0 
0 0 0 
-2.0082e+07 -3.87748e+06 0 
-3.87748e+06 -2.70209e+07 0 
0 0 0 
3.21452e+06 -3.40273e+06 0 
-3.40273e+06 -3.02001e+07 0 
0 0 0 
-5.09343e+07 -4.35677e+06 0 
-4.35677e+06 -5.82121e+07 0 
0 0 0 
3.716e+06 4.16728e+06 0 
4.16728e+06 -2.81606e+07 0 
0 0 0 
-4.0498e+07 -1.90951e+06 0 
-1.90951e+06 -6.63888e+07 0 
0 0 0 
-2.55976e+07 -1.20085e+07 0 
-1.20085e+07 -5.40116e+07 0 
0 0 0 
1.0767e+07 -2.83616e+07 0 
-2.83616e+07 -2.55338e+07 0 
0 0 0 
2.88741e+07 -6.46194e+06 0 
-6.46194e+06 -2.03283e+07 0 
0 0 0 
-2.53226e+07 -2.71058e+06 0 
-2.71058e+06 -4.74641e+07 0 
0 0 0 
-3.2196e+07 1.59718e+07 0 
1.59718e+07 -5.17997e+07 0 
0 0 0 
-1.33363e+07 139629 0 
139629 -3.84028e+07 0 
0 0 0 
-5.99583e+07 -1.51339e+07 0 
-1.51339e+07 -4.15377e+07 0 
0 0 0 
-3.86151e+07 -7.5873e+06 0 
-7.5873e+06 -3.66442e+07 0 
0 0 0 
-1.31981e+07 -1.16326e+07 0 
-1.16326e+07 -2.1624e+07 0 
0 0 0 
2.9773e+07 4.3188e+06 0 
4.3188e+06 6.69521e+06 0 
0 0 0 
-4.49515e+07 -218311 0 
-218311 -3.1273e+07 0 
0 0 0 
-6.64463e+06 1.7402e+07 0 
1.7402e+07 -1.49742e+07 0 
0 0 0 
-1.0576e+07 1.4565e+06 0 
1.4565e+06 -1.69149e+07 0 
0 0 0 
-3.29505e+07 8.6636e+06 0 
8.6636e+06 -1.67739e+07 0 
0 0 0 
0 0 0 
0 0 0 
0 0 0 
2.69738e+06 -581708 0 
-581708 2.33018e+07 0 
0 0 0 
-6.40602e+06 1.93709e+06 0 
1.93709e+06 1.92986e+07 0 
0 0 0 
-2.90706e+06 4.83682e+06 0 
4.83682e+06 2.10796e+07 0 
0 0 0 
-1.29586e+07 6.97414e+06 0 
6.97414e+06 3.8294e+06 0 
0 0 0 
8.76126e+06 1.39872e+07 0 
1.39872e+07 4.05013e+07 0 
0 0 0 
-8.10162e+06 -6.87332e+06 0 
-6.87332e+06 4.14978e+07 0 
0 0 0 
-5.26473e+07 -2.47384e+06 0 
-2.47384e+06 4.96755e+06 0 
0 0 0 
-7.5821e+07 -7.85122e+06 0 
-7.85122e+06 -2.7678e+07 0 
0 0 0 
-6.53643e+07 -3.01629e+06 0 
-3.01629e+06 -2.99284e+07 0 
0 0 0 
-3.3683e+07 9.771e+06 0 
9.771e+06 -2.34074e+06 0 
0 0 0 
-1.666e+07 1.40595e+07 0 
1.40595e+07 8.92447e+06 0 
0 0 0 
-1.65961e+07 1.92441e+07 0 
1.92441e+07 -3.45227e+07 0 
0 0 0 
1.22193e+07 1.71112e+07 0 
1.71112e+07 5.12901e+06 0 
0 0 0 
2.2132e+07 7.13382e+06 0 
7.13382e+06 1.08997e+07 0 
0 0 0 
2.74538e+07 6.35331e+06 0 
6.35331e+06 3.25882e+07 0 
0 0 0 
2.98227e+07 -1.2439e+07 0 
-1.2439e+07 5.69671e+07 0 
0 0 0 
-1.85398e+07 7.12305e+06 0 
7.12305e+06 -3.81821e+07 0 
0 0 0 
-2.56196e+07 1.08886e+06 0 
1.08886e+06 -1.50492e+07 0 
0 0 0 
-2.56702e+07 1.77282e+07 0 
1.77282e+07 -4.09333e+07 0 
0 0 0 
-2.50743e+07 1.30511e+07 0 
1.30511e+07 -2.35564e+07 0 
0 0 0 
-3.7064e+06 1.3423e+07 0 
1.3423e+07 -1.18204e+07 0 
0 0 0 
-6.75816e+06 -1.59717e+06 0 
-1.59717e+06 -1.60623e+07 0 
0 0 0 
-2.81842e+07 -5.66596e+06 0 
-5.66596e+06 -1.27154e+06 0 
0 0 0 
-5.26565e+07 -4.35304e+06 0 
-4.35304e+06 -2.71098e+07 0 
0 0 0 
-7.5448e+07 -2.66394e+06 0 
-2.66394e+06 -4.13368e+07 0 
0 0 0 
-8.41192e+07 -2.32251e+06 0 
-2.32251e+06 -8.84421e+07 0 
0 0 0 
-6.49952e+07 9.9502e+06 0 
9.9502e+06 -4.40222e+07 0 
0 0 0 
-4.42499e+07 -2.06045e+06 0 
-2.06045e+06 -4.07029e+07 0 
0 0 0 
-2.21468e+07 5.59778e+06 0 
5.59778e+06 -1.98264e+07 0 
0 0 0 
1.26675e+07 942606 0 
942606 -1.36779e+07 0 
0 0 0 
4.00886e+07 -1.27733e+07 0 
-1.27733e+07 4.94659e+06 0 
0 0 0 
5.32477e+07 -9.4693e+06 0 
-9.4693e+06 -1.83812e+06 0 
0 0 0 
5.70735e+07 -7.69613e+06 0 
-7.69613e+06 2.74691e+06 0 
0 0 0 
0 0 0 
0 0 0 
0 0 0 
1.86398e+07 2.96262e+06 0 
2.96262e+06 2.92688e+06 0 
0 0 0 
2.06708e+07 3.84758e+06 0 
3.84758e+06 3.08577e+06 0 
0 0 0 
2.96931e+07 5.04309e+06 0 
5.04309e+06 1.43565e+07 0 
0 0 0 
-6.01426e+06 3.53641e+06 0 
3.53641e+06 -4.31359e+06 0 
0 0 0 
7.305e+06 2.8146e+06 0 
2.8146e+06 -1.74279e+07 0 
0 0 0 
-2.65307e+07 -9.67282e+06 0 
-9.67282e+06 -2.07577e+07 0 
0 0 0 
-2.6306e+06 -1.84037e+07 0 
-1.84037e+07 -1.31743e+07 0 
0 0 0 
-4.26931e+07 -8.14746e+06 0 
-8.14746e+06 -1.65039e+07 0 
0 0 0 
6.85767e+07 -4.51906e+06 0 
-4.51906e+06 3.82068e+07 0 
0 0 0 
-3.86773e+06 -1.32904e+07 0 
-1.32904e+07 1.83221e+07 0 
0 0 0 
4.82733e+07 -1.19855e+07 0 
-1.19855e+07 3.61839e+07 0 
0 0 0 
8.3738e+06 -8.43518e+06 0 
-8.43518e+06 5.75938e+06 0 
0 0 0 
-4.2161e+06 1.93988e+06 0 
1.93988e+06 -1.1911e+07 0 
0 0 0 
-4.3201e+07 2.13941e+06 0 
2.13941e+06 -2.86238e+07 0 
0 0 0 
8.07164e+06 -9.31828e+06 0 
-9.31828e+06 -3.4165e+06 0 
0 0 0 
-1.4975e+06 -6.74944e+06 0 
-6.74944e+06 -1.45428e+07 0 
0 0 0 
1.17886e+07 -831711 0 
-831711 -1.17117e+07 0 
0 0 0 
-3.17647e+07 8.20107e+06 0 
8.20107e+06 -2.15942e+07 0 
0 0 0 
3.95749e+06 -2.7749e+06 0 
-2.7749e+06 -2.06183e+07 0 
0 0 0 
-4.84994e+07 -1.01767e+07 0 
-1.01767e+07 -1.27944e+07 0 
0 0 0 
-1.07384e+07 -7.87691e+06 0 
-7.87691e+06 -5.06981e+06 0 
0 0 0 
2.45336e+07 -1.24738e+07 0 
-1.24738e+07 1.27739e+07 0 
0 0 0 
6.3779e+07 -1.19613e+07 0 
-1.19613e+07 3.20105e+07 0 
0 0 0 
4.53572e+06 659802 0 
659802 -1.39804e+06 0 
0 0 0 
-1.10518e+07 1.28898e+07 0 
1.28898e+07 4.25972e+06 0 
0 0 0 
-3.31898e+07 -2.37615e+06 0 
-2.37615e+06 -8.60331e+06 0 
0 0 0 
-5.61144e+07 -1.05367e+07 0 
-1.05367e+07 -3.02512e+07 0 
0 0 0 
-1.1441e+07 -1.45318e+07 0 
-1.45318e+07 -1.49044e+07 0 
0 0 0 
-1.86362e+07 -1.24946e+07 0 
-1.24946e+07 -1.7013e+07 0 
0 0 0 
4.59938e+07 4.47856e+06 0 
4.47856e+06 -515290 0 
0 0 0 
-4.85601e+07 9.92404e+06 0 
9.92404e+06 -1.83978e+07 0 
0 0 0 
1.09402e+06 1.00115e+07 0 
1.00115e+07 -6.97972e+06 0 
0 0 0 
-4.95411e+07 1.02267e+07 0 
1.02267e+07 -3.65912e+07 0 
0 0 0 
6.62599e+07 -5.81757e+06 0 
-5.81757e+06 1.93786e+07 0 
0 0 0 
4.06158e+07 -5.95407e+06 0 
-5.95407e+06 -1.74093e+07 0 
0 0 0 
0 0 0 
0 0 0 
0 0 0 
2.20483e+07 4.87501e+06 0 
4.87501e+06 3.04743e+07 0 
0 0 0 
2.93061e+07 -615431 0 
-615431 2.94535e+07 0 
0 0 0 
2.31972e+07 3.19714e+06 0 
3.19714e+06 4.37353e+07 0 
0 0 0 
6.25552e+06 4.17059e+06 0 
4.17059e+06 4.48186e+06 0 
0 0 0 
-2.07652e+07 2.42079e+06 0 
2.42079e+06 2.24725e+07 0 
0 0 0 
-2.02688e+07 -9.9244e+06 0 
-9.9244e+06 2.68307e+07 0 
0 0 0 
-7.51476e+06 -9.1938e+06 0 
-9.1938e+06 2.62423e+07 0 
0 0 0 
-1.00193e+06 1.48314e+06 0 
1.48314e+06 -1.21086e+07 0 
0 0 0 
3.0271e+07 5.30538e+06 0 
5.30538e+06 2.6667e+07 0 
0 0 0 
8.18262e+06 8.13756e+06 0 
8.13756e+06 9.23896e+06 0 
0 0 0 
1.02532e+07 8.70367e+06 0 
8.70367e+06 4.07908e+07 0 
0 0 0 
-3.13683e+07 1.56455e+07 0 
1.56455e+07 -4.43974e+07 0 
0 0 0 
-2.64661e+07 1.59782e+07 0 
1.59782e+07 -1.56735e+07 0 
0 0 0 
-1.82949e+07 4.95765e+06 0 
4.95765e+06 -1.86888e+07 0 
0 0 0 
-1.71452e+07 913659 0 
913659 1.13107e+07 0 
0 0 0 
5.12451e+06 -1.2667e+07 0 
-1.2667e+07 3.87136e+07 0 
0 0 0 
617039 -9.33335e+06 0 
-9.33335e+06 -5.07873e+06 0 
0 0 0 
3.7278e+06 7.93073e+06 0 
7.93073e+06 -3.26912e+06 0 
0 0 0 
-1.22887e+07 4.23755e+06 0 
4.23755e+06 -2.02427e+07 0 
0 0 0 
-3.75389e+07 8.50675e+06 0 
8.50675e+06 -5.43201e+07 0 
0 0 0 
-5.65072e+07 6.45171e+06 0 
6.45171e+06 -2.32354e+07 0 
0 0 0 
-8.93346e+07 -6.59092e+06 0 
-6.59092e+06 -6.96325e+07 0 
0 0 0 
-6.26473e+07 -1.08063e+07 0 
-1.08063e+07 -8.78006e+06 0 
0 0 0 
-7.79118e+07 -1.47076e+07 0 
-1.47076e+07 -3.967e+07 0 
0 0 0 
-6.19497e+07 -1.3121e+07 0 
-1.3121e+07 -3.11293e+07 0 
0 0 0 
-6.48972e+07 -7.60557e+06 0 
-7.60557e+06 -6.91141e+07 0 
0 0 0 
-5.09905e+07 8.37507e+06 0 
8.37507e+06 -2.45543e+07 0 
0 0 0 
-7.68273e+07 7.09063e+06 0 
7.09063e+06 -6.0914e+07 0 
0 0 0 
-4.80149e+07 1.80435e+07 0 
1.80435e+07 -1.94054e+07 0 
0 0 0 
-6.45082e+07 1.43116e+07 0 
1.43116e+07 -6.06379e+07 0 
0 0 0 
-4.90512e+07 -2.82711e+06 0 
-2.82711e+06 -2.2784e+07 0 
0 0 0 
-3.9979e+07 -8.07805e+06 0 
-8.07805e+06 -3.84649e+07 0 
0 0 0 
-3.23117e+07 -1.37362e+07 0 
-1.37362e+07 -1.74551e+07 0 
0 0 0 
-5.36621e+07 -5.21326e+06 0 
-5.21326e+06 -3.6186e+07 0 
0 0 0 
0 0 0 
0 0 0 
0 0 0 
3.28832e+07 4.59968e+06 0 
4.59968e+06 1.42633e+07 0 
0 0 0 
8.89117e+06 8.74759e+06 0 
8.74759e+06 2.66231e+06 0 
0 0 0 
1.6855e+07 1.69946e+06 0 
1.69946e+06 -1.60514e+07 0 
0 0 0 
-9.2085e+06 5.46946e+06 0 
5.46946e+06 -2.71969e+07 0 
0 0 0 
-1.35889e+07 -6.13015e+06 0 
-6.13015e+06 -3.01266e+07 0 
0 0 0 
-3.9336e+07 -3.23414e+06 0 
-3.23414e+06 -4.56674e+07 0 
0 0 0 
3.54109e+06 -5.21164e+06 0 
-5.21164e+06 -7.02417e+06 0 
0 0 0 
-2.7659e+07 -1.07314e+07 0 
-1.07314e+07 -3.88641e+06 0 
0 0 0 
5.51948e+07 -1.3699e+07 0 
-1.3699e+07 1.68937e+07 0 
0 0 0 
-1.68572e+07 -1.09945e+07 0 
-1.09945e+07 -6.75724e+06 0 
0 0 0 
4.65936e+07 -1.03981e+07 0 
-1.03981e+07 1.92682e+07 0 
0 0 0 
1.3148e+07 -1.51869e+07 0 
-1.51869e+07 2.40599e+06 0 
0 0 0 
2.22972e+07 -996598 0 
-996598 -1.17646e+07 0 
0 0 0 
-7.13318e+07 8.92444e+06 0 
8.92444e+06 -5.00732e+07 0 
0 0 0 
-8.19825e+06 -6.85136e+06 0 
-6.85136e+06 -2.44549e+07 0 
0 0 0 
1.6664e+07 -2.00577e+06 0 
-2.00577e+06 -4.39285e+06 0 
0 0 0 
1.12019e+07 -3.42268e+06 0 
-3.42268e+06 -6.84021e+06 0 
0 0 0 
-1.77246e+07 -1.87855e+06 0 
-1.87855e+06 -2.70971e+07 0 
0 0 0 
-1.18649e+07 6.87813e+06 0 
6.87813e+06 -1.64506e+07 0 
0 0 0 
-7.30357e+07 4.00351e+06 0 
4.00351e+06 -4.79127e+07 0 
0 0 0 
-5.22933e+06 -2.46309e+06 0 
-2.46309e+06 -1.06702e+07 0 
0 0 0 
4.75983e+06 -7.40538e+06 0 
-7.40538e+06 3.95216e+06 0 
0 0 0 
7.82339e+07 -1.78824e+07 0 
-1.78824e+07 3.16047e+07 0 
0 0 0 
2.47009e+07 -8.60499e+06 0 
-8.60499e+06 2.25393e+07 0 
0 0 0 
-2.13189e+07 7.05682e+06 0 
7.05682e+06 -2.19527e+07 0 
0 0 0 
-5.41892e+07 -2.56847e+06 0 
-2.56847e+06 -3.81012e+07 0 
0 0 0 
-6.44889e+07 -1.27953e+07 0 
-1.27953e+07 -2.80474e+07 0 
0 0 0 
4.54054e+06 -1.15727e+07 0 
-1.15727e+07 -3.07974e+06 0 
0 0 0 
4.31103e+06 -4.06776e+06 0 
-4.06776e+06 8.96687e+06 0 
0 0 0 
6.18628e+07 5.39805e+06 0 
5.39805e+06 3.85013e+07 0 
0 0 0 
-4.05072e+07 4.56775e+06 0 
4.56775e+06 39643.4 0 
0 0 0 
-6.37303e+06 6.05777e+06 0 
6.05777e+06 6.13412e+06 0 
0 0 0 
-4.6252e+07 -745266 0 
-745266 -2.07385e+07 0 
0 0 0 
4.45135e+07 -1.08148e+07 0 
-1.08148e+07 1.82493e+06 0 
0 0 0 
-4.9515e+07 -8.37724e+06 0 
-8.37724e+06 -3.76217e+07 0 
0 0 0 
-5.38763e+07 -219636 0 
-219636 -4.36825e+07 0 
0 0 0 
0 0 0 
0 0 0 
0 0 0 
4.61193e+06 6.83709e+06 0 
6.83709e+06 3.08785e+07 0 
0 0 0 
1.64749e+06 4.43905e+06 0 
4.43905e+06 1.81793e+07 0 
0 0 0 
1.20159e+07 -1.52997e+06 0 
-1.52997e+06 3.69655e+07 0 
0 0 0 
-1.01481e+07 -4.74187e+06 0 
-4.74187e+06 -3.37894e+06 0 
0 0 0 
1.41973e+07 -3.15362e+06 0 
-3.15362e+06 2.86868e+07 0 
0 0 0 
3.15547e+07 2.65659e+06 0 
2.65659e+06 4.5807e+07 0 
0 0 0 
6.00681e+07 2.15274e+06 0 
2.15274e+06 6.04808e+07 0 
0 0 0 
3.61458e+07 1.22201e+07 0 
1.22201e+07 -1.45552e+07 0 
0 0 0 
5.09328e+07 4.5118e+06 0 
4.5118e+06 6.04999e+07 0 
0 0 0 
2.05171e+07 2.02961e+06 0 
2.02961e+06 -5.57325e+06 0 
0 0 0 
1.49996e+07 3.81045e+06 0 
3.81045e+06 6.26006e+07 0 
0 0 0 
-2.99964e+07 7.78491e+06 0 
7.78491e+06 -4.65381e+07 0 
0 0 0 
-2.94247e+07 1.87586e+07 0 
1.87586e+07 -1.44909e+07 0 
0 0 0 
-2.95519e+07 2.00172e+07 0 
2.00172e+07 -3.27347e+07 0 
0 0 0 
8.95242e+06 3.38232e+06 0 
3.38232e+06 3.52596e+06 0 
0 0 0 
2.34736e+07 2.63355e+06 0 
2.63355e+06 3.41711e+07 0 
0 0 0 
3.41129e+07 -7.0997e+06 0 
-7.0997e+06 1.96131e+07 0 
0 0 0 
2.33548e+07 -5.21107e+06 0 
-5.21107e+06 1.00995e+07 0 
0 0 0 
6.14949e+06 -3.9562e+06 0 
-3.9562e+06 -9.13334e+06 0 
0 0 0 
-1.76355e+07 2.82123e+06 0 
2.82123e+06 -4.47791e+07 0 
0 0 0 
-2.3775e+07 -2.4261e+06 0 
-2.4261e+06 -3.35725e+07 0 
0 0 0 
-1.46346e+07 -1.6157e+06 0 
-1.6157e+06 -4.90977e+07 0 
0 0 0 
3.92735e+06 -1.52067e+07 0 
-1.52067e+07 6.75592e+06 0 
0 0 0 
-851730 -8.75527e+06 0 
-8.75527e+06 -2.23161e+07 0 
0 0 0 
1.30466e+07 -4.37345e+06 0 
-4.37345e+06 2.57126e+06 0 
0 0 0 
-1.21178e+07 -3.78161e+06 0 
-3.78161e+06 -3.28249e+07 0 
0 0 0 
-1.3255e+07 5.84093e+06 0 
5.84093e+06 1.09948e+06 0 
0 0 0 
-2.73051e+07 2.90061e+06 0 
2.90061e+06 -4.74118e+07 0 
0 0 0 
-4.08253e+07 1.40276e+07 0 
1.40276e+07 -1.03505e+07 0 
0 0 0 
-9.05139e+07 1.52513e+06 0 
1.52513e+06 -8.75096e+07 0 
0 0 0 
-7.55529e+07 7.0745e+06 0 
7.0745e+06 -2.76862e+07 0 
0 0 0 
-9.34687e+07 -3.53375e+06 0 
-3.53375e+06 -7.59448e+07 0 
0 0 0 
-6.83046e+07 -7.66449e+06 0 
-7.66449e+06 -1.23362e+07 0 
0 0 0 
-5.03571e+07 -1.44963e+06 0 
-1.44963e+06 -5.41303e+07 0 
0 0 0 
-1.03036e+07 4.05619e+06 0 
4.05619e+06 -4.28464e+06 0 
0 0 0 
0 0 0 
0 0 0 
0 0 0 
3.93692e+07 2.71732e+06 0 
2.71732e+06 1.08045e+07 0 
0 0 0 
-9.11167e+06 -2.89462e+06 0 
-2.89462e+06 -6.74622e+06 0 
0 0 0 
3.1557e+07 -6.9362e+06 0 
-6.9362e+06 -2.94542e+06 0 
0 0 0 
-1.86093e+07 6.03624e+06 0 
6.03624e+06 -3.97778e+07 0 
0 0 0 
-2.63632e+07 -3.19697e+06 0 
-3.19697e+06 -3.69356e+07 0 
0 0 0 
-2.89689e+07 1.55919e+06 0 
1.55919e+06 -3.68999e+07 0 
0 0 0 
-3.21405e+06 2.30593e+06 0 
2.30593e+06 -4.22026e+07 0 
0 0 0 
-5.17631e+07 4.76491e+06 0 
4.76491e+06 -4.88394e+07 0 
0 0 0 
5.72039e+07 -3.03483e+06 0 
-3.03483e+06 2.91349e+06 0 
0 0 0 
-3.2606e+07 -2.58312e+06 0 
-2.58312e+06 -1.28996e+07 0 
0 0 0 
5.55139e+07 -1.26909e+07 0 
-1.26909e+07 1.75642e+07 0 
0 0 0 
1.39494e+07 -1.28409e+07 0 
-1.28409e+07 9.44119e+06 0 
0 0 0 
5.41683e+07 -9.99002e+06 0 
-9.99002e+06 3.7645e+07 0 
0 0 0 
-6.59814e+07 -4.05127e+06 0 
-4.05127e+06 -4.51128e+06 0 
0 0 0 
2.07248e+07 6.77112e+06 0 
6.77112e+06 2.42004e+07 0 
0 0 0 
2.29979e+07 911777 0 
911777 2.7215e+07 0 
0 0 0 
4.9156e+06 -4.64211e+06 0 
-4.64211e+06 1.69723e+07 0 
0 0 0 
1.69509e+07 -2.97558e+06 0 
-2.97558e+06 2.05985e+07 0 
0 0 0 
-1.34374e+07 -438452 0 
-438452 -962833 0 
0 0 0 
-4.31808e+07 5.48855e+06 0 
5.48855e+06 4.19848e+06 0 
0 0 0 
-2.41046e+07 5.68747e+06 0 
5.68747e+06 558573 0 
0 0 0 
-3.39278e+06 -3.6118e+06 0 
-3.6118e+06 -995555 0 
0 0 0 
7.07014e+07 -7.98905e+06 0 
-7.98905e+06 3.74331e+07 0 
0 0 0 
4.05138e+07 -1.24199e+07 0 
-1.24199e+07 2.72725e+07 0 
0 0 0 
-6.0853e+06 -8.31069e+06 0 
-8.31069e+06 9.58735e+06 0 
0 0 0 
-6.84059e+07 -8.28562e+06 0 
-8.28562e+06 -3.75699e+07 0 
0 0 0 
-5.58832e+07 -6.30144e+06 0 
-6.30144e+06 -4.55177e+07 0 
0 0 0 
-9.60545e+06 -5.67344e+06 0 
-5.67344e+06 -1.79661e+07 0 
0 0 0 
2.58824e+07 -6.54631e+06 0 
-6.54631e+06 1.71854e+06 0 
0 0 0 
3.75633e+07 -147943 0 
-147943 7.29064e+06 0 
0 0 0 
-4.59551e+07 -592759 0 
-592759 -2.8047e+07 0 
0 0 0 
-1.97922e+07 -4.93689e+06 0 
-4.93689e+06 -3.25267e+07 0 
0 0 0 
-6.18276e+07 -474422 0 
-474422 -5.58629e+07 0 
0 0 0 
2.78203e+07 -8.60601e+06 0 
-8.60601e+06 -1.78599e+07 0 
0 0 0 
-3.92393e+07 -1.6728e+07 0 
-1.6728e+07 -2.63062e+07 0 
0 0 0 
-1.1619e+07 -4.63001e+06 0 
-4.63001e+06 -4.06475e+07 0 
0 0 0 
1.35203e+07 9.29411e+06 0 
9.29411e+06 -6.99847e+06 0 
0 0 0 
0 0 0 
0 0 0 
0 0 0 
5.84291e+06 2.00637e+06 0 
2.00637e+06 3.3254e+07 0 
0 0 0 
7.59671e+06 6.795e+06 0 
6.795e+06 2.70175e+07 0 
0 0 0 
2.118e+07 33767.5 0 
33767.5 2.48303e+07 0 
0 0 0 
1.88884e+07 -3.15615e+06 0 
-3.15615e+06 1.03427e+07 0 
0 0 0 
2.78926e+07 7.26867e+06 0 
7.26867e+06 3.23795e+07 0 
0 0 0 
3.33323e+07 -1.2902e+06 0 
-1.2902e+06 4.65377e+07 0 
0 0 0 
2.25383e+07 3.46095e+06 0 
3.46095e+06 5.57513e+07 0 
0 0 0 
-5.60534e+06 -2.56357e+06 0 
-2.56357e+06 -4.74742e+07 0 
0 0 0 
4.01991e+07 1.30483e+06 0 
1.30483e+06 7.56707e+07 0 
0 0 0 
6.54432e+06 -1.68872e+07 0 
-1.68872e+07 -2.79353e+07 0 
0 0 0 
4.46336e+07 -1.23957e+07 0 
-1.23957e+07 8.04606e+07 0 
0 0 0 
1.23233e+07 3.43378e+06 0 
3.43378e+06 -4.31789e+06 0 
0 0 0 
1.20962e+07 1.60856e+07 0 
1.60856e+07 -1.74431e+06 0 
0 0 0 
-3.29385e+06 1.94382e+07 0 
1.94382e+07 -3.00532e+07 0 
0 0 0 
-1.00706e+07 1.06462e+07 0 
1.06462e+07 -1.68437e+07 0 
0 0 0 
5.45651e+06 -228943 0 
-228943 5.92746e+06 0 
0 0 0 
1.13016e+07 -4.33565e+06 0 
-4.33565e+06 2.05428e+07 0 
0 0 0 
6.1257e+06 -1.54068e+07 0 
-1.54068e+07 -1.35293e+07 0 
0 0 0 
2.86187e+07 -9.51048e+06 0 
-9.51048e+06 2.15678e+07 0 
0 0 0 
3.31506e+07 -8.20767e+06 0 
-8.20767e+06 -2.34648e+07 0 
0 0 0 
6.00006e+07 5.86569e+06 0 
5.86569e+06 -5.47974e+06 0 
0 0 0 
5.60296e+07 1.11376e+07 0 
1.11376e+07 -2.87327e+07 0 
0 0 0 
1.05462e+08 6.3061e+06 0 
6.3061e+06 3.57946e+07 0 
0 0 0 
1.4069e+08 8.78396e+06 0 
8.78396e+06 1.7123e+07 0 
0 0 0 
1.67074e+08 2.97863e+06 0 
2.97863e+06 6.82194e+07 0 
0 0 0 
1.73882e+08 3.54507e+06 0 
3.54507e+06 3.10295e+07 0 
0 0 0 
1.71646e+08 -7.40373e+06 0 
-7.40373e+06 5.46572e+07 0 
0 0 0 
1.16087e+08 -8.25935e+06 0 
-8.25935e+06 -3.56992e+06 0 
0 0 0 
1.00581e+08 -1.56171e+07 0 
-1.56171e+07 3.202e+07 0 
0 0 0 
4.7246e+07 -1.01869e+07 0 
-1.01869e+07 -4.80199e+07 0 
0 0 0 
5.05877e+07 -1.10958e+07 0 
-1.10958e+07 2.31266e+07 0 
0 0 0 
2.90299e+06 -1.12198e+07 0 
-1.12198e+07 -4.05005e+07 0 
0 0 0 
8.59685e+06 -4.56909e+06 0 
-4.56909e+06 6.71469e+06 0 
0 0 0 
-2.95845e+07 2.0041e+06 0 
2.0041e+06 -4.39182e+07 0 
0 0 0 
-4.02969e+07 4.60386e+06 0 
4.60386e+06 -8.74932e+06 0 
0 0 0 
-5.12742e+07 5.51117e+06 0 
5.51117e+06 -5.3135e+07 0 
0 0 0 
0 0 0 
0 0 0 
0 0 0 
4.07679e+07 3.755e+06 0 
3.755e+06 2.12112e+07 0 
0 0 0 
-5.68575e+06 3.38145e+06 0 
3.38145e+06 9.70258e+06 0 
0 0 0 
4.23293e+07 -9.0992e+06 0 
-9.0992e+06 3.10483e+07 0 
0 0 0 
-2.87907e+06 -3.80769e+06 0 
-3.80769e+06 2.19816e+07 0 
0 0 0 
-8.26283e+06 -3.07542e+06 0 
-3.07542e+06 6.12311e+06 0 
0 0 0 
1.01837e+07 4.80165e+06 0 
4.80165e+06 1.70191e+07 0 
0 0 0 
-7.67007e+06 1.82653e+06 0 
1.82653e+06 1.0098e+07 0 
0 0 0 
-2.16856e+07 -296552 0 
-296552 -1.30037e+07 0 
0 0 0 
3.06159e+07 -7.51056e+06 0 
-7.51056e+06 -8.83406e+06 0 
0 0 0 
-5.36821e+07 -1.05725e+07 0 
-1.05725e+07 -5.53265e+07 0 
0 0 0 
5.2739e+07 -7.29499e+06 0 
-7.29499e+06 -5.56657e+06 0 
0 0 0 
1.73629e+07 -1.25657e+07 0 
-1.25657e+07 253260 0 
0 0 0 
4.76915e+07 -1.57908e+06 0 
-1.57908e+06 1.27963e+07 0 
0 0 0 
-5.19375e+07 5.75091e+06 0 
5.75091e+06 -1.59872e+07 0 
0 0 0 
7.94898e+06 5.93749e+06 0 
5.93749e+06 1.36769e+06 0 
0 0 0 
-8.28106e+06 -6.8156e+06 0 
-6.8156e+06 6.21041e+06 0 
0 0 0 
1.62832e+07 -1.23367e+07 0 
-1.23367e+07 2.83082e+07 0 
0 0 0 
2.2104e+07 -1.14945e+07 0 
-1.14945e+07 2.47887e+07 0 
0 0 0 
-1.05344e+07 -6.6684e+06 0 
-6.6684e+06 -1.03068e+06 0 
0 0 0 
-6.50148e+07 -6.78215e+06 0 
-6.78215e+06 -6.12905e+07 0 
0 0 0 
-3.87451e+07 -4.60378e+06 0 
-4.60378e+06 -4.85354e+07 0 
0 0 0 
-2.09025e+07 -586391 0 
-586391 -2.25292e+07 0 
0 0 0 
6.30765e+07 -3.47068e+06 0 
-3.47068e+06 2.40651e+06 0 
0 0 0 
3.98375e+07 429910 0 
429910 4.52567e+06 0 
0 0 0 
-3.05361e+07 -6.51848e+06 0 
-6.51848e+06 -2.24725e+07 0 
0 0 0 
-6.01393e+07 -7.97237e+06 0 
-7.97237e+06 -2.2479e+07 0 
0 0 0 
-2.11832e+07 2.21009e+06 0 
2.21009e+06 1.05993e+07 0 
0 0 0 
-1.28475e+07 -638777 0 
-638777 2.65711e+07 0 
0 0 0 
5.02146e+07 -1.5397e+06 0 
-1.5397e+06 6.00884e+07 0 
0 0 0 
6.01763e+07 -6.9522e+06 0 
-6.9522e+06 5.54875e+07 0 
0 0 0 
-3.51617e+07 -1.53443e+06 0 
-1.53443e+06 1.1479e+07 0 
0 0 0 
-1.38664e+07 -7.62308e+06 0 
-7.62308e+06 1.20652e+07 0 
0 0 0 
-3.65826e+07 -1.16743e+07 0 
-1.16743e+07 -2.71017e+06 0 
0 0 0 
2.21536e+07 -5.12725e+06 0 
-5.12725e+06 6.72617e+06 0 
0 0 0 
-2.1658e+07 -6.58064e+06 0 
-6.58064e+06 -2.13743e+07 0 
0 0 0 
2.97962e+07 2.46621e+06 0 
2.46621e+06 -3.23517e+06 0 
0 0 0 
-2.69554e+07 9.9516e+06 0 
9.9516e+06 -1.56976e+07 0 
0 0 0 
-4.24073e+07 660951 0 
660951 -2.20254e+07 0 
0 0 0 
0 0 0 
0 0 0 
0 0 0 
1.75416e+07 6.32018e+06 0 
6.32018e+06 5.23508e+07 0 
0 0 0 
-9.38028e+06 9.84678e+06 0 
9.84678e+06 567807 0 
0 0 0 
-8.2844e+06 1.88061e+06 0 
1.88061e+06 2.69965e+07 0 
0 0 0 
-4.00418e+06 550343 0 
550343 -5.75707e+06 0 
0 0 0 
9.90747e+06 6.30919e+06 0 
6.30919e+06 3.32767e+07 0 
0 0 0 
1.03747e+07 5.4882e+06 0 
5.4882e+06 3.44101e+07 0 
0 0 0 
3.40492e+07 6.86537e+06 0 
6.86537e+06 5.68059e+07 0 
0 0 0 
1.9501e+06 1.25252e+07 0 
1.25252e+07 -4.94112e+07 0 
0 0 0 
1.82624e+07 -6.48678e+06 0 
-6.48678e+06 6.12642e+07 0 
0 0 0 
-1.64043e+07 -2.76251e+06 0 
-2.76251e+06 -4.13972e+07 0 
0 0 0 
5.35569e+07 -2.16873e+06 0 
-2.16873e+06 9.80129e+07 0 
0 0 0 
2.86004e+07 2.19798e+06 0 
2.19798e+06 1.88005e+07 0 
0 0 0 
1.87365e+07 7.98966e+06 0 
7.98966e+06 619160 0 
0 0 0 
-2.21905e+06 1.44499e+07 0 
1.44499e+07 -2.42329e+07 0 
0 0 0 
-4.28111e+06 1.20061e+07 0 
1.20061e+07 -2.18967e+07 0 
0 0 0 
-1.17621e+07 1.11306e+07 0 
1.11306e+07 -1.963e+07 0 
0 0 0 
2.4985e+06 2.29499e+06 0 
2.29499e+06 4.63082e+06 0 
0 0 0 
1.65562e+07 -2.9385e+06 0 
-2.9385e+06 -1.19569e+06 0 
0 0 0 
1.37843e+07 -1.1091e+06 0 
-1.1091e+06 6.74614e+06 0 
0 0 0 
-1.26927e+06 -27722 0 
-27722 -1.6547e+07 0 
0 0 0 
-1.34707e+07 2.83005e+06 0 
2.83005e+06 -1.54495e+07 0 
0 0 0 
-2.22676e+07 2.00704e+07 0 
2.00704e+07 -3.16651e+07 0 
0 0 0 
-2.9013e+07 1.96243e+07 0 
1.96243e+07 -2.79536e+07 0 
0 0 0 
-4.765e+07 2.18821e+07 0 
2.18821e+07 -4.88271e+07 0 
0 0 0 
-2.23385e+07 2.78036e+06 0 
2.78036e+06 751193 0 
0 0 0 
-4.24228e+07 6.1308e+06 0 
6.1308e+06 -3.92881e+07 0 
0 0 0 
-4.35564e+07 -2.15761e+07 0 
-2.15761e+07 -3.83974e+07 0 
0 0 0 
-4.89149e+07 -1.1202e+07 0 
-1.1202e+07 -5.53204e+07 0 
0 0 0 
-2.36888e+07 -1.53218e+07 0 
-1.53218e+07 -1.64788e+07 0 
0 0 0 
-1.25121e+07 -2.35171e+06 0 
-2.35171e+06 -5.77864e+07 0 
0 0 0 
2.29925e+07 -1.04485e+07 0 
-1.04485e+07 7.51462e+06 0 
0 0 0 
3.73597e+07 -1.3095e+07 0 
-1.3095e+07 -2.53879e+07 0 
0 0 0 
7.26184e+07 -1.36916e+07 0 
-1.36916e+07 3.96299e+07 0 
0 0 0 
4.47664e+07 -5.61349e+06 0 
-5.61349e+06 -2.15612e+07 0 
0 0 0 
5.10722e+07 -2.81226e+06 0 
-2.81226e+06 3.1422e+07 0 
0 0 0 
9.0493e+06 335434 0 
335434 -4.34111e+07 0 
0 0 0 
-7.01774e+06 2.55676e+06 0 
2.55676e+06 1.04238e+07 0 
0 0 0 
0 0 0 
0 0 0 
0 0 0 
3.22774e+07 5.2882e+06 0 
5.2882e+06 4.0349e+06 0 
0 0 0 
-1.33438e+07 -6.56689e+06 0 
-6.56689e+06 -2.77432e+07 0 
0 0 0 
1.25942e+07 -2.64012e+06 0 
-2.64012e+06 -2.9897e+07 0 
0 0 0 
-1.49468e+07 4.05007e+06 0 
4.05007e+06 -3.41346e+07 0 
0 0 0 
-1.93437e+07 -540750 0 
-540750 -2.90726e+07 0 
0 0 0 
-2.1011e+06 -1.22615e+06 0 
-1.22615e+06 -4.00366e+07 0 
0 0 0 
-2.98195e+07 -4.34928e+06 0 
-4.34928e+06 -5.00163e+07 0 
0 0 0 
-4.51779e+07 -1.93227e+06 0 
-1.93227e+06 -4.84576e+07 0 
0 0 0 
1.9417e+07 -1.40275e+07 0 
-1.40275e+07 -2.47941e+07 0 
0 0 0 
-4.35574e+07 -2.212e+06 0 
-2.212e+06 -1.89624e+07 0 
0 0 0 
7.87135e+07 3.78488e+06 0 
3.78488e+06 3.23606e+07 0 
0 0 0 
1.93452e+07 -4.73588e+06 0 
-4.73588e+06 2.53195e+07 0 
0 0 0 
8.40934e+07 -523877 0 
-523877 5.85793e+07 0 
0 0 0 
-3.93897e+07 -3.4383e+06 0 
-3.4383e+06 1.26861e+07 0 
0 0 0 
1.3579e+06 5.62339e+06 0 
5.62339e+06 2.22517e+07 0 
0 0 0 
-2.99514e+07 -1.34735e+06 0 
-1.34735e+06 -2.12053e+06 0 
0 0 0 
1.21555e+07 -6.14785e+06 0 
-6.14785e+06 -8.24665e+06 0 
0 0 0 
5.22437e+06 -1.15498e+07 0 
-1.15498e+07 -8.20408e+06 0 
0 0 0 
158420 -1.69177e+07 0 
-1.69177e+07 -7.00605e+06 0 
0 0 0 
-5.09349e+07 -3.60457e+06 0 
-3.60457e+06 1.37918e+06 0 
0 0 0 
-1.7194e+07 1.84298e+06 0 
1.84298e+06 3.84522e+06 0 
0 0 0 
9.65009e+06 1.33036e+07 0 
1.33036e+07 1.10674e+07 0 
0 0 0 
7.0879e+07 6.35368e+06 0 
6.35368e+06 4.91027e+07 0 
0 0 0 
3.41853e+07 -7.55993e+06 0 
-7.55993e+06 2.31927e+07 0 
0 0 0 
-4.04428e+07 -1.906e+07 0 
-1.906e+07 -448516 0 
0 0 0 
-4.46533e+07 -1.14637e+07 0 
-1.14637e+07 -5.30922e+06 0 
0 0 0 
-1.46337e+07 -5.82415e+06 0 
-5.82415e+06 -9.84688e+06 0 
0 0 0 
-2.70902e+07 3.80706e+06 0 
3.80706e+06 -2.69295e+07 0 
0 0 0 
1.96788e+07 5.8856e+06 0 
5.8856e+06 -1.73079e+07 0 
0 0 0 
1.58916e+07 -1.45472e+07 0 
-1.45472e+07 -1.37575e+07 0 
0 0 0 
-2.35659e+07 -1.1666e+07 0 
-1.1666e+07 -2.24623e+07 0 
0 0 0 
-3.4472e+07 -1.01253e+07 0 
-1.01253e+07 -2.50102e+07 0 
0 0 0 
-4.38075e+07 -4.5342e+06 0 
-4.5342e+06 -3.12574e+07 0 
0 0 0 
2.20267e+07 -4.05702e+06 0 
-4.05702e+06 -6.8759e+06 0 
0 0 0 
-1.78189e+07 -9.95977e+06 0 
-9.95977e+06 4.24202e+06 0 
0 0 0 
4.47123e+07 120284 0 
120284 2.82265e+07 0 
0 0 0 
-3.92036e+07 2.19259e+06 0 
2.19259e+06 -1.9169e+07 0 
0 0 0 
-1.40645e+07 1.08645e+06 0 
1.08645e+06 -3.28198e+07 0 
0 0 0 
-1.45731e+07 -1.26919e+07 0 
-1.26919e+07 -1.76088e+07 0 
0 0 0 
0 0 0 
0 0 0 
0 0 0 
8.42756e+06 -9.00211e+06 0 
-9.00211e+06 4.57694e+07 0 
0 0 0 
-1.83459e+07 -5.20957e+06 0 
-5.20957e+06 -3.43376e+06 0 
0 0 0 
-9.0247e+06 5.0402e+06 0 
5.0402e+06 4.17528e+07 0 
0 0 0 
-3.21101e+07 9.69231e+06 0 
9.69231e+06 -1.89876e+07 0 
0 0 0 
-1.03708e+07 9.39532e+06 0 
9.39532e+06 3.56199e+07 0 
0 0 0 
-1.15915e+07 1.04735e+07 0 
1.04735e+07 1.06456e+07 0 
0 0 0 
-2.53392e+06 3.99576e+06 0 
3.99576e+06 5.43832e+07 0 
0 0 0 
-6.46365e+07 9.02392e+06 0 
9.02392e+06 -6.54835e+07 0 
0 0 0 
-4.66602e+06 1.38728e+07 0 
1.38728e+07 4.61107e+07 0 
0 0 0 
-1.15089e+07 1.26038e+07 0 
1.26038e+07 -3.96017e+07 0 
0 0 0 
2.65324e+07 6.8481e+06 0 
6.8481e+06 8.24416e+07 0 
0 0 0 
3.27727e+07 3.48137e+06 0 
3.48137e+06 1.79097e+07 0 
0 0 0 
2.04426e+07 -3.61702e+06 0 
-3.61702e+06 -466435 0 
0 0 0 
-5.99831e+06 -2.16936e+06 0 
-2.16936e+06 -1.42693e+07 0 
0 0 0 
-1.80945e+07 7.66798e+06 0 
7.66798e+06 -2.58011e+07 0 
0 0 0 
8.44072e+06 1.31031e+07 0 
1.31031e+07 6.62735e+06 0 
0 0 0 
-1.16048e+07 1.65575e+07 0 
1.65575e+07 -3.59552e+07 0 
0 0 0 
-5.61346e+06 1.07461e+07 0 
1.07461e+07 2.02487e+07 0 
0 0 0 
6.83161e+06 1.12463e+07 0 
1.12463e+07 -2.59571e+07 0 
0 0 0 
2.73529e+07 3.28652e+06 0 
3.28652e+06 7.17294e+06 0 
0 0 0 
3.07901e+07 7.50944e+06 0 
7.50944e+06 2.86429e+06 0 
0 0 0 
6.83269e+06 2.37788e+06 0 
2.37788e+06 -2.56121e+06 0 
0 0 0 
-1.8019e+07 1.19515e+07 0 
1.19515e+07 -3.78127e+07 0 
0 0 0 
-3.50076e+07 5.21415e+06 0 
5.21415e+06 -4.81136e+07 0 
0 0 0 
-4.92445e+07 4.61251e+06 0 
4.61251e+06 -3.04537e+07 0 
0 0 0 
-7.23217e+07 -2.21924e+07 0 
-2.21924e+07 -4.86576e+07 0 
0 0 0 
-9.07053e+07 -1.38422e+07 0 
-1.38422e+07 -6.70653e+07 0 
0 0 0 
-5.38043e+07 -1.19929e+07 0 
-1.19929e+07 -2.84375e+07 0 
0 0 0 
-5.83856e+07 2.18354e+06 0 
2.18354e+06 -3.06938e+07 0 
0 0 0 
-7.92196e+07 5.97707e+06 0 
5.97707e+06 -7.11796e+07 0 
0 0 0 
-4.98479e+07 7.76425e+06 0 
7.76425e+06 -2.89677e+07 0 
0 0 0 
-5.16363e+07 -646692 0 
-646692 -6.11757e+07 0 
0 0 0 
-1.76685e+07 -2.97192e+06 0 
-2.97192e+06 6.11872e+06 0 
0 0 0 
-1.12062e+07 -1.7911e+07 0 
-1.7911e+07 -3.60182e+07 0 
0 0 0 
29575.5 -1.41129e+07 0 
-1.41129e+07 4.22149e+06 0 
0 0 0 
-3.56669e+07 -1.87404e+07 0 
-1.87404e+07 -3.78037e+07 0 
0 0 0 
-3.22671e+07 -6.67235e+06 0 
-6.67235e+06 -1.10368e+06 0 
0 0 0 
-7.58985e+07 -7.97214e+06 0 
-7.97214e+06 -5.67375e+07 0 
0 0 0 
0 0 0 
0 0 0 
0 0 0 
2.59864e+07 28250.8 0 
28250.8 7.80399e+06 0 
0 0 0 
1.3391e+07 -1.98851e+06 0 
-1.98851e+06 1.00409e+07 0 
0 0 0 
3.23576e+07 5.04764e+06 0 
5.04764e+06 3.5277e+07 0 
0 0 0 
-7.85584e+06 -3.03925e+06 0 
-3.03925e+06 1.93816e+07 0 
0 0 0 
1.55688e+07 1.12609e+06 0 
1.12609e+06 2.50065e+07 0 
0 0 0 
-6.1191e+06 -7.52316e+06 0 
-7.52316e+06 2.50726e+07 0 
0 0 0 
8.28573e+06 -4.87274e+06 0 
-4.87274e+06 1.00441e+07 0 
0 0 0 
-3.0825e+07 -1.50582e+06 0 
-1.50582e+06 -1.40843e+07 0 
0 0 0 
2.4984e+07 8.35643e+06 0 
8.35643e+06 4.49934e+06 0 
0 0 0 
-3.47375e+07 1.55052e+07 0 
1.55052e+07 -1.19194e+07 0 
0 0 0 
6.25309e+07 6.5011e+06 0 
6.5011e+06 2.51459e+07 0 
0 0 0 
2.03292e+07 1.74921e+06 0 
1.74921e+06 1.1777e+07 0 
0 0 0 
6.87864e+07 -6.20089e+06 0 
-6.20089e+06 2.36572e+07 0 
0 0 0 
-4.96037e+07 -9.32176e+06 0 
-9.32176e+06 -2.68401e+07 0 
0 0 0 
-2.19847e+07 -6.43588e+06 0 
-6.43588e+06 -2.74383e+07 0 
0 0 0 
-4.40837e+07 -1.2509e+07 0 
-1.2509e+07 -4.41713e+07 0 
0 0 0 
-3.02031e+06 -1.26152e+07 0 
-1.26152e+07 -2.68716e+07 0 
0 0 0 
-5.014e+06 -1.74549e+07 0 
-1.74549e+07 -4.01174e+07 0 
0 0 0 
675471 -6.3728e+06 0 
-6.3728e+06 -3.14232e+07 0 
0 0 0 
-5.58448e+07 -2.40922e+06 0 
-2.40922e+06 -5.13168e+07 0 
0 0 0 
-2.28612e+07 6.2305e+06 0 
6.2305e+06 -2.70739e+07 0 
0 0 0 
3.75356e+06 1.16375e+07 0 
1.16375e+07 -1.80656e+07 0 
0 0 0 
3.45151e+07 -4.9924e+06 0 
-4.9924e+06 -1.96531e+07 0 
0 0 0 
1.82001e+06 -8.37154e+06 0 
-8.37154e+06 -1.10152e+07 0 
0 0 0 
-5.26521e+07 -1.31925e+07 0 
-1.31925e+07 -2.79442e+07 0 
0 0 0 
-3.59591e+07 -8.41673e+06 0 
-8.41673e+06 -2.95413e+07 0 
0 0 0 
-7.46289e+06 2.34192e+06 0 
2.34192e+06 -2.48565e+07 0 
0 0 0 
-1.5608e+07 5.00148e+06 0 
5.00148e+06 -2.22645e+07 0 
0 0 0 
1.86776e+06 122384 0 
122384 -1.98993e+07 0 
0 0 0 
-5.26585e+06 -3.01845e+06 0 
-3.01845e+06 -1.44196e+07 0 
0 0 0 
-8.74717e+06 -1.08123e+07 0 
-1.08123e+07 -5.06761e+06 0 
0 0 0 
-1.80524e+07 -1.07796e+07 0 
-1.07796e+07 -5.61755e+06 0 
0 0 0 
-2.41732e+07 -1.04239e+07 0 
-1.04239e+07 2.74197e+06 0 
0 0 0 
1.20273e+07 -6.16546e+06 0 
-6.16546e+06 1.13392e+07 0 
0 0 0 
-1.66069e+07 -3.93492e+06 0 
-3.93492e+06 -1.25677e+07 0 
0 0 0 
4.1764e+07 -2.57292e+06 0 
-2.57292e+06 7.76752e+06 0 
0 0 0 
-4.43692e+07 -1.26404e+07 0 
-1.26404e+07 -2.49278e+07 0 
0 0 0 
-2.16354e+07 -6.58195e+06 0 
-6.58195e+06 -1.45281e+07 0 
0 0 0 
-7.38447e+07 -4.63269e+06 0 
-4.63269e+06 -3.88059e+07 0 
0 0 0 
-4.8492e+07 -7.38746e+06 0 
-7.38746e+06 -2.2885e+07 0 
0 0 0 
0 0 0 
0 0 0 
0 0 0 
1.53792e+07 -604234 0 
-604234 3.40296e+07 0 
0 0 0 
1.76011e+07 3.63543e+06 0 
3.63543e+06 2.87188e+07 0 
0 0 0 
2.14446e+07 1.26619e+06 0 
1.26619e+06 4.76182e+07 0 
0 0 0 
7.85768e+06 7.64573e+06 0 
7.64573e+06 1.87872e+07 0 
0 0 0 
1.55939e+06 5.70923e+06 0 
5.70923e+06 1.12228e+07 0 
0 0 0 
9.28492e+06 8.67044e+06 0 
8.67044e+06 2.4994e+07 0 
0 0 0 
3.83408e+07 7.13703e+06 0 
7.13703e+06 6.56355e+07 0 
0 0 0 
3.12997e+07 3.27566e+06 0 
3.27566e+06 -1.88011e+07 0 
0 0 0 
5.4134e+07 1.57918e+07 0 
1.57918e+07 6.89727e+07 0 
0 0 0 
1.52209e+07 5.84734e+06 0 
5.84734e+06 -2.968e+07 0 
0 0 0 
4.44587e+07 1.0999e+07 0 
1.0999e+07 6.21566e+07 0 
0 0 0 
-8.71867e+06 -5.0682e+06 0 
-5.0682e+06 -1.09587e+07 0 
0 0 0 
-2.97384e+06 -8.34958e+06 0 
-8.34958e+06 618012 0 
0 0 0 
2.52816e+07 2.49408e+06 0 
2.49408e+06 1.6833e+06 0 
0 0 0 
2.39158e+07 3.67875e+06 0 
3.67875e+06 5.85794e+06 0 
0 0 0 
1.72866e+07 1.8295e+07 0 
1.8295e+07 1.71685e+07 0 
0 0 0 
1.26675e+07 4.54191e+06 0 
4.54191e+06 -1.68012e+07 0 
0 0 0 
3.05256e+07 1.55563e+07 0 
1.55563e+07 8.27445e+06 0 
0 0 0 
1.33318e+07 8.0823e+06 0 
8.0823e+06 -1.92035e+07 0 
0 0 0 
1.66117e+07 4.7622e+06 0 
4.7622e+06 -3.48709e+06 0 
0 0 0 
-1.40522e+07 -9.6007e+06 0 
-9.6007e+06 -2.20919e+07 0 
0 0 0 
-6.07676e+06 -8.17492e+06 0 
-8.17492e+06 -1.07682e+07 0 
0 0 0 
-5.03608e+06 893836 0 
893836 -1.27675e+07 0 
0 0 0 
-2.49193e+07 3.5925e+06 0 
3.5925e+06 -5.59207e+07 0 
0 0 0 
-1.36663e+07 166919 0 
166919 -3.17057e+07 0 
0 0 0 
-56781 -1.04856e+07 0 
-1.04856e+07 -3.20971e+07 0 
0 0 0 
3.19272e+07 -8.27889e+06 0 
-8.27889e+06 -2.35005e+07 0 
0 0 0 
2.77025e+07 -1.56378e+07 0 
-1.56378e+07 4.28053e+06 0 
0 0 0 
3.74149e+07 -1.49795e+07 0 
-1.49795e+07 1.9411e+07 0 
0 0 0 
1.271e+07 -1.37636e+06 0 
-1.37636e+06 -2.83886e+07 0 
0 0 0 
-1.52551e+07 5.45708e+06 0 
5.45708e+06 -3.37721e+07 0 
0 0 0 
-2.29323e+07 800705 0 
800705 -3.79151e+07 0 
0 0 0 
-1.06648e+07 9.17913e+06 0 
9.17913e+06 -2.11139e+07 0 
0 0 0 
3.62198e+06 199723 0 
199723 -2.13095e+07 0 
0 0 0 
2.30235e+07 -6.85606e+06 0 
-6.85606e+06 -8.24111e+06 0 
0 0 0 
6.05489e+07 -1.38903e+07 0 
-1.38903e+07 2.21474e+06 0 
0 0 0 
8.51067e+07 -1.82627e+07 0 
-1.82627e+07 3.63072e+07 0 
0 0 0 
6.39474e+07 -1.64206e+07 0 
-1.64206e+07 859416 0 
0 0 0 
5.06261e+07 -1.21637e+07 0 
-1.21637e+07 -190573 0 
0 0 0 
0 0 0 
0 0 0 
0 0 0 
1.21284e+07 -2.34975e+06 0 
-2.34975e+06 -8.06298e+06 0 
0 0 0 
1.11509e+06 -1.08728e+07 0 
-1.08728e+07 -2.46101e+07 0 
0 0 0 
9.05514e+06 -1.03956e+07 0 
-1.03956e+07 -3.51505e+07 0 
0 0 0 
-1.02962e+07 -2.11229e+06 0 
-2.11229e+06 -4.9658e+07 0 
0 0 0 
-2.16165e+07 9.14861e+06 0 
9.14861e+06 -5.20406e+07 0 
0 0 0 
-3.04488e+07 -7.4848e+06 0 
-7.4848e+06 -4.64005e+07 0 
0 0 0 
-6.28283e+06 -8.77016e+06 0 
-8.77016e+06 -2.81505e+07 0 
0 0 0 
-1.28205e+07 1.92535e+06 0 
1.92535e+06 -1.78831e+07 0 
0 0 0 
3.85654e+07 2.13046e+06 0 
2.13046e+06 2.42774e+07 0 
0 0 0 
-4.39453e+07 9.63795e+06 0 
9.63795e+06 -8.17238e+06 0 
0 0 0 
4.62826e+07 5.92258e+06 0 
5.92258e+06 1.28546e+07 0 
0 0 0 
3.34418e+07 8.70333e+06 0 
8.70333e+06 1.84165e+07 0 
0 0 0 
5.21862e+07 -6.45874e+06 0 
-6.45874e+06 2.11004e+07 0 
0 0 0 
-4.74398e+07 -1.13087e+07 0 
-1.13087e+07 -1.77663e+07 0 
0 0 0 
-2.70247e+07 -9.01979e+06 0 
-9.01979e+06 -2.7434e+07 0 
0 0 0 
-5.59323e+07 -1.1913e+07 0 
-1.1913e+07 -3.71792e+07 0 
0 0 0 
1.01061e+07 -1.38847e+07 0 
-1.38847e+07 -6.86423e+06 0 
0 0 0 
1.09879e+07 -1.68332e+07 0 
-1.68332e+07 9.93048e+06 0 
0 0 0 
3.66228e+07 -3.0468e+06 0 
-3.0468e+06 3.4389e+07 0 
0 0 0 
-8.73698e+06 399246 0 
399246 3.61911e+07 0 
0 0 0 
2.15098e+06 1.04032e+07 0 
1.04032e+07 2.73924e+07 0 
0 0 0 
1.30719e+06 6.31499e+06 0 
6.31499e+06 9.98989e+06 0 
0 0 0 
2.80884e+07 3.04201e+06 0 
3.04201e+06 2.21507e+06 0 
0 0 0 
-1.76906e+07 -7.93611e+06 0 
-7.93611e+06 -3.85123e+07 0 
0 0 0 
-5.00856e+07 -7.51916e+06 0 
-7.51916e+06 -4.50528e+07 0 
0 0 0 
-3.11554e+07 -7.26487e+06 0 
-7.26487e+06 -1.94107e+07 0 
0 0 0 
2.55854e+07 -2.29905e+06 0 
-2.29905e+06 1.54841e+07 0 
0 0 0 
-8.44843e+06 4.32683e+06 0 
4.32683e+06 -1.16575e+06 0 
0 0 0 
-1.48525e+07 1.84503e+06 0 
1.84503e+06 1.26728e+06 0 
0 0 0 
-1.49807e+07 -1.40867e+07 0 
-1.40867e+07 -1.2831e+07 0 
0 0 0 
-5.26715e+06 -1.02813e+07 0 
-1.02813e+07 -3.03871e+07 0 
0 0 0 
-2.79936e+07 -5.08368e+06 0 
-5.08368e+06 -3.20135e+07 0 
0 0 0 
-2.9742e+07 -7.96542e+06 0 
-7.96542e+06 -2.77267e+07 0 
0 0 0 
2.08699e+07 -3.22527e+06 0 
-3.22527e+06 -9.03393e+06 0 
0 0 0 
-2.86618e+07 6.75542e+06 0 
6.75542e+06 -9.48081e+06 0 
0 0 0 
3.62596e+07 -6.70554e+06 0 
-6.70554e+06 1.93507e+07 0 
0 0 0 
-3.45382e+07 -9.9206e+06 0 
-9.9206e+06 2.09966e+06 0 
0 0 0 
-4.68503e+06 -6.37015e+06 0 
-6.37015e+06 1.49093e+07 0 
0 0 0 
-2.96326e+07 -7.37855e+06 0 
-7.37855e+06 1.33432e+07 0 
0 0 0 
4.95132e+07 805512 0 
805512 1.10711e+07 0 
0 0 0 
6.42404e+07 -9.35594e+06 0 
-9.35594e+06 4.2886e+07 0 
0 0 0 
0 0 0 
0 0 0 
0 0 0 
2.00311e+07 1.63485e+06 0 
1.63485e+06 4.08419e+07 0 
0 0 0 
2.41924e+07 440279 0 
440279 2.96101e+07 0 
0 0 0 
4.58829e+07 5.76363e+06 0 
5.76363e+06 5.19852e+07 0 
0 0 0 
4.41725e+07 -4.95553e+06 0 
-4.95553e+06 3.42878e+07 0 
0 0 0 
3.161e+07 3.25821e+06 0 
3.25821e+06 2.27471e+07 0 
0 0 0 
3.50759e+07 1.99197e+07 0 
1.99197e+07 4.55699e+07 0 
0 0 0 
2.10356e+07 8.52754e+06 0 
8.52754e+06 4.31129e+07 0 
0 0 0 
-4.76494e+06 9.40268e+06 0 
9.40268e+06 -1.43988e+07 0 
0 0 0 
8.29326e+06 4.3192e+06 0 
4.3192e+06 3.88963e+07 0 
0 0 0 
-1.86304e+07 516638 0 
516638 -3.71891e+07 0 
0 0 0 
4.96296e+06 -4.33066e+06 0 
-4.33066e+06 4.68037e+07 0 
0 0 0 
-4.15972e+07 -6.03106e+06 0 
-6.03106e+06 -4.12383e+07 0 
0 0 0 
-2.57347e+07 1.16393e+07 0 
1.16393e+07 1.33757e+07 0 
0 0 0 
-4.16521e+07 7.31871e+06 0 
7.31871e+06 -1.54226e+07 0 
0 0 0 
-2.4133e+07 1.18353e+07 0 
1.18353e+07 -4.82778e+06 0 
0 0 0 
-1.01807e+07 1.26108e+07 0 
1.26108e+07 1.12571e+07 0 
0 0 0 
-1.88303e+07 1.09531e+07 0 
1.09531e+07 -2.6169e+07 0 
0 0 0 
-1.23134e+07 7.7584e+06 0 
7.7584e+06 -9.99814e+06 0 
0 0 0 
-2.60998e+07 1.41824e+07 0 
1.41824e+07 -3.11199e+07 0 
0 0 0 
-2.70763e+07 3.17678e+06 0 
3.17678e+06 -2.95273e+07 0 
0 0 0 
5.90629e+06 913770 0 
913770 -2.24178e+07 0 
0 0 0 
1.48233e+07 4.23952e+06 0 
4.23952e+06 -7.28581e+06 0 
0 0 0 
9.1845e+06 2.29421e+06 0 
2.29421e+06 9.31389e+06 0 
0 0 0 
4.37365e+06 1.23687e+07 0 
1.23687e+07 -4.05514e+07 0 
0 0 0 
1.07373e+07 1.0062e+07 0 
1.0062e+07 -2.88179e+07 0 
0 0 0 
2.40931e+07 1.06054e+07 0 
1.06054e+07 -3.75728e+07 0 
0 0 0 
2.98837e+07 -5.07566e+06 0 
-5.07566e+06 -2.53927e+07 0 
0 0 0 
4.29585e+07 -8.98108e+06 0 
-8.98108e+06 -3.92468e+06 0 
0 0 0 
4.82979e+07 -7.63988e+06 0 
-7.63988e+06 4.15943e+07 0 
0 0 0 
1.9137e+07 -1.24548e+07 0 
-1.24548e+07 -2.40195e+07 0 
0 0 0 
-2.0038e+06 -1.16241e+07 0 
-1.16241e+07 -2.73113e+07 0 
0 0 0 
-3.2528e+07 -341222 0 
-341222 -2.74778e+07 0 
0 0 0 
-4.86699e+07 1.08339e+07 0 
1.08339e+07 -4.30043e+07 0 
0 0 0 
-5.74471e+07 4.68381e+06 0 
4.68381e+06 -3.90006e+07 0 
0 0 0 
-5.90896e+07 123908 0 
123908 -5.1543e+07 0 
0 0 0 
-4.9261e+07 5.98248e+06 0 
5.98248e+06 -4.09232e+07 0 
0 0 0 
-1.55857e+07 -7.21912e+06 0 
-7.21912e+06 8.54964e+06 0 
0 0 0 
-1.91948e+07 -1.87102e+07 0 
-1.87102e+07 -3.83341e+07 0 
0 0 0 
592845 -9.7515e+06 0 
-9.7515e+06 579730 0 
0 0 0 
-1.15216e+07 -3.74351e+06 0 
-3.74351e+06 -8.54428e+06 0 
0 0 0 
0 0 0 
0 0 0 
0 0 0 
1.26048e+06 -8.89274e+06 0 
-8.89274e+06 8.6146e+06 0 
0 0 0 
8.59698e+06 -6.97236e+06 0 
-6.97236e+06 2.04668e+07 0 
0 0 0 
6.06722e+07 1.39026e+06 0 
1.39026e+06 4.53495e+07 0 
0 0 0 
2.24439e+07 -2.87308e+06 0 
-2.87308e+06 3.98716e+07 0 
0 0 0 
-6.14663e+06 -1.49835e+06 0 
-1.49835e+06 3.09226e+07 0 
0 0 0 
-1.45894e+07 -1.04034e+07 0 
-1.04034e+07 2.08935e+07 0 
0 0 0 
3.52968e+07 -1.04209e+07 0 
-1.04209e+07 3.62939e+07 0 
0 0 0 
-2.47261e+06 6.13478e+06 0 
6.13478e+06 2.21044e+07 0 
0 0 0 
4.93968e+07 7.79819e+06 0 
7.79819e+06 3.59424e+07 0 
0 0 0 
-2.15874e+07 6.43202e+06 0 
6.43202e+06 2.23972e+07 0 
0 0 0 
3.85665e+07 1.27708e+07 0 
1.27708e+07 3.25311e+07 0 
0 0 0 
2.3878e+07 -709155 0 
-709155 -1.73819e+06 0 
0 0 0 
2.95718e+07 -1.30832e+07 0 
-1.30832e+07 -5.54375e+06 0 
0 0 0 
-4.75378e+07 -1.64336e+07 0 
-1.64336e+07 -3.29886e+07 0 
0 0 0 
-4.81768e+07 -2.07918e+07 0 
-2.07918e+07 -3.40708e+07 0 
0 0 0 
-4.13617e+07 -3.7628e+06 0 
-3.7628e+06 -2.63499e+07 0 
0 0 0 
8.21942e+06 -1.56661e+06 0 
-1.56661e+06 9.00288e+06 0 
0 0 0 
2.5209e+07 -9.82846e+06 0 
-9.82846e+06 2.39855e+07 0 
0 0 0 
3.4672e+07 957676 0 
957676 1.05695e+07 0 
0 0 0 
-2.61815e+07 -6.05197e+06 0 
-6.05197e+06 -2.97187e+07 0 
0 0 0 
6.45373e+06 -4.03139e+06 0 
-4.03139e+06 -1.76924e+07 0 
0 0 0 
-2.77745e+07 -1.00421e+06 0 
-1.00421e+06 -3.72919e+07 0 
0 0 0 
2.0318e+07 -7.63035e+06 0 
-7.63035e+06 -2.16397e+07 0 
0 0 0 
-3.35897e+07 -7.49085e+06 0 
-7.49085e+06 -3.77414e+07 0 
0 0 0 
-5.5246e+07 -8.03359e+06 0 
-8.03359e+06 -5.61439e+07 0 
0 0 0 
-2.43151e+07 4.38521e+06 0 
4.38521e+06 -3.1584e+07 0 
0 0 0 
3.19669e+07 4.63662e+06 0 
4.63662e+06 -4.23312e+06 0 
0 0 0 
-1.06176e+07 4.7677e+06 0 
4.7677e+06 -6.88486e+06 0 
0 0 0 
-4.3613e+07 339421 0 
339421 -1.54414e+07 0 
0 0 0 
-807706 -4.96016e+06 0 
-4.96016e+06 5.55135e+06 0 
0 0 0 
-1.36293e+06 -1.06299e+07 0 
-1.06299e+07 7.57739e+06 0 
0 0 0 
-1.03324e+07 -8.25727e+06 0 
-8.25727e+06 -1.83021e+07 0 
0 0 0 
-3.05187e+07 -2.9021e+06 0 
-2.9021e+06 -4.2257e+07 0 
0 0 0 
8.98826e+06 -6.71388e+06 0 
-6.71388e+06 -2.7615e+07 0 
0 0 0 
-4.79933e+07 -5.39522e+06 0 
-5.39522e+06 -5.03938e+07 0 
0 0 0 
2.18916e+07 -2.65769e+06 0 
-2.65769e+06 -3.36864e+07 0 
0 0 0 
-5.64252e+07 -1.94263e+06 0 
-1.94263e+06 -5.27545e+07 0 
0 0 0 
-1.12454e+07 -3.43827e+06 0 
-3.43827e+06 -2.54443e+07 0 
0 0 0 
-3.31986e+07 2.6484e+06 0 
2.6484e+06 -2.38285e+07 0 
0 0 0 
3.40185e+07 -7.11795e+06 0 
-7.11795e+06 1.61252e+07 0 
0 0 0 
-1.55535e+07 -6.70682e+06 0 
-6.70682e+06 9.75312e+06 0 
0 0 0 
-1.56637e+07 -1.96778e+07 0 
-1.96778e+07 -3.00823e+06 0 
0 0 0 
0 0 0 
0 0 0 
0 0 0 
-416129 -1.01148e+06 0 
-1.01148e+06 3.04902e+07 0 
0 0 0 
-4.73116e+06 3.23747e+06 0 
3.23747e+06 2.34619e+07 0 
0 0 0 
-1.21188e+06 5.32842e+06 0 
5.32842e+06 3.84484e+07 0 
0 0 0 
-1.14023e+07 1.10621e+06 0 
1.10621e+06 6.70852e+06 0 
0 0 0 
1.36395e+07 4.02372e+06 0 
4.02372e+06 3.16983e+07 0 
0 0 0 
1.28392e+07 2.25589e+06 0 
2.25589e+06 4.13393e+07 0 
0 0 0 
-3.85289e+06 1.94948e+06 0 
1.94948e+06 2.71165e+07 0 
0 0 0 
-3.61592e+07 701854 0 
701854 -1.97013e+07 0 
0 0 0 
-2.76199e+07 3.50878e+06 0 
3.50878e+06 1.50398e+07 0 
0 0 0 
-5.32871e+07 -1.24459e+06 0 
-1.24459e+06 -5.69519e+07 0 
0 0 0 
-1.62215e+07 -392346 0 
-392346 5.77486e+07 0 
0 0 0 
-1.09293e+07 -2.56602e+06 0 
-2.56602e+06 -3.63115e+07 0 
0 0 0 
3.00847e+07 1.32003e+07 0 
1.32003e+07 5.41134e+07 0 
0 0 0 
1.15982e+07 7.79804e+06 0 
7.79804e+06 -1.4814e+07 0 
0 0 0 
2.64599e+07 1.70061e+07 0 
1.70061e+07 3.30091e+07 0 
0 0 0 
5.39464e+06 8.57441e+06 0 
8.57441e+06 -4.60565e+06 0 
0 0 0 
-325822 1.18331e+07 0 
1.18331e+07 -1.51906e+07 0 
0 0 0 
-510500 -1.4781e+06 0 
-1.4781e+06 -1.15555e+07 0 
0 0 0 
6.84091e+06 1.1e+07 0 
1.1e+07 -6.37826e+06 0 
0 0 0 
1.28966e+07 3.18715e+06 0 
3.18715e+06 -3.93955e+07 0 
0 0 0 
1.06147e+07 1.36944e+06 0 
1.36944e+06 -7.96368e+06 0 
0 0 0 
-1.05526e+07 -1.02453e+07 0 
-1.02453e+07 -2.37701e+07 0 
0 0 0 
1.63413e+06 1.07012e+06 0 
1.07012e+06 641307 0 
0 0 0 
-3.66031e+07 -1.10881e+07 0 
-1.10881e+07 -3.82735e+07 0 
0 0 0 
-5.26458e+07 8.2904e+06 0 
8.2904e+06 -3.39628e+07 0 
0 0 0 
-8.3849e+07 7.80323e+06 0 
7.80323e+06 -9.3394e+07 0 
0 0 0 
-6.1749e+07 5.64157e+06 0 
5.64157e+06 -5.93223e+07 0 
0 0 0 
-4.09358e+07 -1.11617e+07 0 
-1.11617e+07 -4.11567e+07 0 
0 0 0 
1.5573e+06 -1.12057e+07 0 
-1.12057e+07 2.0021e+07 0 
0 0 0 
-96503.9 -2.32626e+07 0 
-2.32626e+07 -3.89739e+07 0 
0 0 0 
2.53378e+07 -1.65506e+07 0 
-1.65506e+07 1.21813e+07 0 
0 0 0 
3.97515e+07 -5.74775e+06 0 
-5.74775e+06 -7.05762e+06 0 
0 0 0 
3.5411e+07 2.69802e+06 0 
2.69802e+06 -3.67168e+06 0 
0 0 0 
9.62936e+06 -3.16564e+06 0 
-3.16564e+06 -2.88001e+07 0 
0 0 0 
3.36803e+06 5.34295e+06 0 
5.34295e+06 -2.52159e+07 0 
0 0 0 
-1.6998e+07 -388486 0 
-388486 -3.85967e+07 0 
0 0 0 
-1.71848e+07 -3.436e+06 0 
-3.436e+06 -1.50439e+06 0 
0 0 0 
-1.19126e+07 -1.03101e+07 0 
-1.03101e+07 -2.63429e+07 0 
0 0 0 
2.03387e+06 -2.67374e+06 0 
-2.67374e+06 -1.44554e+06 0 
0 0 0 
345708 -9.93934e+06 0 
-9.93934e+06 2.2604e+06 0 
0 0 0 
2.20241e+06 -1.18699e+06 0 
-1.18699e+06 -97071.8 0 
0 0 0 
0 0 0 
0 0 0 
0 0 0 
-1.77222e+07 134395 0 
134395 -6.56539e+06 0 
0 0 0 
1.91462e+07 1.05466e+06 0 
1.05466e+06 6.2678e+06 0 
0 0 0 
4.97469e+07 644514 0 
644514 2.47869e+07 0 
0 0 0 
1.21292e+07 -5.80762e+06 0 
-5.80762e+06 1.74667e+07 0 
0 0 0 
-3.16413e+07 -2.50292e+06 0 
-2.50292e+06 -5.24063e+06 0 
0 0 0 
-1.35607e+07 -9.3716e+06 0 
-9.3716e+06 1.98039e+06 0 
0 0 0 
3.50603e+07 -8.25035e+06 0 
-8.25035e+06 3.22057e+07 0 
0 0 0 
2.33973e+07 -1.64796e+06 0 
-1.64796e+06 3.93013e+07 0 
0 0 0 
4.42604e+07 3.22232e+06 0 
3.22232e+06 3.21391e+07 0 
0 0 0 
-1.08296e+07 5.62847e+06 0 
5.62847e+06 -7.9474e+06 0 
0 0 0 
6.38065e+06 -3.56088e+06 0 
-3.56088e+06 -1.23304e+07 0 
0 0 0 
-972328 -7.17388e+06 0 
-7.17388e+06 -2.36168e+07 0 
0 0 0 
2.00841e+07 -9.41494e+06 0 
-9.41494e+06 -1.92899e+07 0 
0 0 0 
-5.34116e+07 -2.30261e+07 0 
-2.30261e+07 -3.16102e+07 0 
0 0 0 
-3.51179e+07 -1.14478e+07 0 
-1.14478e+07 -1.79463e+07 0 
0 0 0 
-2.00913e+07 5.71408e+06 0 
5.71408e+06 -527454 0 
0 0 0 
4.06921e+06 4.58811e+06 0 
4.58811e+06 5.19735e+06 0 
0 0 0 
2.74044e+07 -809278 0 
-809278 1.16176e+07 0 
0 0 0 
2.55945e+07 -8.58056e+06 0 
-8.58056e+06 1.944e+07 0 
0 0 0 
-1.94152e+07 -8.14595e+06 0 
-8.14595e+06 230225 0 
0 0 0 
2.58887e+07 -6.69315e+06 0 
-6.69315e+06 7.48891e+06 0 
0 0 0 
-1.52452e+07 -1.0999e+07 0 
-1.0999e+07 -3.59873e+06 0 
0 0 0 
4.6618e+06 -1.24453e+07 0 
-1.24453e+07 -9.42348e+06 0 
0 0 0 
-9.44966e+06 -2.06726e+07 0 
-2.06726e+07 -1.97319e+07 0 
0 0 0 
-4.22458e+07 4.51175e+06 0 
4.51175e+06 -1.81957e+07 0 
0 0 0 
5.31318e+06 1.46136e+07 0 
1.46136e+07 -1.67677e+07 0 
0 0 0 
1.68024e+07 1.27837e+07 0 
1.27837e+07 -7.27886e+06 0 
0 0 0 
-2.15611e+07 2.12886e+06 0 
2.12886e+06 -1.29315e+07 0 
0 0 0 
-3.11837e+07 7.21717e+06 0 
7.21717e+06 -1.65727e+07 0 
0 0 0 
-2.31238e+07 -4.63715e+06 0 
-4.63715e+06 -1.01813e+07 0 
0 0 0 
-8.33948e+06 -1.47307e+07 0 
-1.47307e+07 -2.06516e+06 0 
0 0 0 
-2.61296e+06 -1.727e+07 0 
-1.727e+07 -5.25783e+06 0 
0 0 0 
-2.39315e+07 -1.68638e+07 0 
-1.68638e+07 -1.96647e+07 0 
0 0 0 
1.81837e+07 -3.52207e+06 0 
-3.52207e+06 -3.47088e+06 0 
0 0 0 
-1.90181e+07 1.01788e+07 0 
1.01788e+07 -1.46628e+07 0 
0 0 0 
1.17767e+07 527976 0 
527976 3.26459e+06 0 
0 0 0 
-1.64957e+07 969207 0 
969207 -1.84307e+06 0 
0 0 0 
-1.05179e+07 6.92815e+06 0 
6.92815e+06 -2.16529e+06 0 
0 0 0 
-3.81803e+07 -6.00572e+06 0 
-6.00572e+06 -1.91874e+07 0 
0 0 0 
-1.55079e+06 -1.35485e+07 0 
-1.35485e+07 -2.56686e+07 0 
0 0 0 
-8.86899e+06 -1.68596e+07 0 
-1.68596e+07 -2.36326e+07 0 
0 0 0 
2.01412e+07 -1.53589e+07 0 
-1.53589e+07 8.22497e+06 0 
0 0 0 
6.89368e+06 -1.03681e+07 0 
-1.03681e+07 -2.16295e+07 0 
0 0 0 
0 0 0 
0 0 0 
0 0 0 
2.09752e+07 4.02871e+06 0 
4.02871e+06 4.91724e+07 0 
0 0 0 
2.25336e+07 2.01215e+07 0 
2.01215e+07 3.82219e+07 0 
0 0 0 
1.40267e+07 6.26835e+06 0 
6.26835e+06 2.1422e+07 0 
0 0 0 
2.01521e+07 4.13747e+06 0 
4.13747e+06 2.62392e+07 0 
0 0 0 
1.64434e+07 4.8161e+06 0 
4.8161e+06 2.56527e+07 0 
0 0 0 
-1.29701e+06 -4.58394e+06 0 
-4.58394e+06 2.73849e+07 0 
0 0 0 
2.90278e+06 -2.5259e+06 0 
-2.5259e+06 4.49662e+07 0 
0 0 0 
-1.26543e+07 -6.90587e+06 0 
-6.90587e+06 -2.28805e+07 0 
0 0 0 
1.61742e+06 2.74217e+06 0 
2.74217e+06 2.60632e+07 0 
0 0 0 
-3.01238e+06 4.2406e+06 0 
4.2406e+06 -2.43585e+07 0 
0 0 0 
3.56575e+07 4.80456e+06 0 
4.80456e+06 6.14598e+07 0 
0 0 0 
2.41028e+07 1.35641e+07 0 
1.35641e+07 -1.02641e+07 0 
0 0 0 
6.54042e+07 1.8957e+06 0 
1.8957e+06 5.91184e+07 0 
0 0 0 
3.3416e+07 3.56165e+06 0 
3.56165e+06 366380 0 
0 0 0 
3.14455e+07 7.08862e+06 0 
7.08862e+06 4.34187e+07 0 
0 0 0 
-4.97866e+06 2.77979e+06 0 
2.77979e+06 -2.43425e+07 0 
0 0 0 
-2.88357e+07 3.67123e+06 0 
3.67123e+06 -2.0139e+07 0 
0 0 0 
-2.98612e+07 9.86064e+06 0 
9.86064e+06 -2.19191e+07 0 
0 0 0 
-2.93362e+07 8.42486e+06 0 
8.42486e+06 -1.05081e+07 0 
0 0 0 
-4.60075e+07 2.13091e+07 0 
2.13091e+07 -6.33734e+07 0 
0 0 0 
-7.78923e+06 -3.54899e+06 0 
-3.54899e+06 -3.06793e+07 0 
0 0 0 
-9.88028e+06 -1.71974e+07 0 
-1.71974e+07 -3.64748e+07 0 
0 0 0 
-4.33749e+07 -2.03878e+07 0 
-2.03878e+07 -4.18493e+06 0 
0 0 0 
-7.14522e+07 -3.15781e+06 0 
-3.15781e+06 -4.04421e+07 0 
0 0 0 
-5.59977e+07 699157 0 
699157 -1.92157e+07 0 
0 0 0 
-6.59912e+07 1.24275e+07 0 
1.24275e+07 -8.07354e+07 0 
0 0 0 
-6.94998e+07 6.7312e+06 0 
6.7312e+06 -8.31019e+07 0 
0 0 0 
-5.71613e+07 -2.97159e+06 0 
-2.97159e+06 -5.64092e+07 0 
0 0 0 
-2.91788e+07 -3.78735e+06 0 
-3.78735e+06 -4.19792e+06 0 
0 0 0 
-3.75204e+07 -9.18089e+06 0 
-9.18089e+06 -3.30619e+07 0 
0 0 0 
-1.6291e+07 -1.113e+07 0 
-1.113e+07 -3.2872e+06 0 
0 0 0 
-1.7727e+07 -3.87598e+06 0 
-3.87598e+06 -1.43181e+07 0 
0 0 0 
-1.405e+07 -4.29996e+06 0 
-4.29996e+06 -1.63653e+07 0 
0 0 0 
-2.2943e+07 -4.56074e+06 0 
-4.56074e+06 -3.45562e+07 0 
0 0 0 
-4.75907e+07 -4.4562e+06 0 
-4.4562e+06 -4.80149e+07 0 
0 0 0 
-7.13166e+07 -1.10554e+07 0 
-1.10554e+07 -6.87544e+07 0 
0 0 0 
-6.82221e+07 -7.15297e+06 0 
-7.15297e+06 -1.66162e+07 0 
0 0 0 
-7.84468e+07 -4.56919e+06 0 
-4.56919e+06 -2.84723e+07 0 
0 0 0 
-6.2401e+07 -579698 0 
-579698 -3.67331e+07 0 
0 0 0 
-2.73844e+07 -3.49784e+06 0 
-3.49784e+06 7.79364e+06 0 
0 0 0 
-9.96103e+06 1.00438e+07 0 
1.00438e+07 -2.00489e+07 0 
0 0 0 
1.41382e+07 -6.46755e+06 0 
-6.46755e+06 5.64382e+06 0 
0 0 0 
0 0 0 
0 0 0 
0 0 0 
-1.67135e+07 -1.27464e+06 0 
-1.27464e+06 -8.05742e+06 0 
0 0 0 
1.66199e+07 2.86155e+06 0 
2.86155e+06 8.70508e+06 0 
0 0 0 
4.44197e+07 5.41801e+06 0 
5.41801e+06 2.24681e+07 0 
0 0 0 
1.42714e+07 55618 0 
55618 2.15651e+07 0 
0 0 0 
-2.31914e+07 -296235 0 
-296235 2.62452e+07 0 
0 0 0 
5.72012e+06 2.36808e+06 0 
2.36808e+06 4.30846e+07 0 
0 0 0 
3.24067e+07 1.10057e+06 0 
1.10057e+06 5.96928e+07 0 
0 0 0 
3.63053e+07 -5.68698e+06 0 
-5.68698e+06 4.82199e+07 0 
0 0 0 
3.2667e+07 -1.69196e+07 0 
-1.69196e+07 2.76906e+07 0 
0 0 0 
1.62814e+07 -1.14015e+07 0 
-1.14015e+07 1.21741e+07 0 
0 0 0 
52326.4 -9.36331e+06 0 
-9.36331e+06 -2.91494e+06 0 
0 0 0 
3.46486e+06 -1.11381e+07 0 
-1.11381e+07 -8.06495e+06 0 
0 0 0 
-1.05052e+07 -1.79688e+07 0 
-1.79688e+07 -2.8282e+07 0 
0 0 0 
-5.47122e+07 -1.88566e+07 0 
-1.88566e+07 -5.40432e+07 0 
0 0 0 
-8.98803e+06 -9.36862e+06 0 
-9.36862e+06 -2.11961e+07 0 
0 0 0 
-1.05287e+07 1.39195e+07 0 
1.39195e+07 -2.16455e+07 0 
0 0 0 
-1.86505e+07 9.74372e+06 0 
9.74372e+06 -2.54907e+07 0 
0 0 0 
1.43462e+07 -2.44639e+06 0 
-2.44639e+06 -5.96818e+06 0 
0 0 0 
-6.13416e+06 -1.26983e+07 0 
-1.26983e+07 -2.04056e+07 0 
0 0 0 
-1.1721e+07 -1.1874e+07 0 
-1.1874e+07 -2.97214e+07 0 
0 0 0 
4.89444e+06 -3.22057e+06 0 
-3.22057e+06 -1.8911e+07 0 
0 0 0 
-2.66465e+07 -1.48359e+07 0 
-1.48359e+07 -2.32214e+07 0 
0 0 0 
6.95066e+06 -1.77714e+07 0 
-1.77714e+07 5.24357e+06 0 
0 0 0 
2.22716e+07 -5.66012e+06 0 
-5.66012e+06 2.96252e+07 0 
0 0 0 
239370 -2.54921e+06 0 
-2.54921e+06 1.82808e+07 0 
0 0 0 
1.53717e+07 7.70296e+06 0 
7.70296e+06 2.01836e+07 0 
0 0 0 
2.69323e+07 1.94285e+07 0 
1.94285e+07 1.99982e+07 0 
0 0 0 
-2.95248e+07 1.17375e+07 0 
1.17375e+07 3.23756e+06 0 
0 0 0 
-1.50354e+07 6.09841e+06 0 
6.09841e+06 8.5552e+06 0 
0 0 0 
-3.29282e+07 1.95046e+06 0 
1.95046e+06 3.40416e+06 0 
0 0 0 
-2.61967e+07 -1.43723e+07 0 
-1.43723e+07 4.18315e+06 0 
0 0 0 
8.2233e+06 -2.55461e+07 0 
-2.55461e+07 2.35395e+07 0 
0 0 0 
8.33257e+06 -9.02336e+06 0 
-9.02336e+06 2.75338e+07 0 
0 0 0 
4.41808e+07 2.03845e+06 0 
2.03845e+06 2.58037e+07 0 
0 0 0 
3.01373e+06 7.91357e+06 0 
7.91357e+06 1.53664e+07 0 
0 0 0 
-3.10555e+07 536051 0 
536051 -5.67889e+06 0 
0 0 0 
85569.8 -4.81097e+06 0 
-4.81097e+06 -1.19982e+07 0 
0 0 0 
-3.31062e+07 -8.21783e+06 0 
-8.21783e+06 -1.95154e+07 0 
0 0 0 
-3.23529e+07 -1.15964e+07 0 
-1.15964e+07 -2.0625e+07 0 
0 0 0 
-1.23244e+07 -6.05054e+06 0 
-6.05054e+06 -9.08793e+06 0 
0 0 0 
1.0098e+07 -1.25513e+07 0 
-1.25513e+07 2.12814e+07 0 
0 0 0 
4.83096e+07 -1.54342e+07 0 
-1.54342e+07 6.45582e+07 0 
0 0 0 
2.57361e+07 -8.99769e+06 0 
-8.99769e+06 -1.69791e+07 0 
0 0 0 
5.95448e+07 -4.41006e+06 0 
-4.41006e+06 7.55877e+07 0 
0 0 0 
0 0 0 
0 0 0 
0 0 0 
5.86763e+06 -8.17213e+06 0 
-8.17213e+06 4.59945e+07 0 
0 0 0 
-1.19412e+07 3.41211e+06 0 
3.41211e+06 5.41244e+07 0 
0 0 0 
-4.11546e+07 5.99268e+06 0 
5.99268e+06 -3.53546e+07 0 
0 0 0 
-1.86626e+07 4.80516e+06 0 
4.80516e+06 2.46933e+07 0 
0 0 0 
-8.07779e+06 6.57807e+06 0 
6.57807e+06 1.92738e+07 0 
0 0 0 
2.39476e+07 1.91955e+06 0 
1.91955e+06 3.13949e+07 0 
0 0 0 
3.01376e+07 2.12431e+06 0 
2.12431e+06 4.50467e+07 0 
0 0 0 
1.08234e+07 -4.79623e+06 0 
-4.79623e+06 -2.30109e+06 0 
0 0 0 
3.10465e+07 1.48738e+07 0 
1.48738e+07 3.54722e+07 0 
0 0 0 
3.82982e+07 1.84098e+07 0 
1.84098e+07 1.78826e+07 0 
0 0 0 
4.89114e+07 1.1839e+07 0 
1.1839e+07 4.50505e+07 0 
0 0 0 
1.17378e+07 1.81325e+07 0 
1.81325e+07 -1.66219e+07 0 
0 0 0 
1.66793e+06 -3.8957e+06 0 
-3.8957e+06 5.99715e+06 0 
0 0 0 
2.98518e+06 -6.29149e+06 0 
-6.29149e+06 3.02092e+07 0 
0 0 0 
-1.83857e+06 411204 0 
411204 5.21262e+06 0 
0 0 0 
1.9625e+07 527221 0 
527221 9.98231e+06 0 
0 0 0 
2.48318e+07 88280 0 
88280 -9.83218e+06 0 
0 0 0 
7.58732e+06 8.29967e+06 0 
8.29967e+06 -3.49649e+06 0 
0 0 0 
1.313e+07 5.41895e+06 0 
5.41895e+06 3.36386e+06 0 
0 0 0 
-2.0761e+07 1.41919e+07 0 
1.41919e+07 -3.61499e+07 0 
0 0 0 
2.254e+07 -1.28695e+07 0 
-1.28695e+07 -3.07839e+06 0 
0 0 0 
3.91152e+07 -3.79468e+06 0 
-3.79468e+06 3.4675e+07 0 
0 0 0 
-1.83435e+06 -2.21748e+07 0 
-2.21748e+07 3.17361e+07 0 
0 0 0 
-8.70303e+06 -1.19428e+07 0 
-1.19428e+07 -4.85586e+06 0 
0 0 0 
-2.9331e+07 -3.20768e+06 0 
-3.20768e+06 -1.61935e+07 0 
0 0 0 
-5.45087e+07 6.01842e+06 0 
6.01842e+06 -5.07908e+07 0 
0 0 0 
-6.23998e+07 1.09884e+07 0 
1.09884e+07 -9.11219e+07 0 
0 0 0 
-5.15608e+07 8.74339e+06 0 
8.74339e+06 -6.28287e+07 0 
0 0 0 
-5.70713e+07 863571 0 
863571 -2.92265e+07 0 
0 0 0 
-5.01661e+07 -7.35709e+06 0 
-7.35709e+06 -2.81077e+07 0 
0 0 0 
-4.18213e+07 -1.0137e+07 0 
-1.0137e+07 -1.96648e+07 0 
0 0 0 
-3.5914e+07 164882 0 
164882 -3.98121e+06 0 
0 0 0 
-5.08706e+07 -2.97601e+06 0 
-2.97601e+06 -3.35862e+07 0 
0 0 0 
-4.08476e+07 -6.6456e+06 0 
-6.6456e+06 -3.6655e+07 0 
0 0 0 
-1.61257e+07 -9.33139e+06 0 
-9.33139e+06 -4.93089e+07 0 
0 0 0 
-4.7063e+06 -8.76097e+06 0 
-8.76097e+06 -3.56163e+07 0 
0 0 0 
1.34284e+07 -3.36914e+06 0 
-3.36914e+06 448886 0 
0 0 0 
2.57187e+07 -5.90019e+06 0 
-5.90019e+06 1.72883e+07 0 
0 0 0 
-529131 -194924 0 
-194924 -1.50753e+07 0 
0 0 0 
1.84776e+07 5.54792e+06 0 
5.54792e+06 2.90907e+07 0 
0 0 0 
-1.03083e+07 7.4607e+06 0 
7.4607e+06 -1.94932e+07 0 
0 0 0 
-3.12092e+07 -2.9809e+06 0 
-2.9809e+06 -2.7812e+07 0 
0 0 0 
-1.88784e+07 3.52666e+06 0 
3.52666e+06 -1.54189e+07 0 
0 0 0 
0 0 0 
0 0 0 
0 0 0 
-1.12522e+07 1.46246e+06 0 
1.46246e+06 5.39734e+06 0 
0 0 0 
2.56357e+07 8.11693e+06 0 
8.11693e+06 1.69187e+07 0 
0 0 0 
3.25139e+07 5.21719e+06 0 
5.21719e+06 5.26742e+06 0 
0 0 0 
-1.02298e+07 3.11094e+06 0 
3.11094e+06 -1.60096e+07 0 
0 0 0 
-3.5009e+07 -4.9603e+06 0 
-4.9603e+06 -3.57432e+07 0 
0 0 0 
-1.90261e+07 440757 0 
440757 -3.0883e+07 0 
0 0 0 
1.08898e+07 2.61983e+06 0 
2.61983e+06 -1.07108e+07 0 
0 0 0 
9.93518e+06 -7.61465e+06 0 
-7.61465e+06 1.88624e+06 0 
0 0 0 
1.359e+07 -1.31816e+07 0 
-1.31816e+07 1.50811e+07 0 
0 0 0 
3.78031e+07 -1.53838e+07 0 
-1.53838e+07 1.44041e+07 0 
0 0 0 
6.7129e+06 -8.58878e+06 0 
-8.58878e+06 1.78601e+06 0 
0 0 0 
-6.59947e+06 -1.75202e+07 0 
-1.75202e+07 -4.20243e+06 0 
0 0 0 
-1.19553e+07 -1.35094e+07 0 
-1.35094e+07 -4.15289e+06 0 
0 0 0 
-1.57559e+07 -3.81636e+06 0 
-3.81636e+06 1.63012e+07 0 
0 0 0 
2.35978e+07 5.69718e+06 0 
5.69718e+06 2.85261e+07 0 
0 0 0 
1.76357e+07 5.38576e+06 0 
5.38576e+06 1.88327e+07 0 
0 0 0 
-3.89265e+07 3.98166e+06 0 
3.98166e+06 -1.02075e+07 0 
0 0 0 
1.24071e+07 -1.49436e+06 0 
-1.49436e+06 -226584 0 
0 0 0 
-1.64659e+07 -1.58491e+07 0 
-1.58491e+07 -9.4582e+06 0 
0 0 0 
1.51329e+07 -7.01918e+06 0 
-7.01918e+06 1.16663e+07 0 
0 0 0 
1.8933e+07 -2.097e+06 0 
-2.097e+06 2.73449e+07 0 
0 0 0 
-1.26207e+07 1.45978e+06 0 
1.45978e+06 3.05682e+07 0 
0 0 0 
1.34977e+07 -4.29932e+06 0 
-4.29932e+06 4.54062e+07 0 
0 0 0 
3.92956e+07 -1.32877e+07 0 
-1.32877e+07 4.89084e+07 0 
0 0 0 
2.0732e+07 -5.97529e+06 0 
-5.97529e+06 5.1829e+07 0 
0 0 0 
3.79933e+07 -4.00893e+06 0 
-4.00893e+06 5.52126e+07 0 
0 0 0 
2.89363e+07 2.09693e+06 0 
2.09693e+06 2.67463e+07 0 
0 0 0 
-4.23646e+07 -3.93166e+06 0 
-3.93166e+06 -1.98978e+07 0 
0 0 0 
-1.69616e+07 2.64095e+06 0 
2.64095e+06 -2.51191e+07 0 
0 0 0 
-5.63357e+07 3.12425e+06 0 
3.12425e+06 -3.14108e+07 0 
0 0 0 
-4.77201e+07 -8.83669e+06 0 
-8.83669e+06 9.83853e+06 0 
0 0 0 
4.38092e+07 -6.47555e+06 0 
-6.47555e+06 5.8242e+07 0 
0 0 0 
2.45714e+07 -5.61971e+06 0 
-5.61971e+06 6.70648e+07 0 
0 0 0 
7.62282e+07 -8.52847e+06 0 
-8.52847e+06 9.38217e+07 0 
0 0 0 
5.81436e+06 4.06276e+06 0 
4.06276e+06 4.89416e+07 0 
0 0 0 
-1.73503e+07 -8.58193e+06 0 
-8.58193e+06 3.4477e+07 0 
0 0 0 
-4.05068e+06 -2.52969e+06 0 
-2.52969e+06 3.64196e+07 0 
0 0 0 
-2.15613e+07 -3.86425e+06 0 
-3.86425e+06 1.19722e+07 0 
0 0 0 
-1.283e+07 -1.26595e+07 0 
-1.26595e+07 1.0443e+06 0 
0 0 0 
-1.04871e+07 180985 0 
180985 9.29204e+06 0 
0 0 0 
5.58417e+06 6.37929e+06 0 
6.37929e+06 2.06652e+07 0 
0 0 0 
4.4117e+07 -858307 0 
-858307 3.16556e+07 0 
0 0 0 
5.37684e+07 -6.33182e+06 0 
-6.33182e+06 4.21374e+07 0 
0 0 0 
1.51128e+07 -7.93154e+06 0 
-7.93154e+06 4.9535e+07 0 
0 0 0 
-5.58924e+06 -6.89117e+06 0 
-6.89117e+06 2.39409e+07 0 
0 0 0 
0 0 0 
0 0 0 
0 0 0 
2.8513e+07 -816561 0 
-816561 4.01211e+07 0 
0 0 0 
4.96094e+07 -1.13188e+07 0 
-1.13188e+07 7.51283e+07 0 
0 0 0 
3.3309e+06 -2.06347e+06 0 
-2.06347e+06 -2.92675e+06 0 
0 0 0 
2.05334e+06 1.04996e+07 0 
1.04996e+07 4.0794e+07 0 
0 0 0 
-1.51236e+07 2.30078e+07 0 
2.30078e+07 2.00289e+07 0 
0 0 0 
-1.39146e+07 1.22163e+07 0 
1.22163e+07 1.15282e+07 0 
0 0 0 
3.02613e+07 1.46538e+07 0 
1.46538e+07 4.4674e+07 0 
0 0 0 
5.724e+07 1.23199e+07 0 
1.23199e+07 1.69874e+07 0 
0 0 0 
6.6105e+07 1.07519e+07 0 
1.07519e+07 5.86902e+07 0 
0 0 0 
2.98683e+06 1.12165e+07 0 
1.12165e+07 2.46917e+06 0 
0 0 0 
968887 7.34337e+06 0 
7.34337e+06 3.91831e+07 0 
0 0 0 
-3.53417e+07 1.40884e+07 0 
1.40884e+07 -5.48971e+07 0 
0 0 0 
-3.16996e+07 1.01819e+07 0 
1.01819e+07 -1.0464e+07 0 
0 0 0 
-7.67433e+06 4.67224e+06 0 
4.67224e+06 2.24294e+07 0 
0 0 0 
-2.47161e+07 1.03116e+06 0 
1.03116e+06 -1.10667e+06 0 
0 0 0 
-5.37707e+07 7.89166e+06 0 
7.89166e+06 -9.57151e+06 0 
0 0 0 
-5.86571e+07 -5.17947e+06 0 
-5.17947e+06 -4.2289e+07 0 
0 0 0 
-3.17683e+07 -1.23393e+06 0 
-1.23393e+06 -1.14375e+07 0 
0 0 0 
-3.30105e+07 1.29457e+07 0 
1.29457e+07 -340633 0 
0 0 0 
1.21024e+07 1.49434e+07 0 
1.49434e+07 -3.11612e+07 0 
0 0 0 
3.49521e+07 -1.07812e+07 0 
-1.07812e+07 -3.28449e+07 0 
0 0 0 
4.57547e+06 -1.85654e+07 0 
-1.85654e+07 -1.80074e+06 0 
0 0 0 
-2.81231e+06 -3.28298e+06 0 
-3.28298e+06 2.21504e+07 0 
0 0 0 
1.86561e+07 -1.2437e+07 0 
-1.2437e+07 1.19629e+06 0 
0 0 0 
3.62707e+07 -1.34523e+07 0 
-1.34523e+07 1.83217e+07 0 
0 0 0 
1.97737e+07 3.70182e+06 0 
3.70182e+06 -4.91555e+06 0 
0 0 0 
-1.35277e+07 1.28316e+07 0 
1.28316e+07 -6.24206e+07 0 
0 0 0 
-4.87854e+06 1.28464e+07 0 
1.28464e+07 -5.25183e+07 0 
0 0 0 
1.9236e+07 5.97689e+06 0 
5.97689e+06 -2.2228e+07 0 
0 0 0 
1.01223e+07 2.30814e+06 0 
2.30814e+06 -2.22123e+07 0 
0 0 0 
3.22536e+07 -3.7952e+06 0 
-3.7952e+06 1.0389e+07 0 
0 0 0 
3.57223e+07 -7.14576e+06 0 
-7.14576e+06 2.27237e+07 0 
0 0 0 
1.00311e+07 -6.6434e+06 0 
-6.6434e+06 -5.92629e+06 0 
0 0 0 
-1.05938e+07 3.19822e+06 0 
3.19822e+06 -3.67669e+07 0 
0 0 0 
-2.62665e+07 1.15612e+06 0 
1.15612e+06 -4.40568e+07 0 
0 0 0 
-9.69049e+06 -2.91215e+06 0 
-2.91215e+06 -4.16494e+07 0 
0 0 0 
2.42858e+07 -634627 0 
-634627 2.85811e+06 0 
0 0 0 
1.91228e+07 -8.38069e+06 0 
-8.38069e+06 1.07468e+07 0 
0 0 0 
1.21779e+07 -3.01275e+06 0 
-3.01275e+06 3.55894e+06 0 
0 0 0 
-4.69227e+06 2.43486e+06 0 
2.43486e+06 1.78434e+07 0 
0 0 0 
-4.02941e+07 -4.76609e+06 0 
-4.76609e+06 -2.77091e+07 0 
0 0 0 
-4.04106e+07 2.69911e+06 0 
2.69911e+06 -3.42376e+07 0 
0 0 0 
-4.93138e+07 -3.93232e+06 0 
-3.93232e+06 -3.30613e+07 0 
0 0 0 
-3.53636e+07 -1.93982e+06 0 
-1.93982e+06 4.46247e+07 0 
0 0 0 
0 0 0 
0 0 0 
0 0 0 
-1.45499e+07 1.11086e+06 0 
1.11086e+06 -1.8497e+07 0 
0 0 0 
2.12118e+07 4.12182e+06 0 
4.12182e+06 -1.42077e+07 0 
0 0 0 
1.2306e+07 305484 0 
305484 -9.23294e+06 0 
0 0 0 
-8.37044e+06 843048 0 
843048 -2.45833e+07 0 
0 0 0 
-3.99754e+07 2.91752e+06 0 
2.91752e+06 -3.05978e+07 0 
0 0 0 
-223043 9.07351e+06 0 
9.07351e+06 -7.78743e+06 0 
0 0 0 
1.55768e+07 9.20463e+06 0 
9.20463e+06 -9.98248e+06 0 
0 0 0 
-1.75816e+07 -977760 0 
-977760 -2.68268e+07 0 
0 0 0 
7.29625e+06 -6.61283e+06 0 
-6.61283e+06 -1.92588e+07 0 
0 0 0 
1.79003e+07 -1.22795e+07 0 
-1.22795e+07 5.07113e+06 0 
0 0 0 
3.01658e+07 -1.43497e+07 0 
-1.43497e+07 1.9227e+07 0 
0 0 0 
-2.17228e+07 -2.00469e+07 0 
-2.00469e+07 4.34956e+06 0 
0 0 0 
2.24578e+06 -1.66632e+07 0 
-1.66632e+07 1.63567e+07 0 
0 0 0 
3.96351e+06 -5.97392e+06 0 
-5.97392e+06 -2.04509e+06 0 
0 0 0 
1.36658e+07 6434.63 0 
6434.63 46406.5 0 
0 0 0 
1.56307e+07 2.85114e+06 0 
2.85114e+06 1.67405e+06 0 
0 0 0 
-6.27504e+07 1.11318e+06 0 
1.11318e+06 -3.52617e+07 0 
0 0 0 
-1.22401e+07 -8.54985e+06 0 
-8.54985e+06 -2.96713e+07 0 
0 0 0 
-1.40187e+07 -9.7594e+06 0 
-9.7594e+06 -1.28918e+07 0 
0 0 0 
3.14447e+07 70606.1 0 
70606.1 2.35931e+07 0 
0 0 0 
1.51861e+07 3.5609e+06 0 
3.5609e+06 1.21901e+07 0 
0 0 0 
-1.85926e+07 1.57846e+06 0 
1.57846e+06 -4.97065e+06 0 
0 0 0 
-9.60252e+06 -416299 0 
-416299 4.02783e+06 0 
0 0 0 
1.91329e+07 -1.8676e+06 0 
-1.8676e+06 2.45694e+07 0 
0 0 0 
2.90862e+07 -2.18161e+06 0 
-2.18161e+06 3.20057e+07 0 
0 0 0 
3.48244e+07 -5.86227e+06 0 
-5.86227e+06 3.19314e+07 0 
0 0 0 
7.07028e+06 -8.60217e+06 0 
-8.60217e+06 1.72844e+07 0 
0 0 0 
-3.00599e+07 -1.05556e+07 0 
-1.05556e+07 -3.59864e+06 0 
0 0 0 
9.5462e+06 -7.57304e+06 0 
-7.57304e+06 1.0678e+07 0 
0 0 0 
-6.16569e+07 3.23841e+06 0 
3.23841e+06 -1.11971e+07 0 
0 0 0 
-4.28549e+07 2.21027e+06 0 
2.21027e+06 -3.12991e+07 0 
0 0 0 
1.98275e+07 -2.4015e+06 0 
-2.4015e+06 -4.35115e+06 0 
0 0 0 
433131 -970449 0 
-970449 2.40098e+06 0 
0 0 0 
5.08974e+07 -8.66164e+06 0 
-8.66164e+06 2.02806e+07 0 
0 0 0 
-1.77093e+07 -1.26701e+07 0 
-1.26701e+07 -8.35732e+06 0 
0 0 0 
-4.29425e+07 -1.30363e+07 0 
-1.30363e+07 -4.3292e+07 0 
0 0 0 
-2.94201e+07 -7.40236e+06 0 
-7.40236e+06 -4.29672e+07 0 
0 0 0 
-2.80632e+07 -1.16616e+06 0 
-1.16616e+06 -2.55637e+07 0 
0 0 0 
-2.78494e+07 -9.05501e+06 0 
-9.05501e+06 -5.50433e+06 0 
0 0 0 
1.51731e+07 5.64846e+06 0 
5.64846e+06 7.0231e+06 0 
0 0 0 
1.01442e+06 1.30877e+07 0 
1.30877e+07 6.70579e+06 0 
0 0 0 
2.77615e+07 2.98077e+06 0 
2.98077e+06 2.90608e+07 0 
0 0 0 
3.9014e+07 -8.70304e+06 0 
-8.70304e+06 2.68295e+07 0 
0 0 0 
-1.72414e+07 -2.08959e+07 0 
-2.08959e+07 -1.17226e+07 0 
0 0 0 
-4.7202e+07 -1.0734e+07 0 
-1.0734e+07 -7.61623e+06 0 
0 0 0 
-5.93878e+07 -8.86372e+06 0 
-8.86372e+06 -3.97276e+07 0 
0 0 0 
0 0 0 
0 0 0 
0 0 0 
9.38056e+06 5.16054e+06 0 
5.16054e+06 3.6426e+07 0 
0 0 0 
1.29661e+07 -1.16394e+06 0 
-1.16394e+06 3.50533e+07 0 
0 0 0 
1.02645e+07 -9.8542e+06 0 
-9.8542e+06 2.49348e+07 0 
0 0 0 
8.18084e+06 -5.33453e+06 0 
-5.33453e+06 5.12077e+07 0 
0 0 0 
1.61395e+06 7.20023e+06 0 
7.20023e+06 3.56229e+07 0 
0 0 0 
7.31167e+06 2.23606e+07 0 
2.23606e+07 2.30518e+07 0 
0 0 0 
1.0759e+07 2.01546e+07 0 
2.01546e+07 3.15083e+07 0 
0 0 0 
-1.04703e+07 1.19599e+07 0 
1.19599e+07 -626924 0 
0 0 0 
644631 129475 0 
129475 2.22555e+07 0 
0 0 0 
-1.8442e+06 -1.00976e+07 0 
-1.00976e+07 2.92645e+06 0 
0 0 0 
-1.22339e+07 -2.99988e+06 0 
-2.99988e+06 3.28281e+07 0 
0 0 0 
-4.57397e+07 -184985 0 
-184985 -4.75092e+07 0 
0 0 0 
-1.99414e+07 6.21822e+06 0 
6.21822e+06 -9.04162e+06 0 
0 0 0 
-1.48569e+07 5.47393e+06 0 
5.47393e+06 1.16329e+07 0 
0 0 0 
-6.78839e+06 55359 0 
55359 7.76148e+06 0 
0 0 0 
-2.55434e+06 -2.89005e+06 0 
-2.89005e+06 -1.20934e+07 0 
0 0 0 
3.93854e+06 7.51473e+06 0 
7.51473e+06 -1.16038e+07 0 
0 0 0 
3.83081e+06 -1.86541e+06 0 
-1.86541e+06 4.1995e+06 0 
0 0 0 
1.0028e+07 2.04231e+07 0 
2.04231e+07 6.67232e+07 0 
0 0 0 
6.70892e+07 -6.43141e+06 0 
-6.43141e+06 4.26457e+07 0 
0 0 0 
8.03918e+07 1.69669e+07 0 
1.69669e+07 8.23085e+07 0 
0 0 0 
-9.52642e+06 2.33316e+06 0 
2.33316e+06 -5.71263e+06 0 
0 0 0 
1.3028e+07 5.24846e+06 0 
5.24846e+06 1.33474e+07 0 
0 0 0 
-1.07456e+07 -1.61276e+06 0 
-1.61276e+06 -2.66201e+07 0 
0 0 0 
1.0941e+06 -4.25144e+06 0 
-4.25144e+06 3.03857e+07 0 
0 0 0 
-2.01299e+07 -5.13422e+06 0 
-5.13422e+06 -2.50266e+07 0 
0 0 0 
-3.88574e+07 -1.44612e+06 0 
-1.44612e+06 -4.11734e+07 0 
0 0 0 
-7.49562e+07 7.14164e+06 0 
7.14164e+06 -9.12626e+07 0 
0 0 0 
-4.45684e+07 1.26904e+07 0 
1.26904e+07 -2.00033e+07 0 
0 0 0 
-3.50054e+07 1.01637e+07 0 
1.01637e+07 -6.87365e+07 0 
0 0 0 
-120687 1.26532e+07 0 
1.26532e+07 3.2459e+06 0 
0 0 0 
1.68108e+07 -4.32268e+06 0 
-4.32268e+06 9.18034e+06 0 
0 0 0 
1.34498e+07 -1.22631e+07 0 
-1.22631e+07 -1.03727e+07 0 
0 0 0 
-6.12954e+06 -1.47029e+07 0 
-1.47029e+07 -2.91411e+07 0 
0 0 0 
-3.43276e+07 -1.35188e+07 0 
-1.35188e+07 -4.83542e+07 0 
0 0 0 
-5.60041e+07 -1.22829e+06 0 
-1.22829e+06 -5.43787e+07 0 
0 0 0 
-5.90885e+07 -671306 0 
-671306 -2.24453e+07 0 
0 0 0 
-3.83302e+07 -845096 0 
-845096 -9.78841e+06 0 
0 0 0 
-2.57001e+07 -7.47231e+06 0 
-7.47231e+06 -9.74362e+06 0 
0 0 0 
-2.32434e+07 -1.26472e+07 0 
-1.26472e+07 4.49521e+06 0 
0 0 0 
-4.30586e+07 -1.6624e+07 0 
-1.6624e+07 -2.47971e+07 0 
0 0 0 
-6.44042e+07 -5.86552e+06 0 
-5.86552e+06 -3.80128e+07 0 
0 0 0 
-4.09424e+07 7.3101e+06 0 
7.3101e+06 -2.08098e+07 0 
0 0 0 
-9.91878e+06 -5.80152e+06 0 
-5.80152e+06 4.37669e+07 0 
0 0 0 
-2.43644e+07 -5.58998e+06 0 
-5.58998e+06 150456 0 
0 0 0 
0 0 0 
0 0 0 
0 0 0 
498342 -1.68048e+06 0 
-1.68048e+06 7.67829e+06 0 
0 0 0 
382792 -5.57297e+06 0 
-5.57297e+06 3.23424e+06 0 
0 0 0 
4.19312e+07 -5.781e+06 0 
-5.781e+06 -6.14039e+06 0 
0 0 0 
-2.35389e+07 621016 0 
621016 -3.335e+07 0 
0 0 0 
-3.44184e+07 2.74045e+06 0 
2.74045e+06 -4.14256e+07 0 
0 0 0 
-3.83896e+06 6.46391e+06 0 
6.46391e+06 -4.74714e+07 0 
0 0 0 
-1.93396e+06 9.61049e+06 0 
9.61049e+06 -3.92405e+07 0 
0 0 0 
-2.27252e+07 143264 0 
143264 -2.46106e+07 0 
0 0 0 
7.20162e+06 -1.20069e+06 0 
-1.20069e+06 1.2592e+07 0 
0 0 0 
2.59074e+07 -6.9586e+06 0 
-6.9586e+06 2.68927e+07 0 
0 0 0 
1.81805e+07 -1.19315e+07 0 
-1.19315e+07 1.6639e+07 0 
0 0 0 
-9.71058e+06 -1.3104e+07 0 
-1.3104e+07 1.65353e+07 0 
0 0 0 
6.50553e+06 -1.12552e+07 0 
-1.12552e+07 2.05052e+07 0 
0 0 0 
3.33688e+07 -2.79566e+06 0 
-2.79566e+06 3.83492e+07 0 
0 0 0 
1.9432e+07 340712 0 
340712 3.9542e+07 0 
0 0 0 
1.81369e+07 -1.4214e+07 0 
-1.4214e+07 2.25877e+07 0 
0 0 0 
-5.02142e+07 -1.01717e+07 0 
-1.01717e+07 -1.02991e+07 0 
0 0 0 
-1.60279e+07 -3.26473e+06 0 
-3.26473e+06 4.45703e+06 0 
0 0 0 
9.306e+06 3.94045e+06 0 
3.94045e+06 1.08216e+07 0 
0 0 0 
4.39796e+07 7.86929e+06 0 
7.86929e+06 1.95942e+07 0 
0 0 0 
5.9809e+06 1.19584e+06 0 
1.19584e+06 5.0783e+06 0 
0 0 0 
-1.91348e+07 8.05876e+06 0 
8.05876e+06 -5.09974e+06 0 
0 0 0 
-1.5699e+07 304599 0 
304599 -5.17979e+06 0 
0 0 0 
1.28783e+06 -2.01397e+06 0 
-2.01397e+06 3.84591e+06 0 
0 0 0 
2.41361e+07 -3.32963e+06 0 
-3.32963e+06 1.40394e+07 0 
0 0 0 
2.87943e+07 -1.44728e+07 0 
-1.44728e+07 1.46744e+07 0 
0 0 0 
-1.17306e+07 -1.22158e+07 0 
-1.22158e+07 3.07617e+06 0 
0 0 0 
-1.95287e+07 -1.71859e+07 0 
-1.71859e+07 -1.32949e+07 0 
0 0 0 
-1.08328e+07 -1.69921e+06 0 
-1.69921e+06 -1.98499e+07 0 
0 0 0 
-3.27662e+07 990977 0 
990977 -3.23297e+07 0 
0 0 0 
-4.3807e+07 1.64088e+06 0 
1.64088e+06 -2.85384e+07 0 
0 0 0 
1.29261e+07 9.91426e+06 0 
9.91426e+06 -1.82539e+06 0 
0 0 0 
-1.00549e+07 -3.2716e+06 0 
-3.2716e+06 2.22539e+06 0 
0 0 0 
4.50048e+07 -1.46038e+07 0 
-1.46038e+07 2.70359e+07 0 
0 0 0 
-8.72966e+06 -1.50725e+07 0 
-1.50725e+07 2.1649e+07 0 
0 0 0 
-1.11223e+07 -2.22267e+07 0 
-2.22267e+07 3.22025e+07 0 
0 0 0 
-1.01201e+07 -4.3571e+06 0 
-4.3571e+06 2.81505e+07 0 
0 0 0 
3.22403e+06 -6.6192e+06 0 
-6.6192e+06 2.63955e+07 0 
0 0 0 
-6.47676e+06 4.74395e+06 0 
4.74395e+06 1.90835e+07 0 
0 0 0 
2.74298e+07 8.13352e+06 0 
8.13352e+06 4.04941e+07 0 
0 0 0 
7.56315e+06 9.8973e+06 0 
9.8973e+06 1.85361e+07 0 
0 0 0 
289032 2.65983e+06 0 
2.65983e+06 1.26894e+06 0 
0 0 0 
3.954e+06 -1.7707e+07 0 
-1.7707e+07 -3.54005e+06 0 
0 0 0 
-2.40439e+06 -2.13097e+07 0 
-2.13097e+07 -4.18712e+06 0 
0 0 0 
-2.96907e+07 -9.97696e+06 0 
-9.97696e+06 1.42573e+06 0 
0 0 0 
-2.42319e+07 -8.12171e+06 0 
-8.12171e+06 -4.16311e+07 0 
0 0 0 
-1.60527e+07 -5.57901e+06 0 
-5.57901e+06 1.80357e+07 0 
0 0 0 
0 0 0 
0 0 0 
0 0 0 
1.76455e+07 6.03285e+06 0 
6.03285e+06 4.70933e+07 0 
0 0 0 
1.33324e+07 2.32726e+06 0 
2.32726e+06 2.31967e+07 0 
0 0 0 
1.72313e+07 -6.43073e+06 0 
-6.43073e+06 2.15655e+07 0 
0 0 0 
5.13752e+07 4.35219e+06 0 
4.35219e+06 7.46104e+07 0 
0 0 0 
5.41141e+07 1.3313e+07 0 
1.3313e+07 6.48102e+07 0 
0 0 0 
3.51573e+07 1.72636e+07 0 
1.72636e+07 4.32227e+07 0 
0 0 0 
1.44333e+07 1.44497e+07 0 
1.44497e+07 3.16871e+07 0 
0 0 0 
-1.32692e+07 1.28444e+07 0 
1.28444e+07 -9.66137e+06 0 
0 0 0 
-1.48505e+07 -18179.4 0 
-18179.4 -4.43413e+06 0 
0 0 0 
-1.60555e+07 -1.65238e+07 0 
-1.65238e+07 -1.65922e+07 0 
0 0 0 
2.72346e+07 -1.18272e+07 0 
-1.18272e+07 6.82646e+07 0 
0 0 0 
1.30238e+07 9.62645e+06 0 
9.62645e+06 -2.14606e+07 0 
0 0 0 
4.28395e+07 1.75369e+07 0 
1.75369e+07 2.92112e+07 0 
0 0 0 
4.68152e+07 9.49365e+06 0 
9.49365e+06 2.31992e+07 0 
0 0 0 
5.31237e+07 1.24908e+07 0 
1.24908e+07 1.98828e+07 0 
0 0 0 
4.02774e+07 -3.3326e+06 0 
-3.3326e+06 -1.58556e+07 0 
0 0 0 
2.85475e+07 7.98748e+06 0 
7.98748e+06 1.52187e+07 0 
0 0 0 
2.58949e+07 -4.40024e+06 0 
-4.40024e+06 7.04874e+06 0 
0 0 0 
5.01286e+07 -2.06025e+07 0 
-2.06025e+07 8.29112e+07 0 
0 0 0 
5.97531e+07 -6.81828e+06 0 
-6.81828e+06 -2.75365e+07 0 
0 0 0 
7.44063e+07 8.11917e+06 0 
8.11917e+06 3.14414e+07 0 
0 0 0 
-7.15051e+06 1.43547e+07 0 
1.43547e+07 -2.10491e+07 0 
0 0 0 
6.81226e+06 1.04265e+07 0 
1.04265e+07 1.38649e+07 0 
0 0 0 
-7.46412e+06 -8.9923e+06 0 
-8.9923e+06 -4.43803e+07 0 
0 0 0 
2.94172e+07 -1.5551e+06 0 
-1.5551e+06 5.50909e+07 0 
0 0 0 
815998 -1.25896e+07 0 
-1.25896e+07 -5.08091e+07 0 
0 0 0 
5.17204e+06 -1.56769e+07 0 
-1.56769e+07 -552460 0 
0 0 0 
-1.66782e+07 514730 0 
514730 -6.28959e+07 0 
0 0 0 
-8.74073e+06 9.29593e+06 0 
9.29593e+06 3.73987e+06 0 
0 0 0 
-2.73868e+07 1.90104e+07 0 
1.90104e+07 -5.1788e+07 0 
0 0 0 
-1.78485e+07 1.41997e+07 0 
1.41997e+07 -3.98302e+07 0 
0 0 0 
-1.22439e+07 -9.30992e+06 0 
-9.30992e+06 -7.33583e+06 0 
0 0 0 
-1.04821e+07 -1.56352e+07 0 
-1.56352e+07 -3.06057e+07 0 
0 0 0 
-1.38607e+07 -2.04858e+07 0 
-2.04858e+07 -2.86331e+07 0 
0 0 0 
-8.90402e+06 -1.20734e+07 0 
-1.20734e+07 -2.84016e+07 0 
0 0 0 
-2.56758e+07 -1.01386e+07 0 
-1.01386e+07 -3.5652e+07 0 
0 0 0 
-2.48572e+07 4.57553e+06 0 
4.57553e+06 -8.12583e+06 0 
0 0 0 
-3.46812e+07 -1.57802e+06 0 
-1.57802e+06 -1.40614e+07 0 
0 0 0 
-3.49315e+07 -1.25205e+06 0 
-1.25205e+06 -2.04289e+07 0 
0 0 0 
-1.79508e+07 -1.33045e+07 0 
-1.33045e+07 -5.29957e+06 0 
0 0 0 
-2.19143e+07 -1.79482e+07 0 
-1.79482e+07 -6.47617e+06 0 
0 0 0 
-2.0453e+07 -245126 0 
-245126 -1.09573e+07 0 
0 0 0 
-3.69214e+07 7.32438e+06 0 
7.32438e+06 -7.46295e+06 0 
0 0 0 
-1.39958e+07 6.23993e+06 0 
6.23993e+06 4.12122e+07 0 
0 0 0 
-1.08159e+07 3.1953e+06 0 
3.1953e+06 -1.9585e+07 0 
0 0 0 
-1.03834e+07 -8.50732e+06 0 
-8.50732e+06 -3.24192e+07 0 
0 0 0 
0 0 0 
0 0 0 
0 0 0 
-6.54241e+06 -798104 0 
-798104 2.60748e+06 0 
0 0 0 
-697676 -2.14861e+06 0 
-2.14861e+06 9.31111e+06 0 
0 0 0 
5.25689e+07 -7.23549e+06 0 
-7.23549e+06 3.60342e+07 0 
0 0 0 
-1.78259e+06 -1.18393e+07 0 
-1.18393e+07 1.49105e+07 0 
0 0 0 
4.80558e+06 6.72859e+06 0 
6.72859e+06 1.16436e+07 0 
0 0 0 
2.48824e+07 9.61066e+06 0 
9.61066e+06 2.97846e+07 0 
0 0 0 
-1.22844e+06 1.16246e+07 0 
1.16246e+07 7.2274e+06 0 
0 0 0 
-1.72362e+07 3.85147e+06 0 
3.85147e+06 -2.12058e+07 0 
0 0 0 
-1.61088e+07 1.14028e+07 0 
1.14028e+07 -3.73465e+07 0 
0 0 0 
475225 -3.35699e+06 0 
-3.35699e+06 -3.12225e+07 0 
0 0 0 
-1.21412e+07 -1.51072e+07 0 
-1.51072e+07 -2.63174e+07 0 
0 0 0 
-1.08566e+07 -9.15642e+06 0 
-9.15642e+06 -2.47832e+07 0 
0 0 0 
142456 -1.72704e+07 0 
-1.72704e+07 -4.03536e+06 0 
0 0 0 
3.43793e+07 -893036 0 
-893036 1.601e+07 0 
0 0 0 
738334 -5.83163e+06 0 
-5.83163e+06 4.06553e+06 0 
0 0 0 
-1.24419e+07 -1.75108e+07 0 
-1.75108e+07 -2.13692e+06 0 
0 0 0 
-3.12465e+07 -1.43309e+07 0 
-1.43309e+07 -1.64805e+07 0 
0 0 0 
-1.39832e+07 -4.24904e+06 0 
-4.24904e+06 -2.00864e+07 0 
0 0 0 
2.09501e+07 1.19249e+07 0 
1.19249e+07 -5.89188e+06 0 
0 0 0 
7.32305e+06 -1.11496e+06 0 
-1.11496e+06 -1.56302e+07 0 
0 0 0 
1.55219e+07 -1.38769e+06 0 
-1.38769e+06 -7.76545e+06 0 
0 0 0 
-2.63871e+07 -562991 0 
-562991 -1.94983e+07 0 
0 0 0 
-3.09249e+07 987269 0 
987269 -2.67836e+07 0 
0 0 0 
-2.27987e+07 -1.16034e+06 0 
-1.16034e+06 -2.09204e+07 0 
0 0 0 
1.88177e+07 -1.05536e+07 0 
-1.05536e+07 -9.05215e+06 0 
0 0 0 
1.81021e+07 -7.66942e+06 0 
-7.66942e+06 4.48641e+06 0 
0 0 0 
1.45205e+06 -1.46143e+07 0 
-1.46143e+07 1.78002e+06 0 
0 0 0 
-7.55904e+06 -7.53085e+06 0 
-7.53085e+06 9.11913e+06 0 
0 0 0 
45331.6 -796075 0 
-796075 1.99627e+07 0 
0 0 0 
-1.43259e+07 -6.85313e+06 0 
-6.85313e+06 1.79281e+06 0 
0 0 0 
-2.34052e+07 -3.05468e+06 0 
-3.05468e+06 -1.24735e+07 0 
0 0 0 
4.17576e+06 4.96856e+06 0 
4.96856e+06 -9.40198e+06 0 
0 0 0 
-2.95268e+07 7.30281e+06 0 
7.30281e+06 -2.45969e+07 0 
0 0 0 
2.30935e+07 -6.64739e+06 0 
-6.64739e+06 -1.23079e+06 0 
0 0 0 
-2.30128e+07 -9.32928e+06 0 
-9.32928e+06 -1.96829e+07 0 
0 0 0 
-2.8715e+06 -1.08046e+07 0 
-1.08046e+07 -3.75672e+06 0 
0 0 0 
-3.01785e+07 -712645 0 
-712645 -8.48727e+06 0 
0 0 0 
-4.89857e+06 -214964 0 
-214964 -1.35986e+07 0 
0 0 0 
-9.96126e+06 -1.87732e+06 0 
-1.87732e+06 -3.19214e+06 0 
0 0 0 
1.90972e+07 -2.80083e+06 0 
-2.80083e+06 1.66202e+07 0 
0 0 0 
1.13313e+07 -4.68903e+06 0 
-4.68903e+06 1.25126e+07 0 
0 0 0 
-2.27525e+07 -892107 0 
-892107 2.82011e+06 0 
0 0 0 
6.29276e+06 -2.1272e+07 0 
-2.1272e+07 1.5969e+07 0 
0 0 0 
-9.39751e+06 -1.86707e+07 0 
-1.86707e+07 2.1034e+07 0 
0 0 0 
8.8719e+06 -2.19654e+07 0 
-2.19654e+07 2.35161e+07 0 
0 0 0 
-9.32773e+06 3.15414e+06 0 
3.15414e+06 2.11914e+07 0 
0 0 0 
2.13925e+07 -2.02988e+06 0 
-2.02988e+06 4.38211e+07 0 
0 0 0 
2.47792e+07 5.16143e+06 0 
5.16143e+06 3.90788e+07 0 
0 0 0 
0 0 0 
0 0 0 
0 0 0 
4.38932e+06 -3.41649e+06 0 
-3.41649e+06 3.11847e+07 0 
0 0 0 
324220 -1.49106e+06 0 
-1.49106e+06 3.31777e+07 0 
0 0 0 
8.43545e+06 3.98191e+06 0 
3.98191e+06 2.58979e+07 0 
0 0 0 
1.7725e+07 7.67264e+06 0 
7.67264e+06 5.44566e+07 0 
0 0 0 
9.86927e+06 1.0634e+06 0 
1.0634e+06 4.96855e+07 0 
0 0 0 
-2.49166e+07 1.68706e+06 0 
1.68706e+06 3.52849e+07 0 
0 0 0 
-7.48165e+07 -734004 0 
-734004 -643360 0 
0 0 0 
-7.68673e+07 8.95633e+06 0 
8.95633e+06 -2.83331e+07 0 
0 0 0 
-5.54699e+07 8.8095e+06 0 
8.8095e+06 -2.92576e+07 0 
0 0 0 
-1.94444e+07 1.27401e+07 0 
1.27401e+07 -1.84367e+07 0 
0 0 0 
4.35319e+07 1.33055e+07 0 
1.33055e+07 8.10411e+07 0 
0 0 0 
3.55861e+07 1.97061e+07 0 
1.97061e+07 -1.88314e+06 0 
0 0 0 
6.10799e+07 2.36748e+07 0 
2.36748e+07 5.72153e+07 0 
0 0 0 
3.2034e+07 8.6388e+06 0 
8.6388e+06 -4.49021e+06 0 
0 0 0 
1.34678e+07 9.05315e+06 0 
9.05315e+06 -3.43947e+06 0 
0 0 0 
8.07283e+06 812471 0 
812471 -2.8899e+07 0 
0 0 0 
1.99266e+07 -695927 0 
-695927 7.58393e+06 0 
0 0 0 
1.55126e+07 1.46902e+06 0 
1.46902e+06 319087 0 
0 0 0 
4.36634e+07 -6.96647e+06 0 
-6.96647e+06 3.84587e+07 0 
0 0 0 
4.22419e+07 -1.01483e+07 0 
-1.01483e+07 -6.51388e+07 0 
0 0 0 
5.97033e+07 9.84972e+06 0 
9.84972e+06 -8.55017e+06 0 
0 0 0 
1.40444e+07 1.79548e+07 0 
1.79548e+07 -6.79087e+07 0 
0 0 0 
3.77545e+07 3.94091e+06 0 
3.94091e+06 2.62928e+07 0 
0 0 0 
1.85998e+07 2.11456e+06 0 
2.11456e+06 -4.62454e+07 0 
0 0 0 
7.40596e+07 -1.00332e+06 0 
-1.00332e+06 6.29259e+07 0 
0 0 0 
3.81766e+07 -9.44904e+06 0 
-9.44904e+06 -4.78869e+07 0 
0 0 0 
6.67237e+07 -1.46268e+07 0 
-1.46268e+07 2.16288e+07 0 
0 0 0 
3.22992e+07 -5.23158e+06 0 
-5.23158e+06 -2.7373e+07 0 
0 0 0 
2.36525e+07 -5.50099e+06 0 
-5.50099e+06 2.34715e+07 0 
0 0 0 
-4.87178e+07 5.76857e+06 0 
5.76857e+06 -5.26292e+07 0 
0 0 0 
-8.77596e+07 2.04423e+06 0 
2.04423e+06 -7.41849e+07 0 
0 0 0 
-7.56166e+07 1.03782e+07 0 
1.03782e+07 -4.67311e+07 0 
0 0 0 
-6.46948e+07 -7.14438e+06 0 
-7.14438e+06 -4.81686e+07 0 
0 0 0 
-4.77387e+07 -1.21788e+07 0 
-1.21788e+07 -4.15624e+07 0 
0 0 0 
-3.92116e+07 -8.85627e+06 0 
-8.85627e+06 -2.80019e+07 0 
0 0 0 
-2.60364e+07 -1.21609e+07 0 
-1.21609e+07 -2.85193e+07 0 
0 0 0 
-3.88243e+07 -1.02144e+06 0 
-1.02144e+06 -2.44429e+06 0 
0 0 0 
-5.9561e+07 5.2035e+06 0 
5.2035e+06 -3.89156e+07 0 
0 0 0 
-5.48573e+07 -1.18777e+06 0 
-1.18777e+06 -2.67056e+07 0 
0 0 0 
-5.96433e+07 -3.69022e+06 0 
-3.69022e+06 -2.74062e+07 0 
0 0 0 
-2.76195e+07 -1.34019e+07 0 
-1.34019e+07 -1.00865e+07 0 
0 0 0 
-1.63132e+07 -9.37433e+06 0 
-9.37433e+06 8.0855e+06 0 
0 0 0 
-8.54354e+06 6.75878e+06 0 
6.75878e+06 1.28141e+07 0 
0 0 0 
8.12205e+06 6.9259e+06 0 
6.9259e+06 4.85149e+07 0 
0 0 0 
-9.985e+06 7.93052e+06 0 
7.93052e+06 -3.33408e+07 0 
0 0 0 
-5.97856e+06 112898 0 
112898 -3.19832e+07 0 
0 0 0 
2.75665e+07 -2.46239e+06 0 
-2.46239e+06 5.04176e+07 0 
0 0 0 
0 0 0 
0 0 0 
0 0 0 
2.58119e+06 8.94463e+06 0 
8.94463e+06 -5.70745e+06 0 
0 0 0 
-1.71661e+07 3.51294e+06 0 
3.51294e+06 -1.13373e+07 0 
0 0 0 
1.61514e+07 -6.82529e+06 0 
-6.82529e+06 -4.23222e+06 0 
0 0 0 
934895 -8.40619e+06 0 
-8.40619e+06 -1.38167e+07 0 
0 0 0 
1.67391e+07 119178 0 
119178 -1.87538e+06 0 
0 0 0 
1.3234e+07 -1.20634e+06 0 
-1.20634e+06 -8.17186e+06 0 
0 0 0 
-1.93046e+07 -1.51676e+06 0 
-1.51676e+06 -1.1908e+07 0 
0 0 0 
-6.46275e+06 -7.65663e+06 0 
-7.65663e+06 721045 0 
0 0 0 
8.52488e+06 246253 0 
246253 1.20724e+07 0 
0 0 0 
-1.69706e+07 -1.06604e+07 0 
-1.06604e+07 -3.02479e+06 0 
0 0 0 
6.37414e+06 -8.17525e+06 0 
-8.17525e+06 5.07625e+06 0 
0 0 0 
-2.14621e+06 -7.29897e+06 0 
-7.29897e+06 1.66993e+07 0 
0 0 0 
2.79927e+07 -2.63835e+06 0 
-2.63835e+06 2.67269e+07 0 
0 0 0 
2.74555e+07 -2.55678e+06 0 
-2.55678e+06 1.87268e+07 0 
0 0 0 
-2.6798e+06 -2.71761e+06 0 
-2.71761e+06 5.28992e+06 0 
0 0 0 
-1.38303e+07 -1.56302e+07 0 
-1.56302e+07 1.13632e+07 0 
0 0 0 
-1.13738e+07 -9.09207e+06 0 
-9.09207e+06 1.46335e+07 0 
0 0 0 
8.95107e+06 -4.08831e+06 0 
-4.08831e+06 2.04007e+07 0 
0 0 0 
3.7801e+07 2.29313e+06 0 
2.29313e+06 2.7475e+07 0 
0 0 0 
1.28857e+07 4.14103e+06 0 
4.14103e+06 3.45512e+07 0 
0 0 0 
1.55138e+07 -3.19162e+06 0 
-3.19162e+06 3.2621e+07 0 
0 0 0 
-2.3037e+06 -9.58401e+06 0 
-9.58401e+06 2.04038e+07 0 
0 0 0 
-6.51983e+06 -1.752e+06 0 
-1.752e+06 1.54852e+07 0 
0 0 0 
-1.72316e+07 1.14557e+07 0 
1.14557e+07 5.36009e+06 0 
0 0 0 
633699 246823 0 
246823 1.3673e+07 0 
0 0 0 
3.18467e+07 -4.41903e+06 0 
-4.41903e+06 1.52007e+07 0 
0 0 0 
2.38915e+06 -1.47198e+07 0 
-1.47198e+07 7.50747e+06 0 
0 0 0 
876759 -1.11109e+07 0 
-1.11109e+07 6.03894e+06 0 
0 0 0 
-1.71004e+07 -8.86791e+06 0 
-8.86791e+06 -613266 0 
0 0 0 
-3.26948e+06 -1.2971e+07 0 
-1.2971e+07 -5.70321e+06 0 
0 0 0 
-6.27875e+06 7.47649e+06 0 
7.47649e+06 -1.73062e+06 0 
0 0 0 
9.72868e+06 5.88262e+06 0 
5.88262e+06 1.56887e+07 0 
0 0 0 
-1.25956e+07 8.80317e+06 0 
8.80317e+06 5.78441e+06 0 
0 0 0 
8.01381e+06 2.59287e+06 0 
2.59287e+06 2.20392e+07 0 
0 0 0 
-3.26811e+06 -2.24898e+06 0 
-2.24898e+06 4.61645e+07 0 
0 0 0 
3.98192e+07 -9.10065e+06 0 
-9.10065e+06 6.80266e+07 0 
0 0 0 
-6.36687e+06 -1.30986e+06 0 
-1.30986e+06 5.07145e+07 0 
0 0 0 
5.67144e+06 -3.40268e+06 0 
-3.40268e+06 5.83322e+07 0 
0 0 0 
-7.20472e+06 4.75761e+06 0 
4.75761e+06 3.37189e+07 0 
0 0 0 
2.81207e+07 2.20509e+06 0 
2.20509e+06 2.914e+07 0 
0 0 0 
9.30073e+06 -7.84949e+06 0 
-7.84949e+06 2.21072e+07 0 
0 0 0 
-3.99814e+07 -1.13727e+07 0 
-1.13727e+07 -2.1542e+07 0 
0 0 0 
4.56848e+06 -7.98188e+06 0 
-7.98188e+06 1.93057e+06 0 
0 0 0 
-1.13417e+07 -7.96236e+06 0 
-7.96236e+06 1.50493e+07 0 
0 0 0 
3.78915e+07 3.58058e+06 0 
3.58058e+06 4.65189e+07 0 
0 0 0 
1.61086e+07 1.52653e+07 0 
1.52653e+07 5.84007e+07 0 
0 0 0 
2.89633e+07 5.90994e+06 0 
5.90994e+06 6.39866e+07 0 
0 0 0 
1.67303e+07 2.29661e+06 0 
2.29661e+06 4.47652e+07 0 
0 0 0 
-742063 2.92383e+06 0 
2.92383e+06 3.78701e+07 0 
0 0 0 
0 0 0 
0 0 0 
0 0 0 
1.1795e+07 6.4591e+06 0 
6.4591e+06 3.01587e+07 0 
0 0 0 
2.18033e+07 1.12851e+07 0 
1.12851e+07 5.84136e+07 0 
0 0 0 
1.84249e+07 1.33597e+07 0 
1.33597e+07 3.93606e+07 0 
0 0 0 
3.06553e+07 1.5637e+07 0 
1.5637e+07 5.04089e+07 0 
0 0 0 
9.33401e+06 9.54913e+06 0 
9.54913e+06 2.75854e+07 0 
0 0 0 
1.21459e+07 -1.18684e+07 0 
-1.18684e+07 4.75265e+07 0 
0 0 0 
2.92442e+07 -4.29291e+06 0 
-4.29291e+06 3.00119e+07 0 
0 0 0 
2.03698e+07 1.05528e+07 0 
1.05528e+07 2.89675e+07 0 
0 0 0 
1.82488e+06 1.80777e+07 0 
1.80777e+07 -1.18829e+07 0 
0 0 0 
1.89372e+07 2.04666e+07 0 
2.04666e+07 1.46077e+07 0 
0 0 0 
4.42572e+07 2.10609e+07 0 
2.10609e+07 6.74978e+07 0 
0 0 0 
-5.67858e+06 1.53666e+07 0 
1.53666e+07 -1.21003e+07 0 
0 0 0 
-3.01668e+07 1.17702e+07 0 
1.17702e+07 2.98842e+07 0 
0 0 0 
-5.46875e+07 928399 0 
928399 -4.94036e+07 0 
0 0 0 
-2.31408e+07 6.93734e+06 0 
6.93734e+06 -2.15626e+07 0 
0 0 0 
-2.81867e+07 1.53845e+06 0 
1.53845e+06 -3.53912e+07 0 
0 0 0 
1.12981e+06 7.87009e+06 0 
7.87009e+06 340285 0 
0 0 0 
-9.66247e+06 -2.18136e+06 0 
-2.18136e+06 -3.54079e+07 0 
0 0 0 
2.38531e+06 -1.20059e+07 0 
-1.20059e+07 2.3744e+07 0 
0 0 0 
-2.94934e+07 -1.68259e+07 0 
-1.68259e+07 -7.83202e+07 0 
0 0 0 
-1.74234e+07 -9.6941e+06 0 
-9.6941e+06 -1.6005e+07 0 
0 0 0 
-6.30405e+07 -8.65012e+06 0 
-8.65012e+06 -1.00195e+08 0 
0 0 0 
-6.59243e+07 -3.97528e+06 0 
-3.97528e+06 -1.14719e+07 0 
0 0 0 
-9.15159e+07 5.07674e+06 0 
5.07674e+06 -8.24466e+07 0 
0 0 0 
-5.26786e+07 4.20495e+06 0 
4.20495e+06 1.67755e+07 0 
0 0 0 
-7.27658e+07 -499527 0 
-499527 -9.02828e+07 0 
0 0 0 
-1.80682e+07 -9.12457e+06 0 
-9.12457e+06 -1.5801e+07 0 
0 0 0 
-849187 -1.68942e+07 0 
-1.68942e+07 -3.15179e+07 0 
0 0 0 
5.03274e+07 -4.53877e+06 0 
-4.53877e+06 4.59939e+07 0 
0 0 0 
4.64174e+07 -1.77839e+07 0 
-1.77839e+07 -2.82842e+07 0 
0 0 0 
2.34673e+07 -1.07198e+06 0 
-1.07198e+06 -2.0684e+07 0 
0 0 0 
-1.06284e+07 -6.80494e+06 0 
-6.80494e+06 -4.15752e+07 0 
0 0 0 
-4.26555e+07 -1.20491e+07 0 
-1.20491e+07 -5.46592e+07 0 
0 0 0 
-1.88942e+07 -7.56683e+06 0 
-7.56683e+06 -9.66941e+06 0 
0 0 0 
7.15253e+06 -2.08301e+06 0 
-2.08301e+06 -3.05645e+07 0 
0 0 0 
3.77653e+07 -1.25406e+07 0 
-1.25406e+07 7.34553e+06 0 
0 0 0 
7.8579e+07 -1.17381e+07 0 
-1.17381e+07 4.18686e+07 0 
0 0 0 
6.27021e+07 -1.50189e+06 0 
-1.50189e+06 -2.07873e+06 0 
0 0 0 
5.7983e+07 -1.35055e+06 0 
-1.35055e+06 1.28664e+07 0 
0 0 0 
5.85952e+07 -512868 0 
-512868 8.45857e+06 0 
0 0 0 
4.81499e+07 -5.46344e+06 0 
-5.46344e+06 -3.4896e+06 0 
0 0 0 
7.40135e+07 -7.67514e+06 0 
-7.67514e+06 5.21915e+07 0 
0 0 0 
6.08398e+07 -2.09929e+06 0 
-2.09929e+06 5.23224e+07 0 
0 0 0 
5.12043e+07 1.2088e+07 0 
1.2088e+07 7.14215e+07 0 
0 0 0 
-5.21477e+06 1.3323e+07 0 
1.3323e+07 -3.62297e+07 0 
0 0 0 
4.82704e+06 7.22577e+06 0 
7.22577e+06 -3.22142e+07 0 
0 0 0 
3.88912e+07 6.2214e+06 0 
6.2214e+06 4.12742e+07 0 
0 0 0 
3.98487e+07 -1.40014e+07 0 
-1.40014e+07 4.87765e+07 0 
0 0 0 
0 0 0 
0 0 0 
0 0 0 
1.27859e+07 -2.26904e+06 0 
-2.26904e+06 1.73798e+07 0 
0 0 0 
-1.47097e+07 -2.93964e+06 0 
-2.93964e+06 2.04797e+07 0 
0 0 0 
2.22471e+07 -1.26063e+07 0 
-1.26063e+07 2.71301e+07 0 
0 0 0 
1.09256e+07 -6.39214e+06 0 
-6.39214e+06 2.43872e+07 0 
0 0 0 
4.52854e+07 4.43581e+06 0 
4.43581e+06 3.51826e+07 0 
0 0 0 
2.88469e+06 -2.55191e+06 0 
-2.55191e+06 1.32892e+07 0 
0 0 0 
-5.87398e+06 2.16913e+06 0 
2.16913e+06 259077 0 
0 0 0 
-8.47774e+06 -2.69802e+06 0 
-2.69802e+06 -1.13381e+07 0 
0 0 0 
-1.17221e+07 3.33136e+06 0 
3.33136e+06 -2.30548e+07 0 
0 0 0 
-2.34359e+07 -1.04849e+07 0 
-1.04849e+07 -2.07844e+07 0 
0 0 0 
1.34435e+06 -6.41142e+06 0 
-6.41142e+06 -1.29344e+07 0 
0 0 0 
3.93453e+06 3.20196e+06 0 
3.20196e+06 -1.43796e+07 0 
0 0 0 
1.94059e+07 -2.78117e+06 0 
-2.78117e+06 -1.29751e+06 0 
0 0 0 
4.65094e+06 -7.20412e+06 0 
-7.20412e+06 -2.74457e+06 0 
0 0 0 
2.76311e+06 -1.68932e+06 0 
-1.68932e+06 -6.27512e+06 0 
0 0 0 
-4.93995e+07 -1.36557e+07 0 
-1.36557e+07 -2.52422e+07 0 
0 0 0 
1.60793e+07 -1.5689e+07 0 
-1.5689e+07 493868 0 
0 0 0 
-2.52749e+06 -85562.1 0 
-85562.1 -7.3431e+06 0 
0 0 0 
2.20293e+07 8.78966e+06 0 
8.78966e+06 -927701 0 
0 0 0 
-855886 1.87459e+06 0 
1.87459e+06 -1.9286e+07 0 
0 0 0 
-1.26458e+07 279753 0 
279753 -1.21868e+07 0 
0 0 0 
-7.05255e+06 -256301 0 
-256301 -3.13216e+06 0 
0 0 0 
-1.27217e+07 -1.04957e+07 0 
-1.04957e+07 -4.15583e+06 0 
0 0 0 
-713056 -2.96922e+06 0 
-2.96922e+06 -1.95105e+06 0 
0 0 0 
-1.78744e+07 -439584 0 
-439584 -1.61926e+07 0 
0 0 0 
1.16828e+07 2.92589e+06 0 
2.92589e+06 -8.9465e+06 0 
0 0 0 
-1.54494e+07 -1.35847e+07 0 
-1.35847e+07 -1.9625e+07 0 
0 0 0 
-5.59282e+06 -1.06978e+07 0 
-1.06978e+07 -6.43774e+06 0 
0 0 0 
-1.74341e+07 -1.32873e+07 0 
-1.32873e+07 -1.91734e+07 0 
0 0 0 
2.31642e+07 -5.80926e+06 0 
-5.80926e+06 7.59024e+06 0 
0 0 0 
5.97644e+06 4.47635e+06 0 
4.47635e+06 7.24463e+06 0 
0 0 0 
1.07463e+07 1.06704e+07 0 
1.06704e+07 -3.3515e+06 0 
0 0 0 
-4.75509e+07 -536482 0 
-536482 -3.64191e+07 0 
0 0 0 
-2.37006e+07 -1.54416e+06 0 
-1.54416e+06 -4.62098e+07 0 
0 0 0 
-4.18338e+07 -4.15561e+06 0 
-4.15561e+06 -6.03642e+07 0 
0 0 0 
1.43455e+07 -1.11039e+07 0 
-1.11039e+07 -3.79652e+07 0 
0 0 0 
-2.62052e+07 -8.54482e+06 0 
-8.54482e+06 -4.44924e+07 0 
0 0 0 
-3.09488e+07 718953 0 
718953 -4.54985e+07 0 
0 0 0 
-1.11998e+07 6.86324e+06 0 
6.86324e+06 -2.58748e+07 0 
0 0 0 
-1.41821e+07 1.01722e+07 0 
1.01722e+07 -1.77624e+07 0 
0 0 0 
5.12393e+06 -892477 0 
-892477 -7.02046e+06 0 
0 0 0 
-4.37728e+07 -2.08718e+06 0 
-2.08718e+06 8.47227e+06 0 
0 0 0 
3.17997e+07 3.03913e+06 0 
3.03913e+06 2.85308e+07 0 
0 0 0 
1.55255e+06 9.58776e+06 0 
9.58776e+06 3.28662e+07 0 
0 0 0 
4.44242e+07 -1.92563e+06 0 
-1.92563e+06 5.95599e+07 0 
0 0 0 
8.46503e+06 6.03559e+06 0 
6.03559e+06 1.6188e+07 0 
0 0 0 
-3.5464e+06 4.13381e+06 0 
4.13381e+06 -5.77186e+06 0 
0 0 0 
-2.17229e+07 -4.70826e+06 0 
-4.70826e+06 -1.75913e+07 0 
0 0 0 
3.15481e+07 -3.36525e+06 0 
-3.36525e+06 5.78798e+07 0 
0 0 0 
-8.99116e+06 5.28596e+06 0 
5.28596e+06 -1.96438e+07 0 
0 0 0 
0 0 0 
0 0 0 
0 0 0 
1.58721e+07 626570 0 
626570 3.56691e+07 0 
0 0 0 
1.83617e+07 -3.90894e+06 0 
-3.90894e+06 6.46889e+07 0 
0 0 0 
-2.22656e+06 6.01246e+06 0 
6.01246e+06 3.73479e+07 0 
0 0 0 
-1.33174e+06 8.25539e+06 0 
8.25539e+06 5.49088e+07 0 
0 0 0 
-1.85595e+07 216732 0 
216732 -9.03582e+06 0 
0 0 0 
-5.42966e+06 -2.17333e+06 0 
-2.17333e+06 2.11362e+07 0 
0 0 0 
-3.58227e+06 551227 0 
551227 2.5828e+07 0 
0 0 0 
3.39926e+07 9.67199e+06 0 
9.67199e+06 6.50551e+07 0 
0 0 0 
1.8359e+07 2.08098e+07 0 
2.08098e+07 -4.83187e+06 0 
0 0 0 
1.86226e+07 2.07187e+07 0 
2.07187e+07 1.98277e+07 0 
0 0 0 
1.74661e+06 8.83846e+06 0 
8.83846e+06 4.35382e+07 0 
0 0 0 
-1.77122e+07 8.19947e+06 0 
8.19947e+06 -3.73054e+06 0 
0 0 0 
4.75859e+06 7.50962e+06 0 
7.50962e+06 1.39132e+07 0 
0 0 0 
-8.76524e+06 8.11128e+06 0 
8.11128e+06 -1.18933e+07 0 
0 0 0 
-3.60541e+07 1.52475e+07 0 
1.52475e+07 -3.87381e+07 0 
0 0 0 
-2.06994e+07 1.36928e+07 0 
1.36928e+07 -2.33452e+07 0 
0 0 0 
-2.27213e+07 3.67695e+06 0 
3.67695e+06 -3.8146e+07 0 
0 0 0 
-2.29275e+07 -4.70217e+06 0 
-4.70217e+06 -2.2233e+07 0 
0 0 0 
-2.35676e+07 5.84449e+06 0 
5.84449e+06 -2.52827e+07 0 
0 0 0 
-3.32744e+07 -1.27404e+07 0 
-1.27404e+07 -5.80648e+07 0 
0 0 0 
-1.74178e+07 -1.39535e+07 0 
-1.39535e+07 -2.89975e+07 0 
0 0 0 
-2.01873e+07 -9.39523e+06 0 
-9.39523e+06 -6.5096e+07 0 
0 0 0 
3.41564e+07 -8.20175e+06 0 
-8.20175e+06 1.44219e+07 0 
0 0 0 
1.65574e+07 5.23183e+06 0 
5.23183e+06 -2.78915e+07 0 
0 0 0 
3.08801e+06 -3.95303e+06 0 
-3.95303e+06 1.36996e+07 0 
0 0 0 
-4.42354e+07 -2.09416e+06 0 
-2.09416e+06 -6.49256e+07 0 
0 0 0 
-5.61007e+07 2.49742e+06 0 
2.49742e+06 -5.10517e+07 0 
0 0 0 
-3.68722e+07 2.46588e+06 0 
2.46588e+06 -1.61324e+07 0 
0 0 0 
-3.82637e+07 1.08601e+06 0 
1.08601e+06 -1.7473e+07 0 
0 0 0 
-4.64257e+07 -1.51625e+07 0 
-1.51625e+07 -3.25336e+07 0 
0 0 0 
-4.02612e+07 -1.93395e+07 0 
-1.93395e+07 -5.90315e+07 0 
0 0 0 
-3.04489e+07 -6.41868e+06 0 
-6.41868e+06 -3.66829e+07 0 
0 0 0 
-4.10107e+06 -3.70212e+06 0 
-3.70212e+06 -4.43697e+07 0 
0 0 0 
7.27768e+06 -1.07839e+06 0 
-1.07839e+06 -874452 0 
0 0 0 
-2.26026e+07 -1.47757e+06 0 
-1.47757e+06 -3.64462e+07 0 
0 0 0 
-7.48171e+06 3.58272e+06 0 
3.58272e+06 -4.11337e+06 0 
0 0 0 
4.4263e+06 1.12316e+06 0 
1.12316e+06 2.27982e+07 0 
0 0 0 
90083.7 4.20279e+06 0 
4.20279e+06 -1.52422e+07 0 
0 0 0 
8.29071e+06 2.02348e+06 0 
2.02348e+06 -1.21895e+07 0 
0 0 0 
1.84141e+06 -8.12813e+06 0 
-8.12813e+06 -1.6743e+07 0 
0 0 0 
354727 -2.73643e+06 0 
-2.73643e+06 -1.70133e+07 0 
0 0 0 
3.56994e+06 -5.96722e+06 0 
-5.96722e+06 2.95635e+07 0 
0 0 0 
3.35848e+06 -1.32569e+06 0 
-1.32569e+06 3.88314e+07 0 
0 0 0 
6.49214e+06 -6.33694e+06 0 
-6.33694e+06 6.45727e+07 0 
0 0 0 
-2.54707e+07 -868830 0 
-868830 -3.83348e+07 0 
0 0 0 
-3.99597e+07 1.26399e+07 0 
1.26399e+07 -3.40011e+07 0 
0 0 0 
-3.33925e+07 7.75707e+06 0 
7.75707e+06 -6.28722e+06 0 
0 0 0 
-1.89098e+07 -1.60964e+06 0 
-1.60964e+06 1.46376e+07 0 
0 0 0 
270885 -1.06917e+07 0 
-1.06917e+07 5.32637e+07 0 
0 0 0 
0 0 0 
0 0 0 
0 0 0 
-3.60525e+06 9.99032e+06 0 
9.99032e+06 -8.05689e+06 0 
0 0 0 
-1.24529e+07 3.88645e+06 0 
3.88645e+06 -2.82451e+07 0 
0 0 0 
-5.95007e+06 133897 0 
133897 -2.15149e+07 0 
0 0 0 
4.53418e+06 5.99536e+06 0 
5.99536e+06 -4.22757e+06 0 
0 0 0 
3.10025e+07 -1.49052e+06 0 
-1.49052e+06 4.40809e+06 0 
0 0 0 
6.31799e+06 2.28123e+06 0 
2.28123e+06 6.91663e+06 0 
0 0 0 
-9.15976e+06 -114032 0 
-114032 1.03295e+06 0 
0 0 0 
-9.89345e+06 -6.63947e+06 0 
-6.63947e+06 4.10753e+06 0 
0 0 0 
5.26092e+06 -5.4058e+06 0 
-5.4058e+06 1.15528e+07 0 
0 0 0 
-1.68026e+07 749071 0 
749071 -9.45513e+06 0 
0 0 0 
2.0401e+07 5.699e+06 0 
5.699e+06 1.62673e+07 0 
0 0 0 
4.53837e+06 1.51795e+06 0 
1.51795e+06 1.14568e+07 0 
0 0 0 
2.30575e+07 -2.51903e+06 0 
-2.51903e+06 1.78888e+07 0 
0 0 0 
-8.92936e+06 -1.20938e+07 0 
-1.20938e+07 7.41265e+06 0 
0 0 0 
-207913 -2.03408e+07 0 
-2.03408e+07 -1.22181e+07 0 
0 0 0 
-5.98876e+07 -1.76901e+07 0 
-1.76901e+07 -5.01599e+07 0 
0 0 0 
2.26546e+07 -1.07382e+07 0 
-1.07382e+07 -1.48673e+07 0 
0 0 0 
1.34644e+07 -1.04559e+07 0 
-1.04559e+07 -2.61364e+06 0 
0 0 0 
2.33359e+07 2.21852e+06 0 
2.21852e+06 2.27006e+06 0 
0 0 0 
1.89483e+06 8.06991e+06 0 
8.06991e+06 2.36444e+06 0 
0 0 0 
-4.76964e+06 7.97037e+06 0 
7.97037e+06 5.9317e+06 0 
0 0 0 
-3.57018e+06 -2.58768e+06 0 
-2.58768e+06 1.51244e+07 0 
0 0 0 
-1.05186e+07 4.80415e+06 0 
4.80415e+06 2.1058e+07 0 
0 0 0 
1.79078e+07 3.56698e+06 0 
3.56698e+06 3.82644e+07 0 
0 0 0 
3.30053e+06 -6.38305e+06 0 
-6.38305e+06 2.7809e+07 0 
0 0 0 
8.91394e+06 -4.24669e+06 0 
-4.24669e+06 3.15049e+07 0 
0 0 0 
-9.18191e+06 -1.25234e+07 0 
-1.25234e+07 3.38488e+07 0 
0 0 0 
1.52486e+07 -1.07743e+07 0 
-1.07743e+07 2.63372e+07 0 
0 0 0 
1.27724e+07 601397 0 
601397 3.96566e+07 0 
0 0 0 
4.82577e+07 564964 0 
564964 5.6499e+07 0 
0 0 0 
1.75587e+07 3.03893e+06 0 
3.03893e+06 4.82754e+07 0 
0 0 0 
1.5299e+07 -1.41903e+07 0 
-1.41903e+07 3.95095e+07 0 
0 0 0 
-2.21369e+07 -8.52786e+06 0 
-8.52786e+06 2.00983e+07 0 
0 0 0 
-1.27468e+07 2.58337e+06 0 
2.58337e+06 3.15046e+07 0 
0 0 0 
-9.89976e+06 -3.45026e+06 0 
-3.45026e+06 2.08419e+07 0 
0 0 0 
2.4071e+07 -9.69938e+06 0 
-9.69938e+06 2.23909e+07 0 
0 0 0 
3.88708e+06 -1.37231e+07 0 
-1.37231e+07 9.27201e+06 0 
0 0 0 
1.8489e+06 -6.34028e+06 0 
-6.34028e+06 805180 0 
0 0 0 
-2.1792e+06 4.02197e+06 0 
4.02197e+06 -6.56664e+06 0 
0 0 0 
-1.14362e+07 7.99304e+06 0 
7.99304e+06 -8.8148e+06 0 
0 0 0 
-6.33264e+06 5.83606e+06 0 
5.83606e+06 7.36788e+06 0 
0 0 0 
-3.78097e+07 -532091 0 
-532091 -1.22964e+07 0 
0 0 0 
3.22535e+07 6.47764e+06 0 
6.47764e+06 2.59599e+07 0 
0 0 0 
-1.54691e+07 8.44284e+06 0 
8.44284e+06 1.89979e+07 0 
0 0 0 
3.24998e+07 -1.30112e+07 0 
-1.30112e+07 2.75294e+07 0 
0 0 0 
6.55254e+06 -8.76894e+06 0 
-8.76894e+06 2.51287e+07 0 
0 0 0 
1.67915e+07 -1.47887e+07 0 
-1.47887e+07 1.71644e+07 0 
0 0 0 
-8.09171e+06 3.84355e+06 0 
3.84355e+06 1.93642e+07 0 
0 0 0 
-1.23618e+07 -4.6544e+06 0 
-4.6544e+06 2.87435e+07 0 
0 0 0 
-3.88636e+07 -1.85661e+07 0 
-1.85661e+07 -3.25034e+07 0 
0 0 0 
-3.05055e+07 -1.29634e+07 0 
-1.29634e+07 2.75928e+07 0 
0 0 0 
0 0 0 
0 0 0 
0 0 0 
1.15431e+07 8.74396e+06 0 
8.74396e+06 3.24731e+07 0 
0 0 0 
2.82627e+07 -2.34996e+06 0 
-2.34996e+06 6.92368e+07 0 
0 0 0 
2.16873e+07 5.25888e+06 0 
5.25888e+06 5.48043e+07 0 
0 0 0 
1.81867e+07 846209 0 
846209 5.25374e+07 0 
0 0 0 
1.63356e+07 2.09383e+06 0 
2.09383e+06 1.03053e+07 0 
0 0 0 
5.67391e+07 7.21781e+06 0 
7.21781e+06 3.50391e+07 0 
0 0 0 
9.09603e+07 1.61184e+07 0 
1.61184e+07 5.93712e+07 0 
0 0 0 
1.02614e+08 1.92975e+07 0 
1.92975e+07 9.43732e+07 0 
0 0 0 
7.4773e+07 8.5666e+06 0 
8.5666e+06 2.49659e+07 0 
0 0 0 
4.89805e+07 8.41157e+06 0 
8.41157e+06 2.27743e+07 0 
0 0 0 
4.98341e+07 3.80401e+06 0 
3.80401e+06 6.88378e+07 0 
0 0 0 
2.2912e+07 1.39889e+07 0 
1.39889e+07 5.87968e+06 0 
0 0 0 
2.45738e+07 1.05325e+07 0 
1.05325e+07 1.74532e+07 0 
0 0 0 
2.56759e+07 6.76265e+06 0 
6.76265e+06 5.72596e+06 0 
0 0 0 
3.33071e+07 9.5397e+06 0 
9.5397e+06 -1.29679e+07 0 
0 0 0 
2.99533e+07 1.22606e+07 0 
1.22606e+07 -1.97993e+07 0 
0 0 0 
1.81256e+07 9.20093e+06 0 
9.20093e+06 -2.24906e+07 0 
0 0 0 
2.39629e+07 9.09583e+06 0 
9.09583e+06 -9.08633e+06 0 
0 0 0 
3.71972e+07 -3.82574e+06 0 
-3.82574e+06 -1.48403e+07 0 
0 0 0 
1.97681e+07 -2.54019e+06 0 
-2.54019e+06 -3.80986e+07 0 
0 0 0 
4.98909e+07 2.66527e+06 0 
2.66527e+06 1.10717e+06 0 
0 0 0 
4.15013e+07 -128074 0 
-128074 -5.0256e+07 0 
0 0 0 
6.07119e+07 2.7022e+06 0 
2.7022e+06 2.7397e+07 0 
0 0 0 
5.45192e+07 -65687.6 0 
-65687.6 -5.37793e+06 0 
0 0 0 
7.86499e+07 -1.33594e+06 0 
-1.33594e+06 1.74737e+07 0 
0 0 0 
8.02508e+07 -3.42055e+06 0 
-3.42055e+06 -3.96548e+06 0 
0 0 0 
6.7679e+07 -3.25573e+06 0 
-3.25573e+06 -1.91204e+07 0 
0 0 0 
7.68085e+07 145747 0 
145747 2.63844e+07 0 
0 0 0 
4.21972e+07 -1.65508e+07 0 
-1.65508e+07 -6.99649e+06 0 
0 0 0 
3.11791e+07 -6.5005e+06 0 
-6.5005e+06 -1.33917e+07 0 
0 0 0 
3.79706e+07 -1.44544e+07 0 
-1.44544e+07 -9.08314e+06 0 
0 0 0 
4.60207e+07 9.33009e+06 0 
9.33009e+06 -1.2143e+07 0 
0 0 0 
3.37232e+07 806802 0 
806802 -1.21579e+07 0 
0 0 0 
4.04539e+07 8.76698e+06 0 
8.76698e+06 -1.2299e+07 0 
0 0 0 
2.61553e+07 -7.62333e+06 0 
-7.62333e+06 -1.6333e+07 0 
0 0 0 
-1.40902e+06 -1.46157e+06 0 
-1.46157e+06 -3385.68 0 
0 0 0 
437136 -4.58058e+06 0 
-4.58058e+06 2.94388e+07 0 
0 0 0 
-1.58288e+07 1.47439e+06 0 
1.47439e+06 -2.81802e+07 0 
0 0 0 
-7.57035e+06 -5.36004e+06 0 
-5.36004e+06 -1.92688e+07 0 
0 0 0 
-3.95635e+06 -3.612e+06 0 
-3.612e+06 -2.88672e+07 0 
0 0 0 
7.08349e+06 -7.25372e+06 0 
-7.25372e+06 834806 0 
0 0 0 
3.42884e+07 -1.10076e+06 0 
-1.10076e+06 3.69689e+07 0 
0 0 0 
4.31704e+07 -1.04787e+07 0 
-1.04787e+07 4.18826e+07 0 
0 0 0 
4.57015e+07 -8.93196e+06 0 
-8.93196e+06 6.49588e+07 0 
0 0 0 
4.9763e+06 -9.23645e+06 0 
-9.23645e+06 -32431.1 0 
0 0 0 
-2.21019e+07 -8.48935e+06 0 
-8.48935e+06 -2.08087e+07 0 
0 0 0 
-2.82808e+07 1.06789e+07 0 
1.06789e+07 -3.46007e+06 0 
0 0 0 
-3.27942e+07 -7.26086e+06 0 
-7.26086e+06 -6.7079e+06 0 
0 0 0 
-1.45605e+07 -2.46194e+06 0 
-2.46194e+06 2.59803e+07 0 
0 0 0 
-1.24525e+07 -1.89097e+07 0 
-1.89097e+07 -2.21287e+07 0 
0 0 0 
0 0 0 
0 0 0 
0 0 0 
2.37812e+06 853316 0 
853316 -3.15799e+06 0 
0 0 0 
4.14849e+06 -307303 0 
-307303 1.2026e+07 0 
0 0 0 
2.05501e+07 921955 0 
921955 3.10147e+07 0 
0 0 0 
6.07817e+06 6.13794e+06 0 
6.13794e+06 2.50665e+07 0 
0 0 0 
1.90432e+07 -202928 0 
-202928 2.34661e+07 0 
0 0 0 
2.01126e+07 -3.77462e+06 0 
-3.77462e+06 -5.35528e+06 0 
0 0 0 
-2.2087e+07 1.47195e+06 0 
1.47195e+06 -2.12887e+07 0 
0 0 0 
-2.50666e+07 5.05902e+06 0 
5.05902e+06 -1.40825e+07 0 
0 0 0 
2.18302e+07 2.96169e+06 0 
2.96169e+06 5.70471e+06 0 
0 0 0 
-1.7353e+07 3.44399e+06 0 
3.44399e+06 1.81859e+07 0 
0 0 0 
3.81476e+07 -2.65206e+06 0 
-2.65206e+06 3.57091e+07 0 
0 0 0 
-1.67542e+07 -3.63555e+06 0 
-3.63555e+06 1.22411e+07 0 
0 0 0 
1.87677e+07 -6.3056e+06 0 
-6.3056e+06 1.46173e+07 0 
0 0 0 
-3.43631e+07 -2.18409e+07 0 
-2.18409e+07 -1.20835e+07 0 
0 0 0 
1.14e+07 -1.94642e+07 0 
-1.94642e+07 4.8265e+06 0 
0 0 0 
-3.44744e+07 -1.29206e+07 0 
-1.29206e+07 37231.4 0 
0 0 0 
5.33795e+07 -167737 0 
-167737 3.84764e+07 0 
0 0 0 
1.25938e+07 75683.5 0 
75683.5 3.96918e+07 0 
0 0 0 
6.18393e+07 -4.75172e+06 0 
-4.75172e+06 5.71617e+07 0 
0 0 0 
9.17184e+06 1.15793e+06 0 
1.15793e+06 1.73583e+07 0 
0 0 0 
-1.20775e+07 6.55703e+06 0 
6.55703e+06 -8.01483e+06 0 
0 0 0 
-1.70961e+07 3.29755e+06 0 
3.29755e+06 -1.56138e+07 0 
0 0 0 
-1.54191e+07 -1.24636e+06 0 
-1.24636e+06 -1.15797e+07 0 
0 0 0 
-1.26859e+07 -4.14475e+06 0 
-4.14475e+06 -2.47285e+07 0 
0 0 0 
-1.80023e+07 -8.97643e+06 0 
-8.97643e+06 -2.56912e+07 0 
0 0 0 
-1.76375e+07 -2.28002e+06 0 
-2.28002e+06 -3.06956e+07 0 
0 0 0 
-3.18894e+07 -8.25107e+06 0 
-8.25107e+06 -3.91177e+07 0 
0 0 0 
2.27353e+07 -1.16802e+06 0 
-1.16802e+06 1.41318e+07 0 
0 0 0 
2.1026e+07 4.71631e+06 0 
4.71631e+06 2.31363e+07 0 
0 0 0 
4.99193e+07 8.92103e+06 0 
8.92103e+06 4.98329e+07 0 
0 0 0 
-1.20304e+07 -913016 0 
-913016 2.65955e+07 0 
0 0 0 
9.41259e+06 -2.83809e+06 0 
-2.83809e+06 3.07847e+07 0 
0 0 0 
-1.86107e+07 -1.12364e+07 0 
-1.12364e+07 1.25144e+07 0 
0 0 0 
-2.14334e+07 -1.38772e+06 0 
-1.38772e+06 -1.4026e+07 0 
0 0 0 
-2.77768e+07 -3.40751e+06 0 
-3.40751e+06 -1.01106e+07 0 
0 0 0 
-1.22854e+07 -1.55987e+07 0 
-1.55987e+07 -5.45103e+06 0 
0 0 0 
2.31862e+07 -1.94722e+07 0 
-1.94722e+07 1.98431e+06 0 
0 0 0 
1.56424e+07 -4.69114e+06 0 
-4.69114e+06 5.66231e+06 0 
0 0 0 
1.75613e+07 6.51059e+06 0 
6.51059e+06 1.5316e+07 0 
0 0 0 
-8.95544e+06 9.71304e+06 0 
9.71304e+06 5.10175e+06 0 
0 0 0 
-2.15892e+07 7.09154e+06 0 
7.09154e+06 -1.53702e+07 0 
0 0 0 
-4.06439e+07 -158120 0 
-158120 -1.10016e+07 0 
0 0 0 
2.94065e+07 3.3959e+06 0 
3.3959e+06 1.3075e+07 0 
0 0 0 
-3.33625e+07 4.8213e+06 0 
4.8213e+06 -2.49003e+07 0 
0 0 0 
1.97319e+07 2.23587e+06 0 
2.23587e+06 2.69489e+06 0 
0 0 0 
-1.66019e+07 -9.01686e+06 0 
-9.01686e+06 -4.59719e+06 0 
0 0 0 
2.7753e+07 -7.01093e+06 0 
-7.01093e+06 1.67853e+07 0 
0 0 0 
-1.44448e+07 -1.0516e+07 0 
-1.0516e+07 -1.27323e+07 0 
0 0 0 
-4.43202e+07 -1.15715e+06 0 
-1.15715e+06 -4.22141e+07 0 
0 0 0 
-5.19015e+07 -5.04564e+06 0 
-5.04564e+06 -4.28542e+07 0 
0 0 0 
2.17652e+07 -1.25465e+07 0 
-1.25465e+07 6.31586e+07 0 
0 0 0 
-1.45465e+07 -5.07402e+06 0 
-5.07402e+06 -3.15429e+07 0 
0 0 0 
0 0 0 
0 0 0 
0 0 0 
1.06353e+06 1.75918e+06 0 
1.75918e+06 3.30755e+07 0 
0 0 0 
1.52429e+07 3.2829e+06 0 
3.2829e+06 6.18529e+07 0 
0 0 0 
3.12526e+07 2.14472e+06 0 
2.14472e+06 6.52294e+07 0 
0 0 0 
1.93201e+07 3.9942e+06 0 
3.9942e+06 3.5694e+07 0 
0 0 0 
2.28889e+07 1.11706e+07 0 
1.11706e+07 3.6055e+07 0 
0 0 0 
3.64666e+07 2.62474e+07 0 
2.62474e+07 3.7094e+07 0 
0 0 0 
4.0592e+07 1.75895e+07 0 
1.75895e+07 4.12212e+07 0 
0 0 0 
4.43211e+07 2.07891e+07 0 
2.07891e+07 6.03895e+07 0 
0 0 0 
3.33646e+07 8.03983e+06 0 
8.03983e+06 4.8739e+06 0 
0 0 0 
4.9197e+07 -2.4146e+06 0 
-2.4146e+06 3.97446e+07 0 
0 0 0 
5.9599e+07 5.47287e+06 0 
5.47287e+06 7.83331e+07 0 
0 0 0 
4.94024e+07 1.18869e+07 0 
1.18869e+07 1.30504e+07 0 
0 0 0 
4.28876e+07 5.56175e+06 0 
5.56175e+06 1.08318e+07 0 
0 0 0 
3.68284e+07 1.41991e+06 0 
1.41991e+06 1.14776e+07 0 
0 0 0 
1.88227e+07 3.86451e+06 0 
3.86451e+06 -2.78333e+07 0 
0 0 0 
2.08156e+07 9.25122e+06 0 
9.25122e+06 4.24261e+06 0 
0 0 0 
2.19679e+07 1.17225e+07 0 
1.17225e+07 -2.79771e+07 0 
0 0 0 
9.18549e+07 1.62053e+07 0 
1.62053e+07 -4.35353e+06 0 
0 0 0 
9.61391e+07 -9.09557e+06 0 
-9.09557e+06 -1.11781e+07 0 
0 0 0 
7.03698e+07 -3.64189e+06 0 
-3.64189e+06 -2.29068e+07 0 
0 0 0 
6.40149e+07 -1.34182e+07 0 
-1.34182e+07 1.80247e+07 0 
0 0 0 
6.77991e+06 -6.57357e+06 0 
-6.57357e+06 -6.19694e+07 0 
0 0 0 
2.30042e+07 -2.5923e+06 0 
-2.5923e+06 6.22119e+06 0 
0 0 0 
6.59158e+06 -6.9428e+06 0 
-6.9428e+06 -1.43371e+07 0 
0 0 0 
-1.15421e+07 -5.49773e+06 0 
-5.49773e+06 -2.6429e+07 0 
0 0 0 
-3.36535e+07 -1.93436e+07 0 
-1.93436e+07 -3.14535e+07 0 
0 0 0 
-3.04302e+07 3.6951e+06 0 
3.6951e+06 -3.81291e+07 0 
0 0 0 
-3.33473e+07 -4.70933e+06 0 
-4.70933e+06 -2.51363e+07 0 
0 0 0 
-2.15031e+07 -8.48486e+06 0 
-8.48486e+06 -3.24898e+07 0 
0 0 0 
-1.49642e+07 -1.2587e+07 0 
-1.2587e+07 -2.95249e+07 0 
0 0 0 
-9.43426e+06 -8.35286e+06 0 
-8.35286e+06 -8.12097e+06 0 
0 0 0 
-2.90878e+07 -1.0668e+07 0 
-1.0668e+07 -3.21881e+07 0 
0 0 0 
-3.36161e+07 -1.21261e+06 0 
-1.21261e+06 -3.0928e+07 0 
0 0 0 
-4.34546e+07 -7.32345e+06 0 
-7.32345e+06 -4.59527e+07 0 
0 0 0 
-2.86382e+07 -1.33873e+07 0 
-1.33873e+07 -5.03019e+07 0 
0 0 0 
-1.8939e+06 -1.93621e+07 0 
-1.93621e+07 7.21574e+06 0 
0 0 0 
-2.42158e+07 -1.22794e+07 0 
-1.22794e+07 2.09685e+07 0 
0 0 0 
-5.27206e+07 -1.52644e+06 0 
-1.52644e+06 -3.34293e+07 0 
0 0 0 
-6.92088e+07 -1.19677e+06 0 
-1.19677e+06 -3.48782e+07 0 
0 0 0 
-8.50244e+07 603184 0 
603184 -5.26136e+07 0 
0 0 0 
-6.82277e+07 1.85212e+06 0 
1.85212e+06 -3.35376e+07 0 
0 0 0 
-4.40764e+07 -3.45118e+06 0 
-3.45118e+06 1.27121e+07 0 
0 0 0 
-4.02473e+07 -7.5125e+06 0 
-7.5125e+06 -1.41895e+06 0 
0 0 0 
-1.52741e+07 -1.11815e+07 0 
-1.11815e+07 4.49338e+07 0 
0 0 0 
-3.30052e+07 -2.17098e+07 0 
-2.17098e+07 -1.41241e+07 0 
0 0 0 
-2.62614e+07 -1.03898e+07 0 
-1.03898e+07 4.39919e+06 0 
0 0 0 
-4.1032e+07 -5.04919e+06 0 
-5.04919e+06 -1.44218e+07 0 
0 0 0 
-2.62193e+07 1.81404e+06 0 
1.81404e+06 44645.7 0 
0 0 0 
-7.39003e+06 3.97154e+06 0 
3.97154e+06 2.16316e+07 0 
0 0 0 
-7.05333e+06 5.46514e+06 0 
5.46514e+06 -2.24721e+07 0 
0 0 0 
5.03964e+07 -9.9072e+06 0 
-9.9072e+06 6.30288e+07 0 
0 0 0 
0 0 0 
0 0 0 
0 0 0 
-2.83298e+06 2.03321e+06 0 
2.03321e+06 4.07276e+06 0 
0 0 0 
1.3847e+07 4.29916e+06 0 
4.29916e+06 1.95842e+06 0 
0 0 0 
1.25635e+07 3.19683e+06 0 
3.19683e+06 4.82366e+06 0 
0 0 0 
6.07569e+06 4.36117e+06 0 
4.36117e+06 1.87743e+07 0 
0 0 0 
-1.01119e+06 -1.17942e+07 0 
-1.17942e+07 1.93737e+06 0 
0 0 0 
2.28579e+07 -4.48753e+06 0 
-4.48753e+06 1.83163e+07 0 
0 0 0 
4.2003e+06 -2.60829e+06 0 
-2.60829e+06 2.28729e+07 0 
0 0 0 
-2.22999e+06 3.8422e+06 0 
3.8422e+06 2.05944e+07 0 
0 0 0 
2.26081e+07 1.40366e+06 0 
1.40366e+06 2.77409e+07 0 
0 0 0 
-2.28549e+07 8.54181e+06 0 
8.54181e+06 -2.48154e+06 0 
0 0 0 
1.37505e+07 -5.07671e+06 0 
-5.07671e+06 1.55764e+06 0 
0 0 0 
-4.14409e+07 -1.22687e+07 0 
-1.22687e+07 -3.33952e+07 0 
0 0 0 
3.66941e+06 -9.57694e+06 0 
-9.57694e+06 -1.66679e+07 0 
0 0 0 
-4.47098e+07 -1.65275e+07 0 
-1.65275e+07 -2.98928e+07 0 
0 0 0 
1.93154e+07 -1.41123e+07 0 
-1.41123e+07 -868538 0 
0 0 0 
-2.24858e+07 -3.93337e+06 0 
-3.93337e+06 -7.63362e+06 0 
0 0 0 
5.10499e+07 5.49903e+06 0 
5.49903e+06 1.98303e+07 0 
0 0 0 
-1.138e+06 7.85017e+06 0 
7.85017e+06 -724363 0 
0 0 0 
3.19235e+07 -546186 0 
-546186 1.19768e+07 0 
0 0 0 
3.08018e+06 -1.03948e+07 0 
-1.03948e+07 9.05762e+06 0 
0 0 0 
2.33418e+07 -595171 0 
-595171 1.61149e+07 0 
0 0 0 
-3.68561e+07 868589 0 
868589 -8.55138e+06 0 
0 0 0 
-7.64569e+06 1.13682e+06 0 
1.13682e+06 549854 0 
0 0 0 
-1.44318e+07 -1.03047e+07 0 
-1.03047e+07 1.41242e+07 0 
0 0 0 
1.51682e+07 -6.20327e+06 0 
-6.20327e+06 2.49852e+07 0 
0 0 0 
2.72302e+06 -2.7569e+06 0 
-2.7569e+06 2.19546e+07 0 
0 0 0 
-1.51544e+07 5.73913e+06 0 
5.73913e+06 2.2668e+07 0 
0 0 0 
5.04838e+07 1.13084e+07 0 
1.13084e+07 4.68463e+07 0 
0 0 0 
1.45287e+07 2.23957e+06 0 
2.23957e+06 3.2807e+07 0 
0 0 0 
3.66732e+07 -662313 0 
-662313 1.74561e+07 0 
0 0 0 
-2.37731e+07 -8.0877e+06 0 
-8.0877e+06 -581312 0 
0 0 0 
-1.38769e+07 -1.19183e+07 0 
-1.19183e+07 407271 0 
0 0 0 
-5.35066e+06 -1.22826e+07 0 
-1.22826e+07 3.14557e+07 0 
0 0 0 
4.64627e+06 -7.32076e+06 0 
-7.32076e+06 6.18403e+07 0 
0 0 0 
-6.15115e+06 -2.69857e+06 0 
-2.69857e+06 5.5713e+07 0 
0 0 0 
-1.53864e+06 -1.02707e+07 0 
-1.02707e+07 6.48162e+07 0 
0 0 0 
6.33085e+07 -5.43354e+06 0 
-5.43354e+06 9.3349e+07 0 
0 0 0 
3.56915e+07 -1.36878e+07 0 
-1.36878e+07 7.83797e+07 0 
0 0 0 
5.47344e+07 -5.37988e+06 0 
-5.37988e+06 5.66489e+07 0 
0 0 0 
-6.77886e+06 1.35299e+06 0 
1.35299e+06 1.7518e+07 0 
0 0 0 
-2.06409e+07 -600061 0 
-600061 2.02747e+06 0 
0 0 0 
-4.49195e+07 1.03262e+07 0 
1.03262e+07 -3.98323e+06 0 
0 0 0 
3.18063e+07 2.43017e+06 0 
2.43017e+06 3.34516e+07 0 
0 0 0 
-2.39651e+07 -5.50608e+06 0 
-5.50608e+06 2.01716e+07 0 
0 0 0 
4.71416e+07 -299647 0 
-299647 4.61549e+07 0 
0 0 0 
-9.97118e+06 -3.3478e+06 0 
-3.3478e+06 3.82541e+07 0 
0 0 0 
4.55437e+07 -379599 0 
-379599 6.33825e+07 0 
0 0 0 
-7.7289e+06 -6.96275e+06 0 
-6.96275e+06 6.71077e+07 0 
0 0 0 
7.85074e+06 -1.33535e+07 0 
-1.33535e+07 7.37405e+07 0 
0 0 0 
-2.17903e+07 -8.48206e+06 0 
-8.48206e+06 5.02749e+07 0 
0 0 0 
2.71014e+07 -1.8925e+06 0 
-1.8925e+06 6.46755e+07 0 
0 0 0 
4.76165e+07 -2.15136e+06 0 
-2.15136e+06 1.61407e+07 0 
0 0 0 
5.50076e+07 4.62656e+06 0 
4.62656e+06 6.35811e+07 0 
0 0 0 
0 0 0 
0 0 0 
0 0 0 
2.18758e+07 2.03471e+06 0 
2.03471e+06 3.30341e+07 0 
0 0 0 
4.6648e+07 6.75581e+06 0 
6.75581e+06 8.43923e+07 0 
0 0 0 
5.58291e+07 1.27202e+07 0 
1.27202e+07 8.42261e+07 0 
0 0 0 
5.90017e+07 1.0741e+07 0 
1.0741e+07 3.61069e+07 0 
0 0 0 
5.62399e+07 6.85476e+06 0 
6.85476e+06 5.08005e+07 0 
0 0 0 
3.8878e+07 1.88229e+07 0 
1.88229e+07 6.0249e+07 0 
0 0 0 
1.20909e+07 1.39867e+07 0 
1.39867e+07 2.71238e+07 0 
0 0 0 
-3.16616e+06 1.69649e+07 0 
1.69649e+07 1.9527e+07 0 
0 0 0 
-1.44329e+07 1.2539e+07 0 
1.2539e+07 -197521 0 
0 0 0 
4.63495e+06 1.06812e+06 0 
1.06812e+06 1.06936e+07 0 
0 0 0 
4.21276e+07 -9.97583e+06 0 
-9.97583e+06 8.17038e+07 0 
0 0 0 
381835 5.20409e+06 0 
5.20409e+06 1.35168e+07 0 
0 0 0 
-1.69733e+07 5.93943e+06 0 
5.93943e+06 -1.87669e+07 0 
0 0 0 
-1.30655e+07 5.71749e+06 0 
5.71749e+06 -2.44018e+07 0 
0 0 0 
-4.41542e+06 3.71177e+06 0 
3.71177e+06 -2.40859e+07 0 
0 0 0 
2.70757e+07 9.19212e+06 0 
9.19212e+06 2.19824e+07 0 
0 0 0 
4.80444e+07 2.92719e+07 0 
2.92719e+07 7.82279e+06 0 
0 0 0 
7.56436e+07 2.04199e+07 0 
2.04199e+07 2.00851e+07 0 
0 0 0 
7.54816e+07 7.11478e+06 0 
7.11478e+06 -1.16718e+06 0 
0 0 0 
5.53986e+07 -1.53509e+07 0 
-1.53509e+07 -1.56688e+07 0 
0 0 0 
5.62845e+07 -2.44871e+07 0 
-2.44871e+07 3.16221e+07 0 
0 0 0 
1.34714e+07 -1.59889e+07 0 
-1.59889e+07 -6.35277e+07 0 
0 0 0 
1.01832e+07 -1.58413e+07 0 
-1.58413e+07 -3.83277e+06 0 
0 0 0 
-1.13867e+07 -1.54043e+07 0 
-1.54043e+07 -2.4746e+07 0 
0 0 0 
-9.93752e+06 -1.25126e+07 0 
-1.25126e+07 -1.57981e+07 0 
0 0 0 
2.54506e+07 233579 0 
233579 -206986 0 
0 0 0 
2.09366e+07 -5.38469e+06 0 
-5.38469e+06 -1.68359e+07 0 
0 0 0 
3.54285e+07 -2.65812e+06 0 
-2.65812e+06 -2.09501e+06 0 
0 0 0 
2.14235e+07 -9.99174e+06 0 
-9.99174e+06 -3.13886e+07 0 
0 0 0 
2.29775e+07 -1.1306e+07 0 
-1.1306e+07 -2.16265e+07 0 
0 0 0 
3.49903e+07 -1.91901e+07 0 
-1.91901e+07 4.94961e+06 0 
0 0 0 
2.94229e+07 -1.71303e+07 0 
-1.71303e+07 259272 0 
0 0 0 
1.45455e+07 -1.20901e+07 0 
-1.20901e+07 -2.12654e+07 0 
0 0 0 
2.78879e+06 -1.29697e+07 0 
-1.29697e+07 -3.16953e+07 0 
0 0 0 
-1.21303e+07 -8.25604e+06 0 
-8.25604e+06 -4.95598e+07 0 
0 0 0 
1.84956e+07 -2.24224e+07 0 
-2.24224e+07 1.46788e+07 0 
0 0 0 
4.97231e+07 -1.63252e+07 0 
-1.63252e+07 5.30825e+07 0 
0 0 0 
1.25835e+07 -1.17949e+07 0 
-1.17949e+07 2.4001e+06 0 
0 0 0 
-1.19475e+07 -1.17302e+07 0 
-1.17302e+07 -1.28422e+07 0 
0 0 0 
-1.69697e+07 -4.21502e+06 0 
-4.21502e+06 -3.24298e+07 0 
0 0 0 
-1.81154e+07 -5.30431e+06 0 
-5.30431e+06 -2.38687e+07 0 
0 0 0 
-1.90314e+07 -1.05497e+06 0 
-1.05497e+06 2.58105e+07 0 
0 0 0 
-4.04698e+07 -4.04361e+06 0 
-4.04361e+06 -1.43972e+07 0 
0 0 0 
-1.99692e+07 -6.51502e+06 0 
-6.51502e+06 4.07604e+07 0 
0 0 0 
-2.35708e+07 -9.39954e+06 0 
-9.39954e+06 -7.13657e+06 0 
0 0 0 
-1.0325e+07 -1.59769e+07 0 
-1.59769e+07 1.05682e+07 0 
0 0 0 
-5.59345e+06 -4.26653e+06 0 
-4.26653e+06 9.45566e+06 0 
0 0 0 
-7.78958e+06 4.51416e+06 0 
4.51416e+06 1.13057e+07 0 
0 0 0 
1.22747e+07 6.8462e+06 0 
6.8462e+06 3.83577e+07 0 
0 0 0 
-1.19026e+07 6.37002e+06 0 
6.37002e+06 -2.84928e+07 0 
0 0 0 
2.34747e+07 1.27919e+07 0 
1.27919e+07 4.52994e+07 0 
0 0 0 
2.64346e+07 -2.86815e+06 0 
-2.86815e+06 1.98147e+07 0 
0 0 0 
0 0 0 
0 0 0 
0 0 0 
-338290 5.99563e+06 0 
5.99563e+06 -6.83025e+06 0 
0 0 0 
1.28563e+07 6.08751e+06 0 
6.08751e+06 -954875 0 
0 0 0 
9.40627e+06 7.49453e+06 0 
7.49453e+06 -3.37607e+06 0 
0 0 0 
-1.1253e+07 3.62551e+06 0 
3.62551e+06 -2.46621e+07 0 
0 0 0 
-1.72774e+07 -9.72241e+06 0 
-9.72241e+06 -5.7688e+06 0 
0 0 0 
3.16704e+07 1.88636e+06 0 
1.88636e+06 2.50141e+07 0 
0 0 0 
-320283 746597 0 
746597 1.11337e+07 0 
0 0 0 
6.55189e+06 62241.9 0 
62241.9 2.84816e+06 0 
0 0 0 
-1.34203e+06 -4.62894e+06 0 
-4.62894e+06 -1.27892e+07 0 
0 0 0 
-3.56214e+07 -6.97533e+06 0 
-6.97533e+06 -3.55897e+07 0 
0 0 0 
5.65936e+06 -9.59139e+06 0 
-9.59139e+06 -2.05683e+07 0 
0 0 0 
-4.80404e+07 -8.70905e+06 0 
-8.70905e+06 -2.07484e+07 0 
0 0 0 
6.75659e+06 -6.12817e+06 0 
-6.12817e+06 -1.95116e+07 0 
0 0 0 
-3.77198e+07 -2.0761e+06 0 
-2.0761e+06 -7.51259e+06 0 
0 0 0 
4.20685e+07 -4.95393e+06 0 
-4.95393e+06 5.09067e+07 0 
0 0 0 
2.3068e+07 5.36656e+06 0 
5.36656e+06 6.15407e+07 0 
0 0 0 
8.08315e+07 1.40067e+07 0 
1.40067e+07 8.97021e+07 0 
0 0 0 
-3.00692e+06 6.78922e+06 0 
6.78922e+06 5.53947e+07 0 
0 0 0 
4.59316e+07 -1.58917e+06 0 
-1.58917e+06 6.5439e+07 0 
0 0 0 
-6.09336e+06 -6.0069e+06 0 
-6.0069e+06 2.73699e+07 0 
0 0 0 
2.79829e+07 -8.87954e+06 0 
-8.87954e+06 9.67973e+06 0 
0 0 0 
-4.37941e+07 -8.91554e+06 0 
-8.91554e+06 -2.33148e+07 0 
0 0 0 
-8.42708e+06 1.33933e+06 0 
1.33933e+06 -8.90002e+06 0 
0 0 0 
-3.26966e+07 -2.96045e+06 0 
-2.96045e+06 -1.89486e+07 0 
0 0 0 
1.32892e+07 -9.09813e+06 0 
-9.09813e+06 -3.27582e+06 0 
0 0 0 
8.65267e+06 -1.88886e+06 0 
-1.88886e+06 -561946 0 
0 0 0 
-2.44845e+07 3.56164e+06 0 
3.56164e+06 -2.64545e+06 0 
0 0 0 
5.36893e+07 1.24882e+07 0 
1.24882e+07 2.69918e+07 0 
0 0 0 
-184957 2.03037e+06 0 
2.03037e+06 2.25754e+07 0 
0 0 0 
2.59713e+07 -2.39659e+06 0 
-2.39659e+06 3.61053e+07 0 
0 0 0 
-1.85618e+07 -1.1207e+07 0 
-1.1207e+07 -663457 0 
0 0 0 
-2.65957e+07 -8.12765e+06 0 
-8.12765e+06 -4.44642e+06 0 
0 0 0 
5.52313e+06 5.34304e+06 0 
5.34304e+06 -6.97681e+06 0 
0 0 0 
-1.79261e+07 6.07098e+06 0 
6.07098e+06 -1.1096e+07 0 
0 0 0 
-2.0432e+07 1.30652e+07 0 
1.30652e+07 -4.63508e+06 0 
0 0 0 
-3.15879e+07 4.7211e+06 0 
4.7211e+06 5.1611e+06 0 
0 0 0 
4.46019e+07 -1.91581e+06 0 
-1.91581e+06 5.79237e+07 0 
0 0 0 
2.12558e+07 -1.07217e+07 0 
-1.07217e+07 5.74927e+07 0 
0 0 0 
7.43814e+07 -5.23642e+06 0 
-5.23642e+06 8.05127e+07 0 
0 0 0 
-2.46171e+06 -1.0148e+07 0 
-1.0148e+07 4.44516e+07 0 
0 0 0 
-3.43193e+06 -6.69741e+06 0 
-6.69741e+06 3.17919e+07 0 
0 0 0 
-2.78197e+07 1.40639e+07 0 
1.40639e+07 8.72835e+06 0 
0 0 0 
6.53911e+06 9.94791e+06 0 
9.94791e+06 9.86352e+06 0 
0 0 0 
-3.70895e+07 7.22088e+06 0 
7.22088e+06 -9.47345e+06 0 
0 0 0 
4.54598e+07 1.31023e+07 0 
1.31023e+07 1.51887e+07 0 
0 0 0 
-1.59302e+07 4.90328e+06 0 
4.90328e+06 5.4845e+06 0 
0 0 0 
1.58273e+07 -1.43167e+06 0 
-1.43167e+06 1.39579e+07 0 
0 0 0 
-3.66389e+07 -33851.4 0 
-33851.4 -2.20539e+07 0 
0 0 0 
-3.78932e+07 -6.20709e+06 0 
-6.20709e+06 -2.07582e+07 0 
0 0 0 
-2.41979e+07 -1.97418e+06 0 
-1.97418e+06 -2.80225e+06 0 
0 0 0 
1.82223e+07 -1.34557e+06 0 
-1.34557e+06 3.21883e+07 0 
0 0 0 
4.3624e+07 2.99861e+06 0 
2.99861e+06 5.58108e+07 0 
0 0 0 
2.60533e+07 -6.87502e+06 0 
-6.87502e+06 3.97516e+07 0 
0 0 0 
4.14257e+07 -8.21359e+06 0 
-8.21359e+06 6.38784e+07 0 
0 0 0 
0 0 0 
0 0 0 
0 0 0 
1.52021e+06 7.47246e+06 0 
7.47246e+06 2.95836e+07 0 
0 0 0 
1.18738e+07 1.49892e+07 0 
1.49892e+07 8.69356e+07 0 
0 0 0 
-745400 1.40796e+07 0 
1.40796e+07 6.32576e+07 0 
0 0 0 
-1.4002e+07 1.63595e+07 0 
1.63595e+07 1.57658e+07 0 
0 0 0 
-8.90322e+06 5.21008e+06 0 
5.21008e+06 7.78503e+06 0 
0 0 0 
-4.8619e+06 9.22729e+06 0 
9.22729e+06 6.40294e+07 0 
0 0 0 
-3.60235e+07 3.55508e+06 0 
3.55508e+06 2.16414e+07 0 
0 0 0 
-4.03704e+07 3.22844e+07 0 
3.22844e+07 1.81208e+07 0 
0 0 0 
-6.98612e+07 2.05917e+07 0 
2.05917e+07 -4.26332e+07 0 
0 0 0 
-4.63826e+07 2.08312e+07 0 
2.08312e+07 -1.91768e+07 0 
0 0 0 
-515645 -2.39245e+06 0 
-2.39245e+06 6.13099e+07 0 
0 0 0 
-6.22838e+06 -1.14504e+06 0 
-1.14504e+06 2.92867e+07 0 
0 0 0 
-1.10959e+07 2.09475e+06 0 
2.09475e+06 -1.44221e+07 0 
0 0 0 
900079 1.73562e+07 0 
1.73562e+07 -1.54378e+07 0 
0 0 0 
3.91608e+06 1.80742e+07 0 
1.80742e+07 -2.13837e+07 0 
0 0 0 
2.06489e+07 2.53679e+07 0 
2.53679e+07 2.97705e+07 0 
0 0 0 
1.35046e+07 3.03809e+07 0 
3.03809e+07 2.51769e+07 0 
0 0 0 
4.23328e+07 2.53358e+07 0 
2.53358e+07 3.95427e+06 0 
0 0 0 
-1.27844e+07 -2.39519e+06 0 
-2.39519e+06 -7.71508e+07 0 
0 0 0 
-8.34527e+07 -3.1404e+07 0 
-3.1404e+07 -4.33049e+07 0 
0 0 0 
-8.79011e+07 -2.66904e+07 0 
-2.66904e+07 -3.9318e+06 0 
0 0 0 
-9.28657e+07 -1.82947e+07 0 
-1.82947e+07 -8.94752e+07 0 
0 0 0 
-5.09489e+07 -7.82188e+06 0 
-7.82188e+06 -2.83447e+07 0 
0 0 0 
-2.06515e+07 -1.30829e+06 0 
-1.30829e+06 -2.21391e+07 0 
0 0 0 
2.63272e+06 1.39513e+06 0 
1.39513e+06 3.0756e+06 0 
0 0 0 
-4.63578e+06 5.85264e+06 0 
5.85264e+06 -1.20102e+06 0 
0 0 0 
-2.20079e+07 -8.94749e+06 0 
-8.94749e+06 -4.88482e+07 0 
0 0 0 
-3.26784e+07 -1.63542e+06 0 
-1.63542e+06 -2.06294e+07 0 
0 0 0 
-5.15629e+07 -2.31306e+07 0 
-2.31306e+07 -6.9491e+07 0 
0 0 0 
-4.72217e+07 -7.95473e+06 0 
-7.95473e+06 -3.98121e+07 0 
0 0 0 
-4.30947e+07 -1.69463e+07 0 
-1.69463e+07 -3.34459e+07 0 
0 0 0 
-1.79294e+07 -1.30995e+07 0 
-1.30995e+07 8.70762e+06 0 
0 0 0 
-4.97662e+07 -1.7244e+07 0 
-1.7244e+07 -5.52846e+07 0 
0 0 0 
-5.08111e+07 -5.78145e+06 0 
-5.78145e+06 -4.1936e+07 0 
0 0 0 
-2.61012e+07 -1.36872e+06 0 
-1.36872e+06 -4.67805e+07 0 
0 0 0 
-9.38651e+06 -8.35616e+06 0 
-8.35616e+06 -7.30962e+06 0 
0 0 0 
5.67506e+06 -1.72886e+07 0 
-1.72886e+07 3.53821e+07 0 
0 0 0 
1.6386e+07 -2.33874e+07 0 
-2.33874e+07 1.03582e+07 0 
0 0 0 
1.69943e+07 -2.16045e+07 0 
-2.16045e+07 7.05329e+06 0 
0 0 0 
-2.20406e+07 -1.25121e+07 0 
-1.25121e+07 -4.45936e+07 0 
0 0 0 
-2.36786e+07 -4.05666e+06 0 
-4.05666e+06 -2.47378e+06 0 
0 0 0 
-1.39409e+07 -5.98053e+06 0 
-5.98053e+06 1.80793e+07 0 
0 0 0 
-1.82169e+07 -1.33701e+06 0 
-1.33701e+06 -9.43419e+06 0 
0 0 0 
7.20082e+06 -871685 0 
-871685 5.37159e+07 0 
0 0 0 
-1.41733e+06 -4.26309e+06 0 
-4.26309e+06 -7.56675e+06 0 
0 0 0 
2.85912e+07 -7.86973e+06 0 
-7.86973e+06 2.15706e+07 0 
0 0 0 
3.10447e+07 -7.08354e+06 0 
-7.08354e+06 3.47192e+07 0 
0 0 0 
3.74854e+07 1.23539e+07 0 
1.23539e+07 4.44491e+07 0 
0 0 0 
2.26019e+07 9.23634e+06 0 
9.23634e+06 2.83908e+07 0 
0 0 0 
-337598 -248797 0 
-248797 -1.46666e+07 0 
0 0 0 
4.91079e+06 1.47568e+07 0 
1.47568e+07 3.94038e+07 0 
0 0 0 
-9.77503e+06 -4.0032e+06 0 
-4.0032e+06 1.166e+06 0 
0 0 0 
2.91972e+06 2.10128e+06 0 
2.10128e+06 2.00928e+07 0 
0 0 0 
0 0 0 
0 0 0 
0 0 0 
9.75547e+06 -1.8822e+06 0 
-1.8822e+06 -1.65891e+06 0 
0 0 0 
3.51029e+06 2.95339e+06 0 
2.95339e+06 -1.82354e+07 0 
0 0 0 
-1.73396e+06 2.61392e+06 0 
2.61392e+06 -2.07865e+07 0 
0 0 0 
-2.63439e+06 -453285 0 
-453285 -1.05978e+07 0 
0 0 0 
-2.07113e+07 1.03665e+07 0 
1.03665e+07 -4.38531e+06 0 
0 0 0 
3.29217e+07 3.49099e+06 0 
3.49099e+06 2.95545e+07 0 
0 0 0 
4.28572e+06 1.36702e+06 0 
1.36702e+06 2.57095e+07 0 
0 0 0 
1.82191e+07 -6.96185e+06 0 
-6.96185e+06 2.87202e+07 0 
0 0 0 
-7.54397e+06 -8.58961e+06 0 
-8.58961e+06 1.5283e+07 0 
0 0 0 
-1.99201e+07 -1.27224e+07 0 
-1.27224e+07 8.64929e+06 0 
0 0 0 
1.70172e+07 -5.13789e+06 0 
-5.13789e+06 7.7654e+06 0 
0 0 0 
-3.95653e+07 -1.28186e+07 0 
-1.28186e+07 -2.12095e+07 0 
0 0 0 
1.10492e+07 -8.17269e+06 0 
-8.17269e+06 5.25404e+06 0 
0 0 0 
-2.93778e+07 1.4062e+07 0 
1.4062e+07 -2.02437e+07 0 
0 0 0 
2.69235e+07 4.44914e+06 0 
4.44914e+06 3.01078e+06 0 
0 0 0 
3.01022e+07 1.51704e+07 0 
1.51704e+07 3.6531e+06 0 
0 0 0 
3.11389e+07 4.95503e+06 0 
4.95503e+06 -4.24442e+06 0 
0 0 0 
-5.43635e+07 -4.62576e+06 0 
-4.62576e+06 -3.71539e+07 0 
0 0 0 
1.58708e+07 -6.31419e+06 0 
-6.31419e+06 -9.5803e+06 0 
0 0 0 
-1.88672e+07 -2.41671e+07 0 
-2.41671e+07 -4.30836e+06 0 
0 0 0 
3.05427e+07 -1.34082e+07 0 
-1.34082e+07 1.48826e+07 0 
0 0 0 
-2.27575e+07 6.99485e+06 0 
6.99485e+06 4.18492e+06 0 
0 0 0 
1.70805e+06 4.5296e+06 0 
4.5296e+06 1.07835e+07 0 
0 0 0 
-3.05528e+07 8.08015e+06 0 
8.08015e+06 7.47352e+06 0 
0 0 0 
3.16834e+07 -1.57023e+06 0 
-1.57023e+06 5.3591e+07 0 
0 0 0 
3.48809e+07 3.34279e+06 0 
3.34279e+06 6.26586e+07 0 
0 0 0 
8.81127e+06 9.98004e+06 0 
9.98004e+06 5.31525e+07 0 
0 0 0 
4.75959e+07 8.65e+06 0 
8.65e+06 5.82849e+07 0 
0 0 0 
-6.30697e+06 -5.2301e+06 0 
-5.2301e+06 1.64664e+07 0 
0 0 0 
-1.47957e+06 -1.82649e+07 0 
-1.82649e+07 3.66186e+06 0 
0 0 0 
-5.33094e+06 -1.49148e+07 0 
-1.49148e+07 6.79496e+06 0 
0 0 0 
-1.45876e+07 -7.89742e+06 0 
-7.89742e+06 -7.1576e+06 0 
0 0 0 
1.92387e+07 6.14698e+06 0 
6.14698e+06 1.84089e+07 0 
0 0 0 
-1.35852e+06 1.14047e+06 0 
1.14047e+06 9.08113e+06 0 
0 0 0 
-3.02928e+07 -1.98291e+06 0 
-1.98291e+06 -1.43715e+07 0 
0 0 0 
-4.38449e+07 7.93345e+06 0 
7.93345e+06 -1.96056e+07 0 
0 0 0 
1.29218e+07 3.6581e+06 0 
3.6581e+06 -4.08166e+06 0 
0 0 0 
-922555 -7.27279e+06 0 
-7.27279e+06 1.0221e+07 0 
0 0 0 
5.39157e+07 -1.69008e+07 0 
-1.69008e+07 3.88727e+07 0 
0 0 0 
-2.14386e+07 -2.12409e+07 0 
-2.12409e+07 9.96413e+06 0 
0 0 0 
2.439e+07 -1.10382e+07 0 
-1.10382e+07 1.97842e+07 0 
0 0 0 
-2.8345e+07 4.67824e+06 0 
4.67824e+06 -1.22115e+06 0 
0 0 0 
1.15148e+07 7.80054e+06 0 
7.80054e+06 692887 0 
0 0 0 
-3.35561e+07 1.34321e+07 0 
1.34321e+07 -1.17992e+07 0 
0 0 0 
1.46071e+07 4.98925e+06 0 
4.98925e+06 -4.17703e+06 0 
0 0 0 
-3.1589e+07 1.14793e+06 0 
1.14793e+06 -3.61853e+07 0 
0 0 0 
-271710 -9.83458e+06 0 
-9.83458e+06 -1.22702e+07 0 
0 0 0 
-3.41609e+07 -1.06844e+07 0 
-1.06844e+07 -1.85596e+07 0 
0 0 0 
-2.38289e+07 -3.03123e+06 0 
-3.03123e+06 -1.16102e+07 0 
0 0 0 
-1.49726e+07 9.67938e+06 0 
9.67938e+06 1.79905e+06 0 
0 0 0 
2.19785e+07 2.17413e+07 0 
2.17413e+07 1.56722e+07 0 
0 0 0 
1.02053e+07 1.45469e+07 0 
1.45469e+07 1.58836e+07 0 
0 0 0 
2.69218e+07 542823 0 
542823 2.16008e+07 0 
0 0 0 
2.44098e+07 6.53094e+06 0 
6.53094e+06 6.4099e+07 0 
0 0 0 
-1.76554e+06 -8.42803e+06 0 
-8.42803e+06 232298 0 
0 0 0 
0 0 0 
0 0 0 
0 0 0 
1.39894e+07 2.63301e+06 0 
2.63301e+06 4.32926e+07 0 
0 0 0 
4.92081e+07 1.41289e+07 0 
1.41289e+07 1.09452e+08 0 
0 0 0 
3.84978e+07 9.7022e+06 0 
9.7022e+06 6.72898e+07 0 
0 0 0 
-1.42686e+07 3.40239e+06 0 
3.40239e+06 1.01525e+07 0 
0 0 0 
-2.90707e+07 5.25579e+06 0 
5.25579e+06 4.12535e+06 0 
0 0 0 
-1.06606e+07 1.10372e+06 0 
1.10372e+06 5.74993e+07 0 
0 0 0 
-8.62331e+06 9.2303e+06 0 
9.2303e+06 4.97676e+07 0 
0 0 0 
-9.60722e+06 9.25896e+06 0 
9.25896e+06 4.40838e+07 0 
0 0 0 
-4.4247e+07 1.60056e+07 0 
1.60056e+07 -4.39809e+07 0 
0 0 0 
-6.18596e+07 2.56317e+07 0 
2.56317e+07 -4.16176e+07 0 
0 0 0 
-5.18276e+07 -1.66519e+06 0 
-1.66519e+06 3.78904e+07 0 
0 0 0 
-3.67647e+07 1.04064e+07 0 
1.04064e+07 1.26093e+07 0 
0 0 0 
-5.80899e+06 1.65227e+07 0 
1.65227e+07 1.7347e+07 0 
0 0 0 
2.53789e+06 2.58942e+07 0 
2.58942e+07 -8.79604e+06 0 
0 0 0 
8.98361e+06 1.98016e+07 0 
1.98016e+07 -1.62526e+07 0 
0 0 0 
5.02111e+06 1.04003e+07 0 
1.04003e+07 -5.21275e+06 0 
0 0 0 
-2.51434e+07 -1.99873e+06 0 
-1.99873e+06 2.37306e+07 0 
0 0 0 
2.18355e+07 -3.34005e+06 0 
-3.34005e+06 7.92487e+07 0 
0 0 0 
-1.58654e+07 -3.60461e+06 0 
-3.60461e+06 -1.48982e+07 0 
0 0 0 
-6.65787e+07 -1.28687e+07 0 
-1.28687e+07 -2.32789e+07 0 
0 0 0 
-4.70112e+07 -2.95828e+06 0 
-2.95828e+06 -1.83977e+07 0 
0 0 0 
-2.84687e+07 -8.81875e+06 0 
-8.81875e+06 -3.54698e+07 0 
0 0 0 
-1.4095e+06 1.81791e+06 0 
1.81791e+06 -1.80635e+07 0 
0 0 0 
-6.24396e+06 -2.33933e+06 0 
-2.33933e+06 -9.59712e+06 0 
0 0 0 
9.97639e+06 4.91121e+06 0 
4.91121e+06 1.30556e+07 0 
0 0 0 
3.0192e+06 -4.90357e+06 0 
-4.90357e+06 -9.83791e+06 0 
0 0 0 
-3.01896e+07 -1.4207e+07 0 
-1.4207e+07 -4.94952e+07 0 
0 0 0 
-2.6538e+07 -1.41477e+07 0 
-1.41477e+07 -4.52827e+07 0 
0 0 0 
-4.76915e+07 -2.48785e+07 0 
-2.48785e+07 -6.31377e+07 0 
0 0 0 
-4.1416e+07 -1.49934e+07 0 
-1.49934e+07 -2.62636e+07 0 
0 0 0 
-3.61671e+07 -5.46617e+06 0 
-5.46617e+06 -3.59554e+07 0 
0 0 0 
1.7691e+06 -7.01915e+06 0 
-7.01915e+06 3.28864e+07 0 
0 0 0 
8.50777e+06 -9.95241e+06 0 
-9.95241e+06 -4.28506e+07 0 
0 0 0 
3.73241e+07 -4.96422e+06 0 
-4.96422e+06 -1.50206e+07 0 
0 0 0 
7.15101e+06 -4.49397e+06 0 
-4.49397e+06 -2.84037e+07 0 
0 0 0 
3.53648e+07 -6.50924e+06 0 
-6.50924e+06 1.0335e+07 0 
0 0 0 
4.51167e+07 -1.21433e+07 0 
-1.21433e+07 1.99935e+07 0 
0 0 0 
1.75382e+07 -2.34079e+07 0 
-2.34079e+07 1.32221e+07 0 
0 0 0 
1.35638e+07 -2.7757e+07 0 
-2.7757e+07 5.01138e+06 0 
0 0 0 
1.43479e+07 -2.23132e+07 0 
-2.23132e+07 -1.58659e+07 0 
0 0 0 
1.63828e+07 -1.60008e+07 0 
-1.60008e+07 1.09504e+07 0 
0 0 0 
2.84746e+07 -5.11657e+06 0 
-5.11657e+06 4.846e+07 0 
0 0 0 
8.86641e+06 678181 0 
678181 2.04638e+06 0 
0 0 0 
1.48646e+07 -1.13141e+06 0 
-1.13141e+06 4.30342e+07 0 
0 0 0 
-1.02623e+06 -447654 0 
-447654 -6.98468e+06 0 
0 0 0 
5.72584e+06 -3.65879e+06 0 
-3.65879e+06 2.32058e+07 0 
0 0 0 
2.62711e+07 105740 0 
105740 2.98862e+07 0 
0 0 0 
2.64676e+07 -2.38939e+06 0 
-2.38939e+06 5.29973e+07 0 
0 0 0 
1.88296e+06 -3.98239e+06 0 
-3.98239e+06 1.19828e+07 0 
0 0 0 
-1.91139e+07 -4.4294e+06 0 
-4.4294e+06 -7.66544e+06 0 
0 0 0 
-2.5746e+07 6.10095e+06 0 
6.10095e+06 2.87626e+07 0 
0 0 0 
-4.58538e+07 3.98422e+06 0 
3.98422e+06 -3.56708e+06 0 
0 0 0 
-2.76659e+07 9.74904e+06 0 
9.74904e+06 1.23282e+07 0 
0 0 0 
-1.4187e+07 9.16374e+06 0 
9.16374e+06 3.32899e+07 0 
0 0 0 
0 0 0 
0 0 0 
0 0 0 
4.42686e+06 -6.21829e+06 0 
-6.21829e+06 -1.24348e+06 0 
0 0 0 
1.64566e+06 -8.78058e+06 0 
-8.78058e+06 -3.87563e+06 0 
0 0 0 
7.15824e+06 -2.58448e+06 0 
-2.58448e+06 -1.6126e+07 0 
0 0 0 
-2.53084e+06 2.30599e+06 0 
2.30599e+06 -3.11479e+07 0 
0 0 0 
-2.1838e+07 9.84395e+06 0 
9.84395e+06 -4.29839e+07 0 
0 0 0 
5.57905e+06 1.47376e+07 0 
1.47376e+07 -2.99959e+07 0 
0 0 0 
-3.12564e+07 -697458 0 
-697458 -4.12614e+07 0 
0 0 0 
-175170 -9.8273e+06 0 
-9.8273e+06 -3.41099e+07 0 
0 0 0 
-2.87498e+07 -7.35706e+06 0 
-7.35706e+06 -3.81148e+07 0 
0 0 0 
-3.19871e+07 -5.88237e+06 0 
-5.88237e+06 -3.53753e+07 0 
0 0 0 
9.46667e+06 -7.65235e+06 0 
-7.65235e+06 -7.94999e+06 0 
0 0 0 
-2.98492e+07 -2.14446e+06 0 
-2.14446e+06 -922788 0 
0 0 0 
3.85081e+07 -623305 0 
-623305 4.10969e+07 0 
0 0 0 
-4.43839e+06 1.2131e+07 0 
1.2131e+07 4.08733e+07 0 
0 0 0 
6.05792e+07 1.6507e+07 0 
1.6507e+07 6.24696e+07 0 
0 0 0 
3.02371e+07 680489 0 
680489 5.00555e+07 0 
0 0 0 
3.3293e+07 -2.42966e+06 0 
-2.42966e+06 3.24479e+07 0 
0 0 0 
-5.57308e+07 -2.82591e+06 0 
-2.82591e+06 -4.33273e+06 0 
0 0 0 
1.00707e+07 -2.17568e+06 0 
-2.17568e+06 1.78388e+07 0 
0 0 0 
-1.32281e+07 -1.59867e+07 0 
-1.59867e+07 7.74827e+06 0 
0 0 0 
4.78168e+07 -1.78243e+07 0 
-1.78243e+07 2.88291e+07 0 
0 0 0 
-4.22055e+06 658273 0 
658273 1.57323e+06 0 
0 0 0 
-1.4807e+07 -2.87588e+06 0 
-2.87588e+06 -8.05646e+06 0 
0 0 0 
-2.47151e+07 1.19458e+07 0 
1.19458e+07 -1.43487e+07 0 
0 0 0 
-823030 8.24359e+06 0 
8.24359e+06 -2.69668e+06 0 
0 0 0 
2.20033e+07 -848710 0 
-848710 1.16971e+07 0 
0 0 0 
-1.29965e+07 -747808 0 
-747808 -3.75676e+06 0 
0 0 0 
2.5065e+07 -2.71067e+06 0 
-2.71067e+06 4.96241e+06 0 
0 0 0 
-2.15672e+07 -7.80693e+06 0 
-7.80693e+06 -7.27463e+06 0 
0 0 0 
-1.25853e+07 -8.33518e+06 0 
-8.33518e+06 3.02301e+06 0 
0 0 0 
1.47961e+07 -1.38469e+07 0 
-1.38469e+07 1.26327e+07 0 
0 0 0 
7.27932e+06 -4.78728e+06 0 
-4.78728e+06 2.71781e+07 0 
0 0 0 
1.71326e+07 3.61547e+06 0 
3.61547e+06 1.39547e+07 0 
0 0 0 
-6.00462e+06 -3.76011e+06 0 
-3.76011e+06 -3.00473e+06 0 
0 0 0 
-2.81658e+07 2.88373e+06 0 
2.88373e+06 -662138 0 
0 0 0 
-3.43257e+07 2.97698e+06 0 
2.97698e+06 -1.52275e+07 0 
0 0 0 
1.55454e+07 1.12244e+07 0 
1.12244e+07 801509 0 
0 0 0 
-2.81465e+07 7.9784e+06 0 
7.9784e+06 -5.76656e+06 0 
0 0 0 
3.0743e+07 -9.46364e+06 0 
-9.46364e+06 2.46807e+07 0 
0 0 0 
-7.75347e+06 -1.75652e+07 0 
-1.75652e+07 2.14294e+07 0 
0 0 0 
4.3947e+07 -1.19331e+07 0 
-1.19331e+07 4.78395e+07 0 
0 0 0 
-5.48629e+06 -6.68504e+06 0 
-6.68504e+06 1.57531e+07 0 
0 0 0 
1.8894e+07 1.92537e+06 0 
1.92537e+06 4.71792e+06 0 
0 0 0 
-3.46811e+07 6.01832e+06 0 
6.01832e+06 -2.08483e+07 0 
0 0 0 
-7.8242e+06 -381929 0 
-381929 -1.4039e+07 0 
0 0 0 
-3.08448e+07 7.63699e+06 0 
7.63699e+06 -1.31944e+07 0 
0 0 0 
-210209 -1.33697e+06 0 
-1.33697e+06 -8.88203e+06 0 
0 0 0 
-3.08493e+07 -5.49362e+06 0 
-5.49362e+06 -2.43166e+07 0 
0 0 0 
-3.04797e+06 1.37604e+07 0 
1.37604e+07 -7.34435e+06 0 
0 0 0 
-1.79296e+06 1.1671e+07 0 
1.1671e+07 -387185 0 
0 0 0 
1.4995e+07 1.81903e+07 0 
1.81903e+07 1.75113e+07 0 
0 0 0 
-2.4273e+06 6.02705e+06 0 
6.02705e+06 1.7058e+07 0 
0 0 0 
4.29028e+06 -6.62454e+06 0 
-6.62454e+06 1.1971e+07 0 
0 0 0 
948757 -6.32559e+06 0 
-6.32559e+06 1.71253e+07 0 
0 0 0 
-2.19284e+07 -6.68611e+06 0 
-6.68611e+06 -1.98418e+07 0 
0 0 0 
1.44957e+06 -5.82768e+06 0 
-5.82768e+06 2.05544e+07 0 
0 0 0 
0 0 0 
0 0 0 
0 0 0 
2.33962e+07 5.59503e+06 0 
5.59503e+06 5.2582e+07 0 
0 0 0 
3.78239e+07 1.71686e+07 0 
1.71686e+07 1.12221e+08 0 
0 0 0 
-579786 -2.26087e+06 0 
-2.26087e+06 4.75894e+07 0 
0 0 0 
-1.79639e+07 -1.29634e+06 0 
-1.29634e+06 5.6052e+06 0 
0 0 0 
-1.44337e+07 1.20293e+07 0 
1.20293e+07 1.49477e+07 0 
0 0 0 
2.07074e+07 5.781e+06 0 
5.781e+06 7.24791e+07 0 
0 0 0 
1.51891e+07 7.73104e+06 0 
7.73104e+06 5.94681e+07 0 
0 0 0 
2.68138e+06 1.03703e+07 0 
1.03703e+07 3.77399e+07 0 
0 0 0 
-1.9133e+07 4.52156e+06 0 
4.52156e+06 -9.56424e+06 0 
0 0 0 
-6.40272e+07 6.27015e+06 0 
6.27015e+06 -6.56413e+07 0 
0 0 0 
-9.90192e+06 1.16621e+07 0 
1.16621e+07 5.15916e+07 0 
0 0 0 
-1.34749e+07 1.13695e+07 0 
1.13695e+07 2.2934e+07 0 
0 0 0 
-2.6228e+07 1.68812e+07 0 
1.68812e+07 1.90942e+07 0 
0 0 0 
-4.36681e+07 1.07632e+07 0 
1.07632e+07 -1.39509e+07 0 
0 0 0 
-5.0536e+07 1.98943e+07 0 
1.98943e+07 -3.939e+07 0 
0 0 0 
-2.48122e+07 1.5003e+07 0 
1.5003e+07 -2.26423e+07 0 
0 0 0 
-1.07717e+07 -2.80818e+07 0 
-2.80818e+07 -383215 0 
0 0 0 
5.01048e+07 -1.24598e+07 0 
-1.24598e+07 2.15095e+07 0 
0 0 0 
7.94026e+07 -1.41464e+07 0 
-1.41464e+07 -5.25132e+07 0 
0 0 0 
1.6143e+07 1.34903e+07 0 
1.34903e+07 4.39454e+07 0 
0 0 0 
8.33836e+06 6.31885e+06 0 
6.31885e+06 -1.58577e+07 0 
0 0 0 
1.88723e+07 2.81307e+06 0 
2.81307e+06 -1.8099e+07 0 
0 0 0 
6.70117e+06 -3.00455e+06 0 
-3.00455e+06 -1.53448e+07 0 
0 0 0 
-216476 -8.30311e+06 0 
-8.30311e+06 -1.24939e+07 0 
0 0 0 
-4.16111e+07 -1.13825e+07 0 
-1.13825e+07 -9.55718e+06 0 
0 0 0 
-7.46803e+07 -1.84414e+07 0 
-1.84414e+07 -3.18805e+07 0 
0 0 0 
-6.85428e+07 -1.85368e+07 0 
-1.85368e+07 -8.00829e+07 0 
0 0 0 
-6.9371e+07 -2.77638e+07 0 
-2.77638e+07 -6.70753e+07 0 
0 0 0 
-3.9903e+07 -1.71903e+07 0 
-1.71903e+07 -3.98754e+07 0 
0 0 0 
-1.81037e+07 -1.41502e+07 0 
-1.41502e+07 -1.36186e+07 0 
0 0 0 
-3.65761e+07 -286082 0 
-286082 -2.21481e+07 0 
0 0 0 
-3.96483e+07 -8.63669e+06 0 
-8.63669e+06 9.02334e+06 0 
0 0 0 
-6.46915e+07 -894358 0 
-894358 -6.02279e+07 0 
0 0 0 
-6.10262e+07 -1.15459e+07 0 
-1.15459e+07 -6.3358e+07 0 
0 0 0 
-3.03859e+07 -4.79198e+06 0 
-4.79198e+06 -2.90494e+07 0 
0 0 0 
-4.48014e+07 -1.05001e+07 0 
-1.05001e+07 -2.22227e+07 0 
0 0 0 
-4.8348e+07 -1.66629e+07 0 
-1.66629e+07 776704 0 
0 0 0 
-3.38347e+07 -1.36809e+07 0 
-1.36809e+07 -3.19519e+07 0 
0 0 0 
-894438 -1.45851e+07 0 
-1.45851e+07 1.69301e+07 0 
0 0 0 
-3.4613e+06 -1.31e+07 0 
-1.31e+07 -2.30687e+07 0 
0 0 0 
2.25163e+07 -8.93678e+06 0 
-8.93678e+06 2.34864e+07 0 
0 0 0 
2.78321e+07 -4.01158e+06 0 
-4.01158e+06 5.21659e+07 0 
0 0 0 
3.46989e+07 -2.18525e+06 0 
-2.18525e+06 2.38764e+07 0 
0 0 0 
4.75915e+07 -725684 0 
-725684 4.39986e+07 0 
0 0 0 
9.2386e+06 -353640 0 
-353640 -3.18748e+06 0 
0 0 0 
2.71754e+07 -505058 0 
-505058 2.40076e+07 0 
0 0 0 
3.75155e+07 -4.99427e+06 0 
-4.99427e+06 4.24229e+07 0 
0 0 0 
4.79521e+07 438020 0 
438020 5.44944e+07 0 
0 0 0 
2.87371e+07 -6.75569e+06 0 
-6.75569e+06 2.03529e+07 0 
0 0 0 
2.42877e+07 -1.65812e+07 0 
-1.65812e+07 5.61357e+06 0 
0 0 0 
3.6511e+07 -9.41838e+06 0 
-9.41838e+06 6.78892e+07 0 
0 0 0 
7.61358e+06 -620068 0 
-620068 3.06318e+07 0 
0 0 0 
-5.67207e+06 1.1998e+07 0 
1.1998e+07 1.25892e+07 0 
0 0 0 
2.01806e+06 1.04593e+07 0 
1.04593e+07 3.72762e+07 0 
0 0 0 
-1.64877e+07 9.75248e+06 0 
9.75248e+06 -3.12778e+07 0 
0 0 0 
0 0 0 
0 0 0 
0 0 0 
-4.73565e+06 -5.10809e+06 0 
-5.10809e+06 5.36058e+06 0 
0 0 0 
4.49096e+06 -5.00151e+06 0 
-5.00151e+06 5.5742e+06 0 
0 0 0 
1.1573e+07 -6.81263e+06 0 
-6.81263e+06 928829 0 
0 0 0 
2.12076e+07 -2.44946e+06 0 
-2.44946e+06 2.69581e+06 0 
0 0 0 
2.96432e+06 7.95278e+06 0 
7.95278e+06 -2.91827e+06 0 
0 0 0 
1.16458e+07 1.08521e+07 0 
1.08521e+07 -1.01534e+07 0 
0 0 0 
-2.10324e+07 9.26012e+06 0 
9.26012e+06 -1.59629e+07 0 
0 0 0 
-1.90708e+07 -3.02426e+06 0 
-3.02426e+06 -1.35256e+07 0 
0 0 0 
-7.88049e+06 -4.80855e+06 0 
-4.80855e+06 -5.01443e+06 0 
0 0 0 
-1.52765e+07 -3.53292e+06 0 
-3.53292e+06 1.5644e+07 0 
0 0 0 
2.84779e+07 -348822 0 
-348822 3.01069e+07 0 
0 0 0 
-1.61965e+07 8.38412e+06 0 
8.38412e+06 9.60987e+06 0 
0 0 0 
2.88511e+07 8.03848e+06 0 
8.03848e+06 2.70518e+07 0 
0 0 0 
347487 9.95505e+06 0 
9.95505e+06 9.31393e+06 0 
0 0 0 
2.78451e+07 2.87576e+06 0 
2.87576e+06 -134736 0 
0 0 0 
-3.93021e+06 -1.98256e+06 0 
-1.98256e+06 -1.33485e+07 0 
0 0 0 
2.19107e+07 -1.2693e+07 0 
-1.2693e+07 4.40428e+06 0 
0 0 0 
-7.50218e+07 -1.00038e+07 0 
-1.00038e+07 -3.12308e+07 0 
0 0 0 
1.95213e+06 -6.36832e+06 0 
-6.36832e+06 -1.55184e+07 0 
0 0 0 
-2.17825e+07 -8.40559e+06 0 
-8.40559e+06 -1.87429e+07 0 
0 0 0 
3.43021e+07 -1.3496e+07 0 
-1.3496e+07 2.07358e+07 0 
0 0 0 
2.74062e+07 -8.61822e+06 0 
-8.61822e+06 1.49722e+07 0 
0 0 0 
-1.50663e+07 4.23932e+06 0 
4.23932e+06 -2.9914e+06 0 
0 0 0 
-1.60888e+06 9.67303e+06 0 
9.67303e+06 -3.47822e+06 0 
0 0 0 
-2.93228e+07 1.05322e+07 0 
1.05322e+07 -3.34546e+07 0 
0 0 0 
4.10361e+06 5.07697e+06 0 
5.07697e+06 -1.63158e+07 0 
0 0 0 
-1.10149e+07 5.1423e+06 0 
5.1423e+06 -7.29806e+06 0 
0 0 0 
9.75313e+06 32724.1 0 
32724.1 1.83216e+06 0 
0 0 0 
-1.38823e+07 -1.15189e+07 0 
-1.15189e+07 -8.02573e+06 0 
0 0 0 
-2.11311e+07 -7.24797e+06 0 
-7.24797e+06 -2.67039e+06 0 
0 0 0 
3.10201e+07 -9.11459e+06 0 
-9.11459e+06 3.64687e+07 0 
0 0 0 
8.43087e+06 -8.69088e+06 0 
-8.69088e+06 2.72643e+07 0 
0 0 0 
4.9422e+07 -4.17526e+06 0 
-4.17526e+06 4.31014e+07 0 
0 0 0 
-2.41497e+07 869996 0 
869996 9.39003e+06 0 
0 0 0 
-1.08618e+07 -3.94342e+06 0 
-3.94342e+06 -435899 0 
0 0 0 
-2.27958e+07 9.67879e+06 0 
9.67879e+06 2.00608e+06 0 
0 0 0 
1.08584e+07 8.06397e+06 0 
8.06397e+06 5.47966e+06 0 
0 0 0 
-2.04184e+07 1.64423e+07 0 
1.64423e+07 -6.44132e+06 0 
0 0 0 
-5.26444e+06 7.24559e+06 0 
7.24559e+06 1.25251e+07 0 
0 0 0 
-9.71201e+06 -9.1749e+06 0 
-9.1749e+06 1.92156e+07 0 
0 0 0 
3.29449e+07 -1.00827e+07 0 
-1.00827e+07 3.53462e+07 0 
0 0 0 
1.41386e+07 -1.94918e+07 0 
-1.94918e+07 3.25798e+07 0 
0 0 0 
2.38971e+07 -1.41549e+07 0 
-1.41549e+07 2.31603e+07 0 
0 0 0 
-7.48083e+06 4.11209e+06 0 
4.11209e+06 3.59963e+06 0 
0 0 0 
-5.15496e+06 5.50115e+06 0 
5.50115e+06 1.3101e+07 0 
0 0 0 
-4.1559e+07 3.75714e+06 0 
3.75714e+06 -7.49043e+06 0 
0 0 0 
1.38336e+07 -519852 0 
-519852 1.5752e+07 0 
0 0 0 
-8.45681e+06 -1.02859e+06 0 
-1.02859e+06 3.43446e+07 0 
0 0 0 
2.70565e+07 2.88984e+06 0 
2.88984e+06 4.19024e+07 0 
0 0 0 
-2.00112e+06 6.89075e+06 0 
6.89075e+06 2.80144e+07 0 
0 0 0 
9.30213e+06 5.2782e+06 0 
5.2782e+06 1.51668e+07 0 
0 0 0 
-1.15546e+07 5.58614e+06 0 
5.58614e+06 -6.72041e+06 0 
0 0 0 
2.291e+06 -401885 0 
-401885 1.0191e+07 0 
0 0 0 
-8.08546e+06 1.07796e+06 0 
1.07796e+06 9.29438e+06 0 
0 0 0 
4.49058e+06 -6.93194e+06 0 
-6.93194e+06 2.2595e+07 0 
0 0 0 
-6.19082e+06 -3.49253e+06 0 
-3.49253e+06 3.53555e+06 0 
0 0 0 
-2.26458e+07 -1.16599e+07 0 
-1.16599e+07 1.35843e+07 0 
0 0 0 
0 0 0 
0 0 0 
0 0 0 
1.41567e+07 7.04171e+06 0 
7.04171e+06 6.04558e+07 0 
0 0 0 
9.80317e+06 3.68041e+06 0 
3.68041e+06 8.74996e+07 0 
0 0 0 
-5.79626e+06 -5.00766e+06 0 
-5.00766e+06 5.11727e+07 0 
0 0 0 
-2.45623e+07 -1.19015e+07 0 
-1.19015e+07 -8.08541e+06 0 
0 0 0 
-1.09809e+07 7.06852e+06 0 
7.06852e+06 4.63086e+07 0 
0 0 0 
-1.45685e+07 1.08568e+07 0 
1.08568e+07 4.56809e+07 0 
0 0 0 
5.33114e+06 4.00979e+06 0 
4.00979e+06 7.10767e+07 0 
0 0 0 
-7.02309e+06 1.2615e+07 0 
1.2615e+07 2.23017e+07 0 
0 0 0 
-2.57801e+07 -2.31356e+06 0 
-2.31356e+06 -9.56085e+06 0 
0 0 0 
-1.58085e+07 1.28885e+07 0 
1.28885e+07 -4.30967e+07 0 
0 0 0 
3.34576e+07 2.53437e+07 0 
2.53437e+07 7.47864e+07 0 
0 0 0 
1.19738e+07 1.25582e+07 0 
1.25582e+07 2.02247e+07 0 
0 0 0 
3.11444e+07 3.11219e+07 0 
3.11219e+07 5.09817e+07 0 
0 0 0 
3.69737e+06 7.97019e+06 0 
7.97019e+06 -1.95282e+07 0 
0 0 0 
-9.01405e+06 1.73689e+07 0 
1.73689e+07 -1.35413e+07 0 
0 0 0 
2.95716e+07 2.98713e+07 0 
2.98713e+07 2.8426e+07 0 
0 0 0 
1.19456e+08 3.09049e+07 0 
3.09049e+07 2.60561e+07 0 
0 0 0 
1.20256e+08 -1.95156e+07 0 
-1.95156e+07 3.82799e+07 0 
0 0 0 
1.15194e+08 -2.48068e+07 0 
-2.48068e+07 -1.98667e+07 0 
0 0 0 
5.68841e+07 984289 0 
984289 9.98528e+06 0 
0 0 0 
1.41482e+07 1.70933e+07 0 
1.70933e+07 -5.13158e+06 0 
0 0 0 
366510 8.43077e+06 0 
8.43077e+06 -3.28979e+07 0 
0 0 0 
1.06821e+07 639216 0 
639216 -3.67727e+07 0 
0 0 0 
3.02311e+07 -1.27946e+07 0 
-1.27946e+07 -3.34304e+06 0 
0 0 0 
4.23782e+07 -2.49694e+07 0 
-2.49694e+07 6.96384e+06 0 
0 0 0 
4.00844e+07 -1.21026e+07 0 
-1.21026e+07 1.4858e+07 0 
0 0 0 
1.48621e+07 -5.4641e+06 0 
-5.4641e+06 -4.86432e+07 0 
0 0 0 
3.14233e+07 -6.12271e+06 0 
-6.12271e+06 -3.50096e+07 0 
0 0 0 
3.43634e+07 -1.966e+06 0 
-1.966e+06 -6.71142e+06 0 
0 0 0 
4.63083e+07 -1.28828e+07 0 
-1.28828e+07 8.98615e+06 0 
0 0 0 
5.37661e+07 -6.83095e+06 0 
-6.83095e+06 2.44131e+07 0 
0 0 0 
4.15268e+07 -5.43838e+06 0 
-5.43838e+06 2.7095e+07 0 
0 0 0 
-1.14238e+07 -4.17349e+06 0 
-4.17349e+06 -4.42805e+07 0 
0 0 0 
-2.53971e+07 3.16928e+06 0 
3.16928e+06 -5.7306e+07 0 
0 0 0 
-1.93637e+07 -2.4572e+06 0 
-2.4572e+06 -2.31266e+07 0 
0 0 0 
-1.62965e+07 -1.1421e+07 0 
-1.1421e+07 -2.06689e+07 0 
0 0 0 
1.81547e+07 -8.94986e+06 0 
-8.94986e+06 3.41022e+07 0 
0 0 0 
186646 -1.32382e+07 0 
-1.32382e+07 -3.42916e+07 0 
0 0 0 
1.81182e+07 -1.77408e+07 0 
-1.77408e+07 3.29444e+07 0 
0 0 0 
-745498 -1.07172e+07 0 
-1.07172e+07 -1.79997e+07 0 
0 0 0 
2.91916e+07 -1.89786e+06 0 
-1.89786e+06 4.77904e+07 0 
0 0 0 
3.9192e+07 922251 0 
922251 3.20594e+07 0 
0 0 0 
2.1776e+07 -923524 0 
-923524 2.98075e+07 0 
0 0 0 
-1.13615e+07 -1.89066e+07 0 
-1.89066e+07 2.12887e+07 0 
0 0 0 
-3.05588e+07 -5.50783e+06 0 
-5.50783e+06 -5.66059e+06 0 
0 0 0 
-6.26899e+07 1.26523e+06 0 
1.26523e+06 -2.0075e+07 0 
0 0 0 
-5.53679e+07 6.91182e+06 0 
6.91182e+06 2.74846e+07 0 
0 0 0 
-5.16923e+07 1.80952e+06 0 
1.80952e+06 1.11334e+07 0 
0 0 0 
-4.21039e+07 -1.03248e+07 0 
-1.03248e+07 -1.16575e+07 0 
0 0 0 
-2.86734e+07 -3.26008e+06 0 
-3.26008e+06 -7.69412e+06 0 
0 0 0 
3.90956e+07 -110280 0 
-110280 7.935e+07 0 
0 0 0 
6.05432e+07 -7.96234e+06 0 
-7.96234e+06 5.75187e+07 0 
0 0 0 
3.08318e+07 -2.96371e+06 0 
-2.96371e+06 3.1853e+07 0 
0 0 0 
245056 7.96815e+06 0 
7.96815e+06 5.08942e+07 0 
0 0 0 
-4.74449e+07 1.00448e+07 0 
1.00448e+07 -5.86545e+07 0 
0 0 0 
-3.44473e+07 -743537 0 
-743537 -7.50094e+06 0 
0 0 0 
0 0 0 
0 0 0 
0 0 0 
-5.91602e+06 2.18547e+06 0 
2.18547e+06 -5.1204e+06 0 
0 0 0 
1.00333e+07 2.45863e+06 0 
2.45863e+06 1.28905e+07 0 
0 0 0 
437077 -575456 0 
-575456 2.40165e+07 0 
0 0 0 
4.4699e+07 137390 0 
137390 3.62676e+07 0 
0 0 0 
7.71725e+06 -1.36119e+06 0 
-1.36119e+06 4.08016e+06 0 
0 0 0 
1.89967e+07 5.41507e+06 0 
5.41507e+06 -7.68675e+06 0 
0 0 0 
-3.99253e+07 -6.22718e+06 0 
-6.22718e+06 -4.81515e+07 0 
0 0 0 
-2.53573e+07 -6.80415e+06 0 
-6.80415e+06 -3.46818e+07 0 
0 0 0 
-2.39759e+07 663120 0 
663120 -2.93422e+07 0 
0 0 0 
-1.31646e+07 5.93926e+06 0 
5.93926e+06 -4.52927e+07 0 
0 0 0 
1.37903e+07 7.28236e+06 0 
7.28236e+06 -2.51129e+07 0 
0 0 0 
-3.28149e+07 1.03574e+07 0 
1.03574e+07 -2.43909e+07 0 
0 0 0 
3.15138e+07 1.10337e+07 0 
1.10337e+07 7.05823e+06 0 
0 0 0 
-2.42891e+06 1.30197e+07 0 
1.30197e+07 6.1343e+06 0 
0 0 0 
4.18254e+06 -273654 0 
-273654 1.23776e+07 0 
0 0 0 
5.09784e+06 -4.3687e+06 0 
-4.3687e+06 3.12325e+06 0 
0 0 0 
1.85946e+06 -9.27762e+06 0 
-9.27762e+06 1.33989e+07 0 
0 0 0 
-2.89517e+07 -5.53976e+06 0 
-5.53976e+06 2.27155e+07 0 
0 0 0 
1.74035e+07 3.49115e+06 0 
3.49115e+06 4.83449e+07 0 
0 0 0 
1.44651e+06 -3.91227e+06 0 
-3.91227e+06 4.27904e+07 0 
0 0 0 
2.29815e+07 -7.63742e+06 0 
-7.63742e+06 3.34537e+07 0 
0 0 0 
3.64918e+07 -1.98386e+07 0 
-1.98386e+07 2.25059e+07 0 
0 0 0 
-6.03772e+06 -7.44281e+06 0 
-7.44281e+06 -1.91275e+07 0 
0 0 0 
-386827 -725680 0 
-725680 -2.74336e+07 0 
0 0 0 
-2.76579e+07 8.07242e+06 0 
8.07242e+06 -2.23029e+07 0 
0 0 0 
-2.61611e+06 8.50432e+06 0 
8.50432e+06 -2.55775e+07 0 
0 0 0 
-9.49186e+06 1.74183e+07 0 
1.74183e+07 -2.74175e+07 0 
0 0 0 
-2.57256e+07 1.13071e+06 0 
1.13071e+06 -2.75085e+07 0 
0 0 0 
-2.01942e+07 -3.89179e+06 0 
-3.89179e+06 -3.18688e+07 0 
0 0 0 
-3.95541e+07 -872006 0 
-872006 -3.1339e+07 0 
0 0 0 
2.94083e+07 -7.09842e+06 0 
-7.09842e+06 -9.76468e+06 0 
0 0 0 
-6.41774e+06 -1.01754e+06 0 
-1.01754e+06 -4.07565e+06 0 
0 0 0 
4.97547e+07 -1.20626e+07 0 
-1.20626e+07 1.59843e+07 0 
0 0 0 
-4.33212e+07 -1.30066e+07 0 
-1.30066e+07 -8.01427e+06 0 
0 0 0 
6.04685e+06 -1.29154e+07 0 
-1.29154e+07 2.48288e+06 0 
0 0 0 
-2.12931e+07 20051.4 0 
20051.4 -2.80461e+07 0 
0 0 0 
3.91167e+06 6.16191e+06 0 
6.16191e+06 -1.2849e+07 0 
0 0 0 
-3.02734e+07 1.05904e+07 0 
1.05904e+07 -2.75691e+07 0 
0 0 0 
-2.85815e+07 512646 0 
512646 -3.12525e+07 0 
0 0 0 
-4.63925e+07 -7.49423e+06 0 
-7.49423e+06 -2.12932e+07 0 
0 0 0 
1.72632e+07 -1.90194e+07 0 
-1.90194e+07 1.49436e+06 0 
0 0 0 
-5.62857e+06 -2.31482e+07 0 
-2.31482e+07 -1.7767e+07 0 
0 0 0 
4.41341e+07 -1.1842e+07 0 
-1.1842e+07 1.2013e+07 0 
0 0 0 
-1.05566e+07 -4.69609e+06 0 
-4.69609e+06 -1.2102e+07 0 
0 0 0 
7.82511e+06 8.86352e+06 0 
8.86352e+06 -1.23315e+07 0 
0 0 0 
-5.84076e+07 9.83952e+06 0 
9.83952e+06 -2.08445e+07 0 
0 0 0 
1.22376e+07 1.60693e+07 0 
1.60693e+07 -2.19109e+06 0 
0 0 0 
-3.59013e+07 8.43724e+06 0 
8.43724e+06 -1.69006e+07 0 
0 0 0 
1.74028e+07 -28600.3 0 
-28600.3 7.3478e+06 0 
0 0 0 
-1.55133e+07 8.02196e+06 0 
8.02196e+06 -1.39008e+07 0 
0 0 0 
-351288 4.72169e+06 0 
4.72169e+06 -1.01913e+07 0 
0 0 0 
-9.43159e+06 9.27775e+06 0 
9.27775e+06 -1.64069e+07 0 
0 0 0 
-1.34196e+06 8.25679e+06 0 
8.25679e+06 -2.12037e+06 0 
0 0 0 
-2.26325e+07 -747749 0 
-747749 1.27811e+07 0 
0 0 0 
-24043.9 -2.71868e+06 0 
-2.71868e+06 2.42867e+07 0 
0 0 0 
-1.77551e+07 -1.16381e+07 0 
-1.16381e+07 2.67354e+07 0 
0 0 0 
-1.58352e+07 -327527 0 
-327527 -1.09452e+07 0 
0 0 0 
2.03787e+07 -4.50829e+06 0 
-4.50829e+06 3.58905e+07 0 
0 0 0 
0 0 0 
0 0 0 
0 0 0 
2.73622e+07 2.11978e+06 0 
2.11978e+06 6.50212e+07 0 
0 0 0 
3.11491e+07 -2.09193e+06 0 
-2.09193e+06 8.30815e+07 0 
0 0 0 
3.56049e+07 1.27229e+06 0 
1.27229e+06 7.41224e+07 0 
0 0 0 
4.82387e+07 7.90552e+06 0 
7.90552e+06 2.37827e+07 0 
0 0 0 
8.1742e+07 1.49399e+07 0 
1.49399e+07 8.59375e+07 0 
0 0 0 
7.42778e+07 9.66991e+06 0 
9.66991e+06 6.45585e+07 0 
0 0 0 
9.02602e+07 9.93462e+06 0 
9.93462e+06 1.09703e+08 0 
0 0 0 
6.63497e+07 6.77054e+06 0 
6.77054e+06 3.92373e+07 0 
0 0 0 
7.69549e+07 5.56102e+06 0 
5.56102e+06 2.40766e+07 0 
0 0 0 
7.51823e+07 1.37567e+07 0 
1.37567e+07 -1.05536e+07 0 
0 0 0 
8.78285e+07 7.19302e+06 0 
7.19302e+06 1.14204e+08 0 
0 0 0 
4.07801e+07 1.98287e+07 0 
1.98287e+07 2.70184e+07 0 
0 0 0 
1.90753e+07 1.72074e+07 0 
1.72074e+07 4.5495e+07 0 
0 0 0 
-4.11495e+07 8.83895e+06 0 
8.83895e+06 -3.89671e+07 0 
0 0 0 
-6.62116e+07 1.47953e+07 0 
1.47953e+07 -5.01009e+07 0 
0 0 0 
-4.53277e+07 2.11031e+07 0 
2.11031e+07 -2.41379e+07 0 
0 0 0 
2.20522e+07 2.89592e+07 0 
2.89592e+07 5.6243e+07 0 
0 0 0 
6.25911e+07 1.14769e+07 0 
1.14769e+07 4.83441e+07 0 
0 0 0 
-3.23419e+07 -1.6713e+07 0 
-1.6713e+07 -2.40915e+07 0 
0 0 0 
-4.56545e+07 -1.09701e+07 0 
-1.09701e+07 -3.52651e+07 0 
0 0 0 
-3.4785e+07 -1.17876e+06 0 
-1.17876e+06 -2.90841e+06 0 
0 0 0 
-7.1013e+07 1.10717e+07 0 
1.10717e+07 -8.88136e+07 0 
0 0 0 
-1.9835e+07 1.09575e+07 0 
1.09575e+07 -2.31492e+07 0 
0 0 0 
-1.62439e+07 6.4741e+06 0 
6.4741e+06 -4.95474e+07 0 
0 0 0 
1.35246e+07 -6.59293e+06 0 
-6.59293e+06 1.26546e+07 0 
0 0 0 
3.16424e+07 1.14945e+06 0 
1.14945e+06 1.35737e+07 0 
0 0 0 
1.23212e+07 1.89991e+06 0 
1.89991e+06 -4.66971e+07 0 
0 0 0 
2.11162e+07 -5.84599e+06 0 
-5.84599e+06 -3.44829e+07 0 
0 0 0 
3.3159e+07 -7.56661e+06 0 
-7.56661e+06 -2.87319e+07 0 
0 0 0 
4.80762e+07 -7.55742e+06 0 
-7.55742e+06 1.71714e+07 0 
0 0 0 
4.24518e+07 -2.04684e+07 0 
-2.04684e+07 1.81819e+07 0 
0 0 0 
2.72161e+07 -2.40644e+07 0 
-2.40644e+07 2.81594e+07 0 
0 0 0 
5.53787e+06 -1.80405e+07 0 
-1.80405e+07 -4.23509e+07 0 
0 0 0 
-1.46696e+07 -9.12174e+06 0 
-9.12174e+06 -4.85732e+07 0 
0 0 0 
-2.3917e+07 -5.77392e+06 0 
-5.77392e+06 -2.3403e+07 0 
0 0 0 
-2.36631e+07 -1.26223e+06 0 
-1.26223e+06 -1.80644e+07 0 
0 0 0 
-1.85755e+07 -7.3281e+06 0 
-7.3281e+06 2.55874e+06 0 
0 0 0 
-3.94614e+07 -1.33975e+07 0 
-1.33975e+07 -4.54935e+07 0 
0 0 0 
-8.29999e+06 -1.33124e+07 0 
-1.33124e+07 2.59789e+07 0 
0 0 0 
-2.18243e+07 -1.39382e+07 0 
-1.39382e+07 -1.35511e+07 0 
0 0 0 
-5.42758e+06 494156 0 
494156 6.02063e+07 0 
0 0 0 
-3.63335e+07 5.07173e+06 0 
5.07173e+06 1.58801e+06 0 
0 0 0 
-3.9311e+07 -3.06722e+06 0 
-3.06722e+06 -1.76763e+07 0 
0 0 0 
6.09591e+06 -1.45868e+07 0 
-1.45868e+07 2.9289e+07 0 
0 0 0 
-1.78734e+06 -2.09098e+07 0 
-2.09098e+07 8.92622e+06 0 
0 0 0 
1.81388e+06 -6.99035e+06 0 
-6.99035e+06 1.04925e+07 0 
0 0 0 
2.42383e+07 -77893.4 0 
-77893.4 5.60486e+07 0 
0 0 0 
2.01114e+07 6.595e+06 0 
6.595e+06 2.45755e+07 0 
0 0 0 
1.2578e+07 -2.14673e+06 0 
-2.14673e+06 2.24207e+07 0 
0 0 0 
1.30491e+07 1.00901e+07 0 
1.00901e+07 2.54028e+06 0 
0 0 0 
3.35719e+07 4.86869e+06 0 
4.86869e+06 6.78545e+07 0 
0 0 0 
2.43639e+07 -5.80504e+06 0 
-5.80504e+06 4.89371e+07 0 
0 0 0 
4.3598e+06 -2.69711e+07 0 
-2.69711e+07 1.67198e+07 0 
0 0 0 
7.58248e+06 -1.66419e+07 0 
-1.66419e+07 7.24422e+07 0 
0 0 0 
-3.41766e+07 4.20598e+06 0 
4.20598e+06 -4.63007e+07 0 
0 0 0 
-4.55027e+06 1.04811e+06 0 
1.04811e+06 4.2435e+06 0 
0 0 0 
-1.98014e+06 9.55464e+06 0 
9.55464e+06 -1.97338e+07 0 
0 0 0 
0 0 0 
0 0 0 
0 0 0 
1.22382e+06 -1.73456e+06 0 
-1.73456e+06 7.36802e+06 0 
0 0 0 
3.7274e+06 -2.14846e+06 0 
-2.14846e+06 3.60272e+06 0 
0 0 0 
-4.9503e+06 2.5605e+06 0 
2.5605e+06 6.87743e+06 0 
0 0 0 
3.96424e+07 -703373 0 
-703373 4.11024e+07 0 
0 0 0 
2.00979e+07 -9.98448e+06 0 
-9.98448e+06 3.46875e+07 0 
0 0 0 
2.50824e+07 -3.96965e+06 0 
-3.96965e+06 2.48088e+07 0 
0 0 0 
-2.9169e+07 -1.23058e+07 0 
-1.23058e+07 4.04963e+06 0 
0 0 0 
2.85362e+06 3.15664e+06 0 
3.15664e+06 4.84309e+06 0 
0 0 0 
-9.54089e+06 -7.71672e+06 0 
-7.71672e+06 808730 0 
0 0 0 
1.05108e+07 68072.7 0 
68072.7 6.29511e+06 0 
0 0 0 
2.60652e+07 3.9449e+06 0 
3.9449e+06 1.3693e+07 0 
0 0 0 
-1.46144e+07 9.01123e+06 0 
9.01123e+06 -2.92497e+06 0 
0 0 0 
1.97498e+07 1.22884e+07 0 
1.22884e+07 -4.09737e+06 0 
0 0 0 
-7.56976e+06 3.50621e+06 0 
3.50621e+06 -2.0726e+07 0 
0 0 0 
-1.66679e+07 5.9695e+06 0 
5.9695e+06 -2.45657e+07 0 
0 0 0 
-8.08003e+06 6.99158e+06 0 
6.99158e+06 1.75913e+06 0 
0 0 0 
-3.43038e+06 3.15279e+06 0 
3.15279e+06 -2.98457e+06 0 
0 0 0 
-3.23758e+07 3.5643e+06 0 
3.5643e+06 -2.14843e+07 0 
0 0 0 
-3.2578e+06 1.08749e+06 0 
1.08749e+06 -1.10477e+07 0 
0 0 0 
-3.42507e+07 -8.40667e+06 0 
-8.40667e+06 -2.47154e+07 0 
0 0 0 
9.93112e+06 -1.07718e+07 0 
-1.07718e+07 6.99678e+06 0 
0 0 0 
2.8762e+07 -2.0261e+07 0 
-2.0261e+07 3.39104e+07 0 
0 0 0 
2.11915e+07 -1.73798e+07 0 
-1.73798e+07 4.52499e+07 0 
0 0 0 
2.81346e+07 -1.29751e+07 0 
-1.29751e+07 3.3056e+07 0 
0 0 0 
1.49344e+06 3.0138e+06 0 
3.0138e+06 -116478 0 
0 0 0 
438146 1.51046e+06 0 
1.51046e+06 7.11733e+06 0 
0 0 0 
-442290 5.00775e+06 0 
5.00775e+06 -8.36416e+06 0 
0 0 0 
-2.75024e+07 1.93004e+06 0 
1.93004e+06 -2.41639e+07 0 
0 0 0 
-1.74805e+07 -644201 0 
-644201 -3.24635e+06 0 
0 0 0 
-3.06177e+07 3.55579e+06 0 
3.55579e+06 -2.34748e+07 0 
0 0 0 
2.75745e+07 8.79764e+06 0 
8.79764e+06 -3.857e+06 0 
0 0 0 
1.76189e+06 7.08625e+06 0 
7.08625e+06 -6.20286e+06 0 
0 0 0 
2.87925e+07 120481 0 
120481 2.28682e+07 0 
0 0 0 
-3.43808e+07 -1.47054e+06 0 
-1.47054e+06 1.10029e+07 0 
0 0 0 
3.09752e+07 -1.07864e+07 0 
-1.07864e+07 4.70068e+07 0 
0 0 0 
-3.38614e+06 -3.43166e+06 0 
-3.43166e+06 4.39823e+07 0 
0 0 0 
3.02147e+07 -2.00738e+06 0 
-2.00738e+06 4.27825e+07 0 
0 0 0 
-1.70387e+07 1.26341e+06 0 
1.26341e+06 2.33219e+07 0 
0 0 0 
-1.54688e+07 4.58048e+06 0 
4.58048e+06 1.01177e+07 0 
0 0 0 
-5.36886e+07 -1.09919e+06 0 
-1.09919e+06 -1.92769e+07 0 
0 0 0 
1.67241e+07 -1.07233e+06 0 
-1.07233e+06 1.38675e+07 0 
0 0 0 
1.96779e+07 -3.78842e+06 0 
-3.78842e+06 4.84764e+07 0 
0 0 0 
6.1987e+07 -4.89534e+06 0 
-4.89534e+06 7.71084e+07 0 
0 0 0 
2.80275e+07 -9.76539e+06 0 
-9.76539e+06 7.81082e+07 0 
0 0 0 
5.69791e+07 8.80992e+06 0 
8.80992e+06 8.25986e+07 0 
0 0 0 
-3.42103e+07 417656 0 
417656 3.5038e+07 0 
0 0 0 
3.61979e+07 1.38511e+07 0 
1.38511e+07 6.14126e+07 0 
0 0 0 
-3.30788e+07 1.02512e+07 0 
1.02512e+07 3.91273e+07 0 
0 0 0 
3.81494e+07 4.59596e+06 0 
4.59596e+06 5.99891e+07 0 
0 0 0 
8.32327e+06 6.48652e+06 0 
6.48652e+06 5.0717e+07 0 
0 0 0 
9.10023e+06 2.06501e+06 0 
2.06501e+06 2.95009e+07 0 
0 0 0 
3.4088e+06 5.13134e+06 0 
5.13134e+06 1.3219e+07 0 
0 0 0 
-8.73741e+06 9.69775e+06 0 
9.69775e+06 -1.70034e+07 0 
0 0 0 
-4.41519e+07 1.07168e+07 0 
1.07168e+07 -4.41744e+07 0 
0 0 0 
-2.70123e+07 6.84696e+06 0 
6.84696e+06 -3.67798e+07 0 
0 0 0 
-4.15252e+07 1.24382e+06 0 
1.24382e+06 -3.56189e+07 0 
0 0 0 
2.91848e+07 -1.96236e+06 0 
-1.96236e+06 1.78206e+07 0 
0 0 0 
-765120 3.18809e+06 0 
3.18809e+06 2.32145e+07 0 
0 0 0 
-1.30328e+07 1.31602e+07 0 
1.31602e+07 1.25335e+07 0 
0 0 0 
0 0 0 
0 0 0 
0 0 0 
1.72772e+07 1.04532e+07 0 
1.04532e+07 6.95619e+07 0 
0 0 0 
2.38673e+07 8.77857e+06 0 
8.77857e+06 8.17845e+07 0 
0 0 0 
3.04965e+07 1.82302e+07 0 
1.82302e+07 6.22666e+07 0 
0 0 0 
2.81252e+07 3.62657e+06 0 
3.62657e+06 4.02085e+07 0 
0 0 0 
2.62596e+07 6.37683e+06 0 
6.37683e+06 5.03403e+07 0 
0 0 0 
6.86476e+06 672927 0 
672927 3.67505e+07 0 
0 0 0 
-2.64401e+06 -1.52075e+06 0 
-1.52075e+06 8.47312e+07 0 
0 0 0 
-3.30908e+07 7.13696e+06 0 
7.13696e+06 4.83942e+06 0 
0 0 0 
-1.81549e+07 1.14294e+07 0 
1.14294e+07 -5.94202e+06 0 
0 0 0 
-2.18379e+07 1.3192e+07 0 
1.3192e+07 -3.90862e+07 0 
0 0 0 
4.08808e+07 4.15443e+06 0 
4.15443e+06 1.03498e+08 0 
0 0 0 
1.98755e+07 984598 0 
984598 1.79002e+07 0 
0 0 0 
2.60381e+07 821261 0 
821261 5.7326e+07 0 
0 0 0 
2.83528e+07 9.46774e+06 0 
9.46774e+06 -2.14237e+07 0 
0 0 0 
5.93522e+07 6.85798e+06 0 
6.85798e+06 9.14282e+06 0 
0 0 0 
4.912e+07 4.57215e+06 0 
4.57215e+06 2.77391e+07 0 
0 0 0 
6.5815e+07 8.65538e+06 0 
8.65538e+06 4.87374e+07 0 
0 0 0 
8.97579e+07 2.31286e+07 0 
2.31286e+07 -1.4899e+07 0 
0 0 0 
3.41232e+07 1.21118e+07 0 
1.21118e+07 -2.2288e+07 0 
0 0 0 
3.04617e+07 -1.0629e+07 0 
-1.0629e+07 7.87684e+06 0 
0 0 0 
5.7409e+07 -6.34794e+06 0 
-6.34794e+06 4.49019e+07 0 
0 0 0 
3.28004e+07 2.26565e+07 0 
2.26565e+07 -4.6324e+07 0 
0 0 0 
2.68889e+07 2.46135e+07 0 
2.46135e+07 -4.44708e+06 0 
0 0 0 
1.56809e+07 6.48884e+06 0 
6.48884e+06 -3.81413e+07 0 
0 0 0 
4.08199e+07 4.60362e+06 0 
4.60362e+06 -360122 0 
0 0 0 
4.30319e+07 -1.19777e+07 0 
-1.19777e+07 3.17137e+07 0 
0 0 0 
-1.21507e+07 -3.75062e+06 0 
-3.75062e+06 -6.65629e+07 0 
0 0 0 
-3.37362e+07 -9.33112e+06 0 
-9.33112e+06 -6.62106e+07 0 
0 0 0 
-3.011e+07 -4.5294e+06 0 
-4.5294e+06 -4.23883e+07 0 
0 0 0 
-6.18762e+06 -3.91391e+06 0 
-3.91391e+06 -1.08907e+07 0 
0 0 0 
1.77194e+07 -1.44951e+07 0 
-1.44951e+07 1.39475e+07 0 
0 0 0 
4.34938e+07 -1.91877e+07 0 
-1.91877e+07 1.32667e+07 0 
0 0 0 
4.3551e+07 -1.94705e+07 0 
-1.94705e+07 -1.51452e+07 0 
0 0 0 
2.89797e+07 -2.45543e+07 0 
-2.45543e+07 -3.86471e+07 0 
0 0 0 
2.18366e+07 -1.50281e+07 0 
-1.50281e+07 1.33945e+07 0 
0 0 0 
-1.42528e+06 -1.07397e+07 0 
-1.07397e+07 -9.98582e+06 0 
0 0 0 
1.07987e+06 -1.45707e+06 0 
-1.45707e+06 5.53037e+06 0 
0 0 0 
1.57138e+06 -5.98918e+06 0 
-5.98918e+06 -3.89721e+07 0 
0 0 0 
1.96084e+07 -1.51368e+07 0 
-1.51368e+07 2.96556e+07 0 
0 0 0 
4.54568e+06 -1.97121e+07 0 
-1.97121e+07 1.67693e+06 0 
0 0 0 
1.51968e+07 -1.25983e+07 0 
-1.25983e+07 8.93283e+07 0 
0 0 0 
-3.20255e+07 -1.17437e+07 0 
-1.17437e+07 -7.66587e+06 0 
0 0 0 
-3.43578e+07 -1.46255e+06 0 
-1.46255e+06 -1.88352e+07 0 
0 0 0 
-3.79762e+07 -9.34211e+06 0 
-9.34211e+06 7.3057e+06 0 
0 0 0 
-1.85081e+07 -1.03923e+07 0 
-1.03923e+07 -124703 0 
0 0 0 
-8.17924e+06 -7.38843e+06 0 
-7.38843e+06 2.31638e+07 0 
0 0 0 
-1.35691e+07 9.11179e+06 0 
9.11179e+06 4.98902e+07 0 
0 0 0 
-4.66166e+07 6.64231e+06 0 
6.64231e+06 1.04082e+06 0 
0 0 0 
-5.49801e+07 -9.59092e+06 0 
-9.59092e+06 1.79185e+06 0 
0 0 0 
-4.89937e+07 1.53516e+07 0 
1.53516e+07 -3.75162e+06 0 
0 0 0 
-1.98204e+07 1.44224e+07 0 
1.44224e+07 3.80932e+07 0 
0 0 0 
-9.6099e+06 3.25219e+06 0 
3.25219e+06 2.35981e+07 0 
0 0 0 
2.741e+07 -1.91772e+07 0 
-1.91772e+07 9.53934e+06 0 
0 0 0 
8.07595e+07 -1.57982e+07 0 
-1.57982e+07 1.0314e+08 0 
0 0 0 
4.42178e+07 -1.89848e+06 0 
-1.89848e+06 1.22742e+07 0 
0 0 0 
4.71755e+07 7.4265e+06 0 
7.4265e+06 2.80243e+07 0 
0 0 0 
3.94525e+07 1.70161e+07 0 
1.70161e+07 2.70301e+06 0 
0 0 0 
5.91317e+07 5.17595e+06 0 
5.17595e+06 2.72889e+07 0 
0 0 0 
0 0 0 
0 0 0 
0 0 0 
8.86218e+06 7.76804e+06 0 
7.76804e+06 -885878 0 
0 0 0 
-2.25038e+06 1.04604e+07 0 
1.04604e+07 8.42391e+06 0 
0 0 0 
-9.80842e+06 5.78916e+06 0 
5.78916e+06 4.75067e+06 0 
0 0 0 
2.03162e+07 2.78167e+06 0 
2.78167e+06 3.35665e+06 0 
0 0 0 
4.4854e+06 -1.49867e+07 0 
-1.49867e+07 2.84524e+06 0 
0 0 0 
2.28176e+07 -6.31655e+06 0 
-6.31655e+06 -1.0038e+06 0 
0 0 0 
-4.22545e+07 -8.77675e+06 0 
-8.77675e+06 -3.25339e+07 0 
0 0 0 
-2.60071e+06 -5.09328e+06 0 
-5.09328e+06 -1.66547e+07 0 
0 0 0 
-1.06873e+07 -3.38439e+06 0 
-3.38439e+06 -1.39669e+07 0 
0 0 0 
1.68852e+07 -4.50419e+06 0 
-4.50419e+06 1.20089e+07 0 
0 0 0 
2.28428e+07 6.83478e+06 0 
6.83478e+06 9.66408e+06 0 
0 0 0 
8.87615e+06 -408626 0 
-408626 -1.89154e+06 0 
0 0 0 
-5.39971e+06 5.9725e+06 0 
5.9725e+06 -1.06005e+07 0 
0 0 0 
1.78137e+07 6.5553e+06 0 
6.5553e+06 -3.99395e+06 0 
0 0 0 
-2.40216e+07 6.42609e+06 0 
6.42609e+06 -7.61402e+06 0 
0 0 0 
-261448 6.04444e+06 0 
6.04444e+06 -1.19749e+07 0 
0 0 0 
-2.10145e+07 2.45736e+06 0 
2.45736e+06 -9.88768e+06 0 
0 0 0 
-2.35527e+07 460477 0 
460477 274291 0 
0 0 0 
-226463 202060 0 
202060 5.84146e+06 0 
0 0 0 
-2.97635e+07 -2.30164e+06 0 
-2.30164e+06 6.21477e+06 0 
0 0 0 
-1.19949e+06 -4.27835e+06 0 
-4.27835e+06 1.41484e+07 0 
0 0 0 
2.12322e+07 -1.70583e+07 0 
-1.70583e+07 1.5803e+07 0 
0 0 0 
1.91016e+07 -8.18417e+06 0 
-8.18417e+06 1.02175e+07 0 
0 0 0 
2.55006e+07 -4.18045e+06 0 
-4.18045e+06 1.83717e+07 0 
0 0 0 
2.92553e+07 8.55e+06 0 
8.55e+06 4.13545e+07 0 
0 0 0 
-1.53974e+06 1.30792e+06 0 
1.30792e+06 2.90421e+07 0 
0 0 0 
1.5015e+07 1.32976e+06 0 
1.32976e+06 3.26484e+07 0 
0 0 0 
-2.59449e+07 -4.17187e+06 0 
-4.17187e+06 1.03598e+07 0 
0 0 0 
-7.9848e+06 -9.72123e+06 0 
-9.72123e+06 -5.02045e+06 0 
0 0 0 
1.47612e+06 2.18687e+06 0 
2.18687e+06 1.27368e+07 0 
0 0 0 
2.91364e+07 6.70038e+06 0 
6.70038e+06 2.30382e+07 0 
0 0 0 
-5.50036e+06 6.09816e+06 0 
6.09816e+06 7.14576e+06 0 
0 0 0 
2.80298e+07 1.71798e+06 0 
1.71798e+06 2.40529e+07 0 
0 0 0 
-5.04517e+07 -9.3488e+06 0 
-9.3488e+06 2.26489e+06 0 
0 0 0 
2.28559e+07 -1.11936e+07 0 
-1.11936e+07 1.88722e+07 0 
0 0 0 
-1.14704e+07 -8.59983e+06 0 
-8.59983e+06 2.51452e+07 0 
0 0 0 
4.03603e+07 -565882 0 
-565882 5.17056e+07 0 
0 0 0 
-2.23073e+07 -4.30804e+06 0 
-4.30804e+06 1.3101e+07 0 
0 0 0 
-1.0736e+07 -9.27047e+06 0 
-9.27047e+06 -125386 0 
0 0 0 
-4.55492e+07 1.65078e+06 0 
1.65078e+06 -9.95988e+06 0 
0 0 0 
1.69581e+07 -522936 0 
-522936 6.83003e+06 0 
0 0 0 
-1.45172e+07 1.9542e+06 0 
1.9542e+06 -8.19316e+06 0 
0 0 0 
4.11483e+07 -1.66658e+06 0 
-1.66658e+06 2.72495e+07 0 
0 0 0 
1.76201e+07 -3.16588e+06 0 
-3.16588e+06 1.62578e+07 0 
0 0 0 
1.44128e+07 -1.17996e+07 0 
-1.17996e+07 -7.65633e+06 0 
0 0 0 
-3.70305e+07 -3.60121e+06 0 
-3.60121e+06 -3.57104e+07 0 
0 0 0 
-3.83127e+06 468183 0 
468183 -3.08858e+07 0 
0 0 0 
-5.54877e+07 434541 0 
434541 -5.23191e+07 0 
0 0 0 
1.04325e+07 -1.44695e+06 0 
-1.44695e+06 -2.68975e+07 0 
0 0 0 
-3.84186e+07 -9.55484e+06 0 
-9.55484e+06 -5.89135e+07 0 
0 0 0 
-1.22239e+07 -1.11839e+07 0 
-1.11839e+07 -4.84895e+07 0 
0 0 0 
-5.56768e+06 -2.77095e+06 0 
-2.77095e+06 -5.5354e+07 0 
0 0 0 
-9.67815e+06 9.2795e+06 0 
9.2795e+06 -5.48618e+07 0 
0 0 0 
-5.91323e+07 1.4348e+07 0 
1.4348e+07 -6.06662e+07 0 
0 0 0 
-2.82395e+07 7.07454e+06 0 
7.07454e+06 -4.13678e+07 0 
0 0 0 
-4.46229e+07 1.56119e+07 0 
1.56119e+07 -2.12683e+07 0 
0 0 0 
2.41688e+07 6.39753e+06 0 
6.39753e+06 1.27203e+07 0 
0 0 0 
1.00137e+07 8.68562e+06 0 
8.68562e+06 1.89524e+07 0 
0 0 0 
5.75516e+07 7.93341e+06 0 
7.93341e+06 3.66947e+07 0 
0 0 0 
2.02714e+07 8.08257e+06 0 
8.08257e+06 2.61652e+07 0 
0 0 0 
0 0 0 
0 0 0 
0 0 0 
1.58624e+07 -4.98949e+06 0 
-4.98949e+06 6.92299e+07 0 
0 0 0 
2.75823e+07 3.82623e+06 0 
3.82623e+06 9.62324e+07 0 
0 0 0 
6.46021e+06 1.18577e+07 0 
1.18577e+07 5.54752e+07 0 
0 0 0 
-9.42377e+06 2.10391e+07 0 
2.10391e+07 3.05828e+07 0 
0 0 0 
2.27198e+07 1.79353e+07 0 
1.79353e+07 4.20827e+07 0 
0 0 0 
3.45777e+07 1.95606e+06 0 
1.95606e+06 2.98038e+07 0 
0 0 0 
7.62504e+07 1.66669e+06 0 
1.66669e+06 1.19007e+08 0 
0 0 0 
5.28241e+07 1.0671e+07 0 
1.0671e+07 3.39788e+07 0 
0 0 0 
2.37821e+07 1.51971e+07 0 
1.51971e+07 1.60156e+07 0 
0 0 0 
3.33683e+06 1.93559e+07 0 
1.93559e+07 -2.30606e+07 0 
0 0 0 
2.16031e+07 1.04564e+06 0 
1.04564e+06 7.01106e+07 0 
0 0 0 
-743556 1.24488e+07 0 
1.24488e+07 3.71121e+07 0 
0 0 0 
2.83757e+07 1.27897e+07 0 
1.27897e+07 4.6861e+07 0 
0 0 0 
-7.09195e+06 1.14454e+07 0 
1.14454e+07 -2.94309e+07 0 
0 0 0 
-1.9026e+07 -3.79958e+06 0 
-3.79958e+06 -2.63672e+07 0 
0 0 0 
-1.1513e+07 -8.30488e+06 0 
-8.30488e+06 -4.3497e+06 0 
0 0 0 
1.79764e+07 3.64505e+06 0 
3.64505e+06 3.70706e+06 0 
0 0 0 
-2.53841e+07 8.97648e+06 0 
8.97648e+06 -7.2185e+07 0 
0 0 0 
-1.95489e+07 3.3763e+07 0 
3.3763e+07 -5.95512e+07 0 
0 0 0 
-1.58642e+07 2.57837e+07 0 
2.57837e+07 -2.12567e+07 0 
0 0 0 
2.14093e+07 683747 0 
683747 5.39071e+07 0 
0 0 0 
-2.34349e+07 1.72865e+07 0 
1.72865e+07 -4.27369e+07 0 
0 0 0 
-3.02597e+07 1.84476e+07 0 
1.84476e+07 -2.71437e+07 0 
0 0 0 
-5.44966e+07 1.48259e+07 0 
1.48259e+07 -8.21665e+07 0 
0 0 0 
-6.22075e+07 -1.30043e+07 0 
-1.30043e+07 -5.25912e+07 0 
0 0 0 
-5.49679e+07 -1.29974e+07 0 
-1.29974e+07 -8.20894e+06 0 
0 0 0 
-5.57943e+07 -1.46824e+07 0 
-1.46824e+07 -5.60547e+07 0 
0 0 0 
-6.41529e+07 -5.10947e+06 0 
-5.10947e+06 -1.01471e+08 0 
0 0 0 
-3.99717e+07 -919787 0 
-919787 -2.51896e+07 0 
0 0 0 
-5.81657e+07 4.91008e+06 0 
4.91008e+06 -3.07999e+07 0 
0 0 0 
-4.96056e+07 3.53033e+06 0 
3.53033e+06 -129042 0 
0 0 0 
-5.90962e+07 -4.16796e+06 0 
-4.16796e+06 -5.41531e+07 0 
0 0 0 
-5.58494e+07 -1.69508e+07 0 
-1.69508e+07 -5.30426e+07 0 
0 0 0 
-4.72933e+07 -2.28998e+07 0 
-2.28998e+07 -6.2573e+07 0 
0 0 0 
1.54263e+06 -1.93727e+07 0 
-1.93727e+07 2.36779e+07 0 
0 0 0 
-1.43631e+07 -1.33707e+07 0 
-1.33707e+07 -1.41965e+07 0 
0 0 0 
-2.16225e+07 -1.17954e+07 0 
-1.17954e+07 9.6448e+06 0 
0 0 0 
-5.43725e+07 1.18672e+06 0 
1.18672e+06 -6.16478e+07 0 
0 0 0 
-3.69854e+06 -8.20785e+06 0 
-8.20785e+06 1.13146e+07 0 
0 0 0 
-5.75675e+06 -1.99304e+07 0 
-1.99304e+07 -9.90418e+06 0 
0 0 0 
3.59844e+07 -2.44054e+07 0 
-2.44054e+07 1.08523e+08 0 
0 0 0 
-5.17779e+06 -1.08834e+07 0 
-1.08834e+07 5.36767e+06 0 
0 0 0 
-3.47302e+07 -3.07853e+06 0 
-3.07853e+06 -2.68604e+06 0 
0 0 0 
-9.07624e+06 5.14986e+06 0 
5.14986e+06 -919011 0 
0 0 0 
2.21807e+07 -4.84868e+06 0 
-4.84868e+06 1.71387e+07 0 
0 0 0 
4.71565e+07 -5.18187e+06 0 
-5.18187e+06 5.34299e+07 0 
0 0 0 
6.18668e+07 1.90659e+06 0 
1.90659e+06 7.94072e+07 0 
0 0 0 
3.85153e+07 -4.21072e+06 0 
-4.21072e+06 1.60553e+07 0 
0 0 0 
4.23217e+07 -6.39138e+06 0 
-6.39138e+06 4.21812e+07 0 
0 0 0 
1.54639e+07 1.00672e+07 0 
1.00672e+07 2.9421e+07 0 
0 0 0 
1.88124e+06 1.02277e+07 0 
1.02277e+07 4.65832e+07 0 
0 0 0 
-2.86969e+07 700306 0 
700306 -9.44496e+06 0 
0 0 0 
-4.20889e+07 -997061 0 
-997061 -5.89849e+06 0 
0 0 0 
2.14735e+07 -1.61259e+06 0 
-1.61259e+06 7.27699e+07 0 
0 0 0 
3.52703e+07 967757 0 
967757 3.10606e+07 0 
0 0 0 
3.87207e+07 2.75731e+06 0 
2.75731e+06 3.65329e+07 0 
0 0 0 
1.54302e+07 446230 0 
446230 -670841 0 
0 0 0 
-1.52279e+07 -1.41164e+06 0 
-1.41164e+06 -6.10994e+06 0 
0 0 0 
-1.88361e+07 7.23415e+06 0 
7.23415e+06 2.67065e+07 0 
0 0 0 
0 0 0 
0 0 0 
0 0 0 
2.1285e+07 -2.26252e+06 0 
-2.26252e+06 5.67615e+06 0 
0 0 0 
-9.91688e+06 4.40595e+06 0 
4.40595e+06 -2.22493e+07 0 
0 0 0 
-3.55267e+07 6.77173e+06 0 
6.77173e+06 -2.62819e+07 0 
0 0 0 
1.03333e+07 -174976 0 
-174976 8767.26 0 
0 0 0 
-9.3484e+06 -1.24579e+07 0 
-1.24579e+07 -2.8159e+06 0 
0 0 0 
5.30179e+07 -1.73543e+07 0 
-1.73543e+07 2.76894e+07 0 
0 0 0 
-3.97033e+07 -8.4886e+06 0 
-8.4886e+06 4.14239e+06 0 
0 0 0 
2.92673e+07 229501 0 
229501 3.22228e+07 0 
0 0 0 
2.58739e+06 6.93975e+06 0 
6.93975e+06 2.74171e+07 0 
0 0 0 
3.26759e+07 8.40676e+06 0 
8.40676e+06 4.24397e+07 0 
0 0 0 
2.76514e+07 4.39936e+06 0 
4.39936e+06 5.66887e+07 0 
0 0 0 
4.14331e+07 -954688 0 
-954688 6.88121e+07 0 
0 0 0 
3.3634e+06 -2.56819e+06 0 
-2.56819e+06 5.13875e+07 0 
0 0 0 
3.98739e+07 -9.24752e+06 0 
-9.24752e+06 4.35228e+07 0 
0 0 0 
-2.95921e+07 -4.2163e+06 0 
-4.2163e+06 -8.09767e+06 0 
0 0 0 
-4.5765e+06 -1.2804e+07 0 
-1.2804e+07 -1.16088e+07 0 
0 0 0 
-1.77765e+07 -4.05054e+06 0 
-4.05054e+06 -3.28657e+07 0 
0 0 0 
-2.99564e+07 3.83866e+06 0 
3.83866e+06 -4.37659e+07 0 
0 0 0 
-1.57544e+07 2.50574e+06 0 
2.50574e+06 -5.03603e+07 0 
0 0 0 
-5.3576e+07 1.41266e+07 0 
1.41266e+07 -5.54272e+07 0 
0 0 0 
-2.3876e+07 1.34454e+06 0 
1.34454e+06 -1.91864e+07 0 
0 0 0 
4.97192e+06 -4.36416e+06 0 
-4.36416e+06 1.33997e+07 0 
0 0 0 
5.28536e+07 -1.16996e+07 0 
-1.16996e+07 5.69138e+07 0 
0 0 0 
4.43233e+07 -5.59671e+06 0 
-5.59671e+06 5.88075e+07 0 
0 0 0 
2.31274e+07 6.15972e+06 0 
6.15972e+06 3.00939e+07 0 
0 0 0 
-739078 -1.25672e+06 0 
-1.25672e+06 -20293.4 0 
0 0 0 
-2.20778e+07 1.32454e+06 0 
1.32454e+06 -2.96649e+07 0 
0 0 0 
-5.34417e+07 -1.39357e+06 0 
-1.39357e+06 -4.31512e+07 0 
0 0 0 
4.82945e+06 -1.55411e+06 0 
-1.55411e+06 -1.11397e+06 0 
0 0 0 
1.30141e+07 5.05538e+06 0 
5.05538e+06 1.28915e+06 0 
0 0 0 
1.16194e+07 -26997.8 0 
-26997.8 147514 0 
0 0 0 
-1.78296e+07 753394 0 
753394 -2.47241e+07 0 
0 0 0 
-1.50389e+07 2.04749e+06 0 
2.04749e+06 -4.27019e+07 0 
0 0 0 
-6.88543e+07 -1.2525e+07 0 
-1.2525e+07 -6.55051e+07 0 
0 0 0 
1.30104e+07 1.66024e+06 0 
1.66024e+06 -1.03841e+07 0 
0 0 0 
-1.93057e+07 1.665e+06 0 
1.665e+06 -1.65567e+07 0 
0 0 0 
3.2991e+07 -1.29543e+06 0 
-1.29543e+06 -8.62102e+06 0 
0 0 0 
-6.50454e+07 -1.10061e+07 0 
-1.10061e+07 -4.72151e+07 0 
0 0 0 
-3.15186e+06 -7.45348e+06 0 
-7.45348e+06 -3.25944e+07 0 
0 0 0 
-5.60001e+07 -203904 0 
-203904 -5.32448e+07 0 
0 0 0 
2.67935e+07 6.03377e+06 0 
6.03377e+06 -1.7952e+07 0 
0 0 0 
-3.69042e+07 1.85771e+07 0 
1.85771e+07 -2.42523e+07 0 
0 0 0 
2.8892e+07 1.12452e+07 0 
1.12452e+07 -818444 0 
0 0 0 
-6.79088e+06 -1.11093e+07 0 
-1.11093e+07 -5.51489e+06 0 
0 0 0 
1.01376e+07 -1.46116e+07 0 
-1.46116e+07 6.952e+06 0 
0 0 0 
-1.23531e+07 -1.14888e+07 0 
-1.14888e+07 -7.04186e+06 0 
0 0 0 
-464522 2.18031e+06 0 
2.18031e+06 -5.92343e+06 0 
0 0 0 
-2.93387e+07 6.44395e+06 0 
6.44395e+06 -4.1865e+06 0 
0 0 0 
1.42651e+07 -5.30807e+06 0 
-5.30807e+06 1.5781e+07 0 
0 0 0 
-2.56997e+07 -1.43709e+07 0 
-1.43709e+07 2.27008e+07 0 
0 0 0 
3.09532e+07 -1.52508e+07 0 
-1.52508e+07 3.65883e+07 0 
0 0 0 
3.91135e+07 -1.26682e+07 0 
-1.26682e+07 4.07282e+07 0 
0 0 0 
1.69082e+07 -7.05594e+06 0 
-7.05594e+06 3.05652e+07 0 
0 0 0 
-2.6353e+07 -3.98013e+06 0 
-3.98013e+06 -2.26528e+06 0 
0 0 0 
-2.11061e+07 9.71137e+06 0 
9.71137e+06 -1.34152e+07 0 
0 0 0 
-4.21925e+07 1.25569e+07 0 
1.25569e+07 -3.54278e+07 0 
0 0 0 
-5.38921e+06 7.8847e+06 0 
7.8847e+06 -3.14609e+07 0 
0 0 0 
9.53693e+06 1.19949e+07 0 
1.19949e+07 -3.22305e+07 0 
0 0 0 
-1.13941e+07 1.31255e+07 0 
1.31255e+07 -3.81558e+07 0 
0 0 0 
-1.76219e+07 7.75259e+06 0 
7.75259e+06 -4.70411e+06 0 
0 0 0 
-2.9516e+07 6.80403e+06 0 
6.80403e+06 -4.35007e+07 0 
0 0 0 
0 0 0 
0 0 0 
0 0 0 
2.08398e+07 -325958 0 
-325958 5.93105e+07 0 
0 0 0 
2.28953e+07 6.9947e+06 0 
6.9947e+06 1.15467e+08 0 
0 0 0 
-1.84879e+07 4.61559e+06 0 
4.61559e+06 5.33053e+07 0 
0 0 0 
-2.42804e+07 1.66068e+07 0 
1.66068e+07 4.07316e+07 0 
0 0 0 
-6.0973e+07 1.43836e+07 0 
1.43836e+07 -7.80515e+06 0 
0 0 0 
-5.30319e+07 9.3506e+06 0 
9.3506e+06 1.873e+06 0 
0 0 0 
1.52937e+06 8.28538e+06 0 
8.28538e+06 8.45385e+07 0 
0 0 0 
-3.17577e+07 2.13504e+06 0 
2.13504e+06 2.52483e+07 0 
0 0 0 
-3.66871e+07 1.9209e+07 0 
1.9209e+07 -4.09556e+06 0 
0 0 0 
-5.35127e+07 7.42784e+06 0 
7.42784e+06 -5.18198e+07 0 
0 0 0 
-2.13646e+07 6.06064e+06 0 
6.06064e+06 6.24007e+07 0 
0 0 0 
-1.89822e+07 9.80217e+06 0 
9.80217e+06 3.71271e+07 0 
0 0 0 
-1.7642e+07 2.38501e+07 0 
2.38501e+07 2.78138e+07 0 
0 0 0 
-2.37056e+07 3.74908e+06 0 
3.74908e+06 -3.89544e+07 0 
0 0 0 
-2.51138e+07 1.20905e+07 0 
1.20905e+07 -4.63454e+07 0 
0 0 0 
2.40681e+07 4.18659e+06 0 
4.18659e+06 3.44125e+07 0 
0 0 0 
3.43224e+07 6.49017e+06 0 
6.49017e+06 -8.14089e+06 0 
0 0 0 
2.11977e+07 2.35033e+07 0 
2.35033e+07 -7.13127e+07 0 
0 0 0 
4.94511e+07 2.87186e+07 0 
2.87186e+07 -5.47797e+07 0 
0 0 0 
6.18965e+07 3.22494e+06 0 
3.22494e+06 -1.27004e+07 0 
0 0 0 
5.69601e+07 8.92365e+06 0 
8.92365e+06 5.44824e+07 0 
0 0 0 
2.21631e+07 -1.17252e+07 0 
-1.17252e+07 -2.28187e+07 0 
0 0 0 
-2.04739e+07 -4.20857e+06 0 
-4.20857e+06 -2.25554e+07 0 
0 0 0 
-5.75595e+07 -7.39139e+06 0 
-7.39139e+06 -1.03983e+08 0 
0 0 0 
-2.33761e+07 -1.32829e+07 0 
-1.32829e+07 -4.82226e+07 0 
0 0 0 
5.01532e+07 1.8326e+06 0 
1.8326e+06 4.48643e+07 0 
0 0 0 
4.1919e+07 -1.15731e+07 0 
-1.15731e+07 -4.23114e+07 0 
0 0 0 
5.7078e+07 -4.37198e+06 0 
-4.37198e+06 -2.08423e+07 0 
0 0 0 
4.12401e+07 -3.85104e+06 0 
-3.85104e+06 -1.9454e+07 0 
0 0 0 
3.69104e+07 -3.13544e+06 0 
-3.13544e+06 1.62955e+07 0 
0 0 0 
2.56473e+07 -1.01249e+07 0 
-1.01249e+07 9.35006e+06 0 
0 0 0 
-5.54724e+06 -7.37658e+06 0 
-7.37658e+06 -3.36855e+07 0 
0 0 0 
-1.77736e+07 -6.02498e+06 0 
-6.02498e+06 -5.53551e+07 0 
0 0 0 
-2.27795e+07 -8.1239e+06 0 
-8.1239e+06 -5.86424e+07 0 
0 0 0 
1.03412e+07 -1.09296e+07 0 
-1.09296e+07 3.39349e+07 0 
0 0 0 
8.73206e+06 -1.18234e+07 0 
-1.18234e+07 6.74976e+06 0 
0 0 0 
1.54208e+07 -3.92722e+06 0 
-3.92722e+06 1.36092e+07 0 
0 0 0 
-1.85389e+06 -2.74852e+06 0 
-2.74852e+06 -3.38951e+07 0 
0 0 0 
-8.99875e+06 -629836 0 
-629836 1.28447e+06 0 
0 0 0 
186419 -1.35009e+07 0 
-1.35009e+07 -1.80054e+07 0 
0 0 0 
4.73467e+07 -1.46189e+07 0 
-1.46189e+07 1.08118e+08 0 
0 0 0 
2.58651e+07 -1.81946e+07 0 
-1.81946e+07 4.32392e+07 0 
0 0 0 
3.24456e+07 -4.83097e+06 0 
-4.83097e+06 6.62492e+06 0 
0 0 0 
1.7732e+07 3.68742e+06 0 
3.68742e+06 2.58638e+07 0 
0 0 0 
-5.49142e+06 9.3686e+06 0 
9.3686e+06 -1.3334e+07 0 
0 0 0 
2.6304e+07 -1.01295e+07 0 
-1.01295e+07 5.80311e+07 0 
0 0 0 
1.54834e+07 -4.68823e+06 0 
-4.68823e+06 5.23458e+07 0 
0 0 0 
-2.41178e+07 -1.22062e+07 0 
-1.22062e+07 7.8416e+06 0 
0 0 0 
-3.0803e+07 -4.73139e+06 0 
-4.73139e+06 2.69473e+07 0 
0 0 0 
-2.30607e+07 3.28987e+06 0 
3.28987e+06 1.49046e+07 0 
0 0 0 
-2.69867e+07 5.35713e+06 0 
5.35713e+06 3.73287e+07 0 
0 0 0 
-2.70371e+07 1.23585e+07 0 
1.23585e+07 -95108.4 0 
0 0 0 
1.0073e+07 1.11628e+07 0 
1.11628e+07 1.11387e+07 0 
0 0 0 
2.18445e+07 1.50353e+07 0 
1.50353e+07 4.97437e+07 0 
0 0 0 
2.53707e+07 -294154 0 
-294154 4.93744e+07 0 
0 0 0 
1.1884e+07 7.50834e+06 0 
7.50834e+06 2.47633e+07 0 
0 0 0 
1.14081e+07 2.6314e+06 0 
2.6314e+06 -850231 0 
0 0 0 
4.47394e+07 261995 0 
261995 2.02749e+07 0 
0 0 0 
6.82503e+07 -4.82096e+06 0 
-4.82096e+06 4.8668e+07 0 
0 0 0 
3.06492e+07 -9.12464e+06 0 
-9.12464e+06 5.99394e+06 0 
0 0 0 
0 0 0 
0 0 0 
0 0 0 
1.78572e+07 -952140 0 
-952140 553893 0 
0 0 0 
-3.37457e+06 -2.1967e+06 0 
-2.1967e+06 -5.87998e+06 0 
0 0 0 
-3.23887e+07 5.13434e+06 0 
5.13434e+06 -2.70069e+07 0 
0 0 0 
-5.89767e+06 5.75868e+06 0 
5.75868e+06 -2.97624e+07 0 
0 0 0 
-3.46102e+07 -1.92681e+06 0 
-1.92681e+06 -3.66199e+07 0 
0 0 0 
2.20091e+07 -1.93347e+07 0 
-1.93347e+07 -1.58296e+07 0 
0 0 0 
-2.49416e+07 -1.53191e+07 0 
-1.53191e+07 -3.58111e+07 0 
0 0 0 
2.41916e+07 -531362 0 
-531362 -2.09135e+07 0 
0 0 0 
-7.97802e+06 8.07851e+06 0 
8.07851e+06 -2.19252e+07 0 
0 0 0 
2.98128e+07 1.04667e+07 0 
1.04667e+07 -901840 0 
0 0 0 
-2.14557e+07 1.63771e+07 0 
1.63771e+07 -1.89939e+07 0 
0 0 0 
2.68182e+07 1.08491e+06 0 
1.08491e+06 1.04263e+06 0 
0 0 0 
-2.97756e+07 1.69482e+06 0 
1.69482e+06 -1.13081e+07 0 
0 0 0 
1.3125e+07 -1.3675e+07 0 
-1.3675e+07 -507819 0 
0 0 0 
-1.20465e+07 -3.74883e+06 0 
-3.74883e+06 -6.00631e+06 0 
0 0 0 
-2.31465e+06 1.01428e+06 0 
1.01428e+06 914087 0 
0 0 0 
-8.65306e+06 2.90922e+06 0 
2.90922e+06 7.11099e+06 0 
0 0 0 
7.4491e+06 -5.24776e+06 0 
-5.24776e+06 1.35944e+07 0 
0 0 0 
1.04548e+07 -2.37509e+06 0 
-2.37509e+06 2.59879e+07 0 
0 0 0 
-2.53814e+07 1.42355e+07 0 
1.42355e+07 2.2992e+07 0 
0 0 0 
-3.24801e+06 6.54843e+06 0 
6.54843e+06 1.97561e+07 0 
0 0 0 
-2.45867e+07 1.02511e+07 0 
1.02511e+07 9.42188e+06 0 
0 0 0 
4.04009e+07 -4.56406e+06 0 
-4.56406e+06 2.39354e+07 0 
0 0 0 
1.73507e+07 -1.70373e+07 0 
-1.70373e+07 4.26945e+06 0 
0 0 0 
2.46745e+07 -1.53343e+07 0 
-1.53343e+07 -9.49111e+06 0 
0 0 0 
-7.40003e+06 -1.36095e+07 0 
-1.36095e+07 -2.86008e+07 0 
0 0 0 
-2.35612e+07 -9.45315e+06 0 
-9.45315e+06 -2.15735e+07 0 
0 0 0 
-4.17801e+07 524418 0 
524418 -2.76937e+07 0 
0 0 0 
-3.01809e+06 6.59763e+06 0 
6.59763e+06 -1.23283e+07 0 
0 0 0 
1.61567e+07 -3.67474e+06 0 
-3.67474e+06 7.2361e+06 0 
0 0 0 
6.71535e+06 -5.24218e+06 0 
-5.24218e+06 -6.10154e+06 0 
0 0 0 
-2.42698e+07 -1.01291e+07 0 
-1.01291e+07 -9.15705e+06 0 
0 0 0 
-4.94677e+06 -1.15492e+07 0 
-1.15492e+07 -9.4887e+06 0 
0 0 0 
-3.54648e+07 4.59939e+06 0 
4.59939e+06 -1.6898e+07 0 
0 0 0 
1.06905e+07 1.15058e+07 0 
1.15058e+07 67073.6 0 
0 0 0 
-7.10457e+06 -1.45176e+06 0 
-1.45176e+06 -4.75743e+06 0 
0 0 0 
1.55123e+07 -2.60183e+06 0 
-2.60183e+06 1.15958e+07 0 
0 0 0 
-4.65922e+07 -2.33384e+07 0 
-2.33384e+07 -3.77159e+06 0 
0 0 0 
2.5358e+07 -7.26863e+06 0 
-7.26863e+06 2.73315e+07 0 
0 0 0 
-1.70505e+07 -1.89176e+06 0 
-1.89176e+06 1.88403e+07 0 
0 0 0 
6.26269e+07 7.41792e+06 0 
7.41792e+06 3.61256e+07 0 
0 0 0 
-3.33649e+07 1.39407e+07 0 
1.39407e+07 1.71042e+06 0 
0 0 0 
4.49636e+06 3.53823e+06 0 
3.53823e+06 1.20048e+07 0 
0 0 0 
-3.32809e+07 -1.5739e+07 0 
-1.5739e+07 -1.3434e+07 0 
0 0 0 
1.39926e+07 -1.92284e+07 0 
-1.92284e+07 -3.72843e+06 0 
0 0 0 
-9.65067e+06 -1.51388e+07 0 
-1.51388e+07 -1.51074e+07 0 
0 0 0 
1.48421e+07 4.50592e+06 0 
4.50592e+06 -9.34095e+06 0 
0 0 0 
-3.538e+07 5.91292e+06 0 
5.91292e+06 -4.06523e+07 0 
0 0 0 
-2.12227e+07 6.99302e+06 0 
6.99302e+06 -4.18665e+07 0 
0 0 0 
-4.02402e+07 2.15491e+06 0 
2.15491e+06 -5.48252e+07 0 
0 0 0 
1.11655e+07 5.53528e+06 0 
5.53528e+06 -1.76835e+07 0 
0 0 0 
1.859e+07 -2.77406e+06 0 
-2.77406e+06 2.41308e+06 0 
0 0 0 
1.30312e+07 4.30978e+06 0 
4.30978e+06 1.38374e+07 0 
0 0 0 
-2.0417e+07 -6.1091e+06 0 
-6.1091e+06 1.01e+07 0 
0 0 0 
1.35757e+07 4.89802e+06 0 
4.89802e+06 1.88614e+07 0 
0 0 0 
-2.62637e+07 1.57241e+07 0 
1.57241e+07 1.16317e+07 0 
0 0 0 
1.79303e+07 1.43284e+07 0 
1.43284e+07 3.0549e+07 0 
0 0 0 
2.66937e+07 1.16553e+07 0 
1.16553e+07 3.39333e+07 0 
0 0 0 
-6.41949e+06 2.59001e+06 0 
2.59001e+06 5.42484e+06 0 
0 0 0 
-1.32485e+07 -201637 0 
-201637 -2.22395e+06 0 
0 0 0 
6.61016e+06 7.29362e+06 0 
7.29362e+06 -2.99402e+07 0 
0 0 0 
8.52768e+06 -9.28264e+06 0 
-9.28264e+06 -1.32057e+07 0 
0 0 0 
0 0 0 
0 0 0 
0 0 0 
1.58061e+07 -3.83263e+06 0 
-3.83263e+06 5.44096e+07 0 
0 0 0 
3.99423e+07 -8.6178e+06 0 
-8.6178e+06 1.08279e+08 0 
0 0 0 
3.39503e+07 -1.32087e+07 0 
-1.32087e+07 9.43773e+07 0 
0 0 0 
-5.24792e+06 1.32752e+07 0 
1.32752e+07 6.42442e+07 0 
0 0 0 
-1.42497e+07 2.00917e+07 0 
2.00917e+07 -4.28895e+06 0 
0 0 0 
2.02459e+07 2.1346e+07 0 
2.1346e+07 2.97567e+07 0 
0 0 0 
2.8044e+07 1.2721e+07 0 
1.2721e+07 8.49956e+07 0 
0 0 0 
1.26713e+07 -6.31211e+06 0 
-6.31211e+06 3.77478e+07 0 
0 0 0 
-2.14441e+07 5.35966e+06 0 
5.35966e+06 -1.53644e+06 0 
0 0 0 
-6.79668e+07 -3.89746e+06 0 
-3.89746e+06 -5.19977e+07 0 
0 0 0 
-3.83281e+07 4.36854e+06 0 
4.36854e+06 6.56447e+07 0 
0 0 0 
-3.57365e+07 1.14942e+07 0 
1.14942e+07 1.74195e+07 0 
0 0 0 
-4.31197e+07 9.19922e+06 0 
9.19922e+06 4.68134e+07 0 
0 0 0 
-1.16811e+08 9.56392e+06 0 
9.56392e+06 -9.24113e+07 0 
0 0 0 
-1.09348e+08 -1.24124e+06 0 
-1.24124e+06 -6.00813e+07 0 
0 0 0 
-9.82817e+07 1.45157e+07 0 
1.45157e+07 -2.88401e+07 0 
0 0 0 
-1.34432e+07 2.54272e+07 0 
2.54272e+07 -1.02372e+07 0 
0 0 0 
-3.71604e+07 2.2781e+07 0 
2.2781e+07 -1.02391e+08 0 
0 0 0 
5.57777e+06 1.35377e+06 0 
1.35377e+06 -4.90806e+07 0 
0 0 0 
-5.74339e+07 1.71663e+06 0 
1.71663e+06 -5.94969e+07 0 
0 0 0 
-1.55047e+07 -1.27193e+06 0 
-1.27193e+06 1.04923e+07 0 
0 0 0 
-3.57569e+07 -1.69119e+07 0 
-1.69119e+07 -5.23428e+07 0 
0 0 0 
-9.69316e+06 -2.0528e+07 0 
-2.0528e+07 -2.1211e+07 0 
0 0 0 
-4.90654e+07 -980209 0 
-980209 -8.76837e+07 0 
0 0 0 
-3.00571e+07 4.11557e+06 0 
4.11557e+06 -3.42982e+07 0 
0 0 0 
-4.10463e+07 6.2777e+06 0 
6.2777e+06 3.2449e+06 0 
0 0 0 
-7.8835e+07 -5.55054e+06 0 
-5.55054e+06 -7.65994e+07 0 
0 0 0 
-7.50545e+07 -5.34206e+06 0 
-5.34206e+06 -7.13764e+07 0 
0 0 0 
-4.73895e+07 -2.38343e+07 0 
-2.38343e+07 -4.09597e+07 0 
0 0 0 
-2.77323e+07 -1.01545e+07 0 
-1.01545e+07 -1.86778e+07 0 
0 0 0 
-2.66278e+07 -1.79547e+07 0 
-1.79547e+07 -686799 0 
0 0 0 
-4.47497e+07 -1.62887e+07 0 
-1.62887e+07 -4.65315e+07 0 
0 0 0 
-5.20964e+07 -1.61046e+07 0 
-1.61046e+07 -5.39814e+07 0 
0 0 0 
-4.40169e+07 -3.40626e+06 0 
-3.40626e+06 -6.71792e+07 0 
0 0 0 
2.25784e+06 1.42378e+06 0 
1.42378e+06 3.86721e+07 0 
0 0 0 
-6.65187e+06 -9.41766e+06 0 
-9.41766e+06 -8.29472e+06 0 
0 0 0 
-2.05009e+06 -1.64231e+07 0 
-1.64231e+07 2.41628e+06 0 
0 0 0 
-2.63437e+07 -1.02226e+07 0 
-1.02226e+07 -3.25253e+07 0 
0 0 0 
-3.09948e+07 -8.9118e+06 0 
-8.9118e+06 -3.10776e+06 0 
0 0 0 
-5.06007e+07 -2.38789e+06 0 
-2.38789e+06 -4.39048e+07 0 
0 0 0 
3.35548e+07 -1.26061e+07 0 
-1.26061e+07 1.02796e+08 0 
0 0 0 
3.70274e+07 -1.56265e+07 0 
-1.56265e+07 4.30303e+07 0 
0 0 0 
7.36567e+06 -1.35193e+07 0 
-1.35193e+07 1.18601e+07 0 
0 0 0 
1.30134e+07 1.5841e+06 0 
1.5841e+06 3.44959e+07 0 
0 0 0 
-3.64603e+06 6.17151e+06 0 
6.17151e+06 -7.74648e+06 0 
0 0 0 
-1.37632e+06 3.10183e+06 0 
3.10183e+06 3.02692e+07 0 
0 0 0 
1.3972e+07 -3.91119e+06 0 
-3.91119e+06 5.19957e+07 0 
0 0 0 
2.45374e+07 -1.36894e+07 0 
-1.36894e+07 2.426e+07 0 
0 0 0 
5.79788e+07 -7.25421e+06 0 
-7.25421e+06 6.98868e+07 0 
0 0 0 
4.94071e+07 8.74379e+06 0 
8.74379e+06 5.15818e+07 0 
0 0 0 
5.73153e+07 7.76158e+06 0 
7.76158e+06 6.4192e+07 0 
0 0 0 
1.35169e+07 9.04235e+06 0 
9.04235e+06 1.21533e+07 0 
0 0 0 
-7.41681e+06 9.50914e+06 0 
9.50914e+06 1.79004e+07 0 
0 0 0 
-1.10378e+07 1.34804e+07 0 
1.34804e+07 1.46522e+07 0 
0 0 0 
-1.15768e+07 7.20034e+06 0 
7.20034e+06 4.62342e+07 0 
0 0 0 
-1.82176e+07 -2.06834e+06 0 
-2.06834e+06 1.39161e+07 0 
0 0 0 
-3.12391e+07 7.65869e+06 0 
7.65869e+06 -6.20751e+06 0 
0 0 0 
-3.06295e+07 4.52425e+06 0 
4.52425e+06 -1.46235e+07 0 
0 0 0 
-1.75736e+07 201658 0 
201658 1.15101e+07 0 
0 0 0 
8.87543e+06 -2.94689e+06 0 
-2.94689e+06 -7.63922e+06 0 
0 0 0 
-1.00842e+06 -9.44636e+06 0 
-9.44636e+06 -2.6352e+07 0 
0 0 0 
0 0 0 
0 0 0 
0 0 0 
1.15436e+07 -7.01754e+06 0 
-7.01754e+06 1.04653e+07 0 
0 0 0 
2.1256e+07 -1.47757e+06 0 
-1.47757e+06 3.21399e+06 0 
0 0 0 
-3.1479e+07 1.34805e+07 0 
1.34805e+07 -1.87869e+07 0 
0 0 0 
-1.05806e+06 3.28824e+06 0 
3.28824e+06 -9.70603e+06 0 
0 0 0 
-5.20309e+07 346557 0 
346557 -3.08483e+07 0 
0 0 0 
2.25312e+07 -1.49281e+06 0 
-1.49281e+06 1.68361e+07 0 
0 0 0 
8.4855e+06 -8.52222e+06 0 
-8.52222e+06 2.43874e+07 0 
0 0 0 
5.47186e+07 2.8281e+06 0 
2.8281e+06 3.49915e+07 0 
0 0 0 
2.53612e+07 1.48842e+07 0 
1.48842e+07 2.30825e+07 0 
0 0 0 
4.40483e+07 1.95125e+07 0 
1.95125e+07 3.46011e+07 0 
0 0 0 
-3.31931e+07 3.32914e+06 0 
3.32914e+06 -2.09264e+06 0 
0 0 0 
1.43886e+07 4.36714e+06 0 
4.36714e+06 -509124 0 
0 0 0 
-3.64091e+07 -1.05226e+07 0 
-1.05226e+07 -1.73272e+07 0 
0 0 0 
1.59032e+07 -1.03985e+07 0 
-1.03985e+07 9.97309e+06 0 
0 0 0 
-3.34914e+06 -8.82786e+06 0 
-8.82786e+06 -2.98865e+06 0 
0 0 0 
2.7955e+06 -5.94947e+06 0 
-5.94947e+06 -9.36847e+06 0 
0 0 0 
-2.94043e+07 -1.67785e+06 0 
-1.67785e+06 -1.70329e+07 0 
0 0 0 
7.82949e+06 778543 0 
778543 -4.15124e+06 0 
0 0 0 
1.68319e+07 5.91735e+06 0 
5.91735e+06 9.13787e+06 0 
0 0 0 
-3.57262e+07 1.1186e+07 0 
1.1186e+07 -2.30336e+07 0 
0 0 0 
-1.92097e+07 2.00808e+06 0 
2.00808e+06 -2.79413e+07 0 
0 0 0 
-4.54637e+07 5.56429e+06 0 
5.56429e+06 -3.05275e+07 0 
0 0 0 
-9.15159e+06 -1.57038e+07 0 
-1.57038e+07 -2.41069e+07 0 
0 0 0 
2.00084e+07 -1.61229e+07 0 
-1.61229e+07 -1.57487e+07 0 
0 0 0 
1.76105e+07 -1.60205e+07 0 
-1.60205e+07 -1.66691e+07 0 
0 0 0 
-1.5538e+07 -2.09074e+07 0 
-2.09074e+07 -3.91912e+07 0 
0 0 0 
-2.64979e+06 -2.72023e+06 0 
-2.72023e+06 -3.39714e+07 0 
0 0 0 
-3.15802e+07 4.49177e+06 0 
4.49177e+06 -2.16259e+07 0 
0 0 0 
-4.11918e+06 1.29329e+07 0 
1.29329e+07 -6.45813e+06 0 
0 0 0 
5.1988e+06 6.15731e+06 0 
6.15731e+06 -4.38348e+06 0 
0 0 0 
-2.29563e+06 -5.25602e+06 0 
-5.25602e+06 1.57753e+07 0 
0 0 0 
-2.47293e+07 -1.12152e+07 0 
-1.12152e+07 4.73043e+06 0 
0 0 0 
2.54476e+07 -7.73419e+06 0 
-7.73419e+06 1.44663e+07 0 
0 0 0 
-3.83936e+07 -1.36608e+06 0 
-1.36608e+06 -1.83481e+07 0 
0 0 0 
1.87195e+07 3.08133e+06 0 
3.08133e+06 -1.45577e+07 0 
0 0 0 
-4.37354e+07 1.29388e+06 0 
1.29388e+06 -3.96332e+07 0 
0 0 0 
5.99773e+06 -5.38793e+06 0 
-5.38793e+06 -2.10361e+07 0 
0 0 0 
-5.70908e+07 -6.24284e+06 0 
-6.24284e+06 -3.23313e+07 0 
0 0 0 
3.82523e+07 -586832 0 
-586832 8.44852e+06 0 
0 0 0 
-2.15622e+07 1.55548e+06 0 
1.55548e+06 -1.57843e+07 0 
0 0 0 
5.00923e+07 -259254 0 
-259254 1.62075e+07 0 
0 0 0 
-4.79345e+07 -1.10372e+06 0 
-1.10372e+06 -2.67062e+07 0 
0 0 0 
-4.96546e+06 1.37689e+06 0 
1.37689e+06 -2.6706e+07 0 
0 0 0 
-6.67579e+07 -2.66418e+06 0 
-2.66418e+06 -3.07864e+07 0 
0 0 0 
3.15955e+07 -8.53609e+06 0 
-8.53609e+06 1.68786e+07 0 
0 0 0 
1.20467e+07 -3.30333e+06 0 
-3.30333e+06 3.11013e+07 0 
0 0 0 
3.60751e+07 335435 0 
335435 3.93322e+07 0 
0 0 0 
-462814 1.87216e+06 0 
1.87216e+06 1.57201e+07 0 
0 0 0 
-8.74226e+06 9.72428e+06 0 
9.72428e+06 1.51896e+07 0 
0 0 0 
1.75351e+06 5.15009e+06 0 
5.15009e+06 4.28039e+07 0 
0 0 0 
2.80062e+07 2.8484e+06 0 
2.8484e+06 5.26593e+07 0 
0 0 0 
1.63736e+07 -1.12273e+06 0 
-1.12273e+06 4.61225e+07 0 
0 0 0 
1.50941e+07 -6.92419e+06 0 
-6.92419e+06 3.55554e+07 0 
0 0 0 
360875 -4.71297e+06 0 
-4.71297e+06 2.19894e+07 0 
0 0 0 
1.08073e+07 7.27807e+06 0 
7.27807e+06 2.99712e+07 0 
0 0 0 
-3.21002e+06 4.61622e+06 0 
4.61622e+06 2.28251e+07 0 
0 0 0 
1.28941e+07 6.74188e+06 0 
6.74188e+06 2.51602e+07 0 
0 0 0 
7.31148e+06 -401553 0 
-401553 1.58966e+07 0 
0 0 0 
-1.23922e+07 -5.75093e+06 0 
-5.75093e+06 3.85426e+06 0 
0 0 0 
-6.69556e+06 3.53636e+06 0 
3.53636e+06 -1.6897e+06 0 
0 0 0 
9.55516e+06 -1.11956e+07 0 
-1.11956e+07 1.65764e+07 0 
0 0 0 
-2.53953e+07 -3.61273e+06 0 
-3.61273e+06 -3.09347e+07 0 
0 0 0 
-1.16732e+07 -1.09484e+06 0 
-1.09484e+06 8.23249e+06 0 
0 0 0 
0 0 0 
0 0 0 
0 0 0 
1.98584e+07 -672845 0 
-672845 5.04782e+07 0 
0 0 0 
3.00335e+07 2.15395e+06 0 
2.15395e+06 8.83803e+07 0 
0 0 0 
3.61155e+07 -6.80217e+06 0 
-6.80217e+06 1.21455e+08 0 
0 0 0 
3.61418e+07 3.24145e+06 0 
3.24145e+06 9.42741e+07 0 
0 0 0 
-1.10047e+07 2.56797e+07 0 
2.56797e+07 6.73298e+06 0 
0 0 0 
-3.59406e+07 2.31938e+07 0 
2.31938e+07 1.01436e+07 0 
0 0 0 
-2.28711e+07 1.35838e+07 0 
1.35838e+07 5.18322e+07 0 
0 0 0 
-1.6028e+07 -2.00387e+06 0 
-2.00387e+06 -7.23086e+06 0 
0 0 0 
686031 -1.16224e+07 0 
-1.16224e+07 2.55109e+07 0 
0 0 0 
-2.66883e+07 -4.31882e+06 0 
-4.31882e+06 -2.59201e+07 0 
0 0 0 
1.18331e+07 5.56952e+06 0 
5.56952e+06 8.35121e+07 0 
0 0 0 
-3.08575e+07 1.91574e+07 0 
1.91574e+07 2.04312e+07 0 
0 0 0 
817764 7.862e+06 0 
7.862e+06 6.46591e+07 0 
0 0 0 
-1.80919e+07 6.09844e+06 0 
6.09844e+06 -6.53544e+07 0 
0 0 0 
2.53214e+07 1.33044e+07 0 
1.33044e+07 -2.97676e+06 0 
0 0 0 
5.3672e+07 2.7456e+07 0 
2.7456e+07 7.99451e+06 0 
0 0 0 
8.2019e+07 3.85963e+07 0 
3.85963e+07 9.0371e+07 0 
0 0 0 
1.11867e+08 -1.01485e+06 0 
-1.01485e+06 1.39696e+07 0 
0 0 0 
4.8586e+07 7.63752e+06 0 
7.63752e+06 4.22528e+07 0 
0 0 0 
-1.31319e+07 1.56895e+07 0 
1.56895e+07 -2.79037e+07 0 
0 0 0 
-2.83246e+07 2.05762e+06 0 
2.05762e+06 -1.91127e+07 0 
0 0 0 
-4.95128e+07 -417461 0 
-417461 -8.3997e+07 0 
0 0 0 
-1.82381e+07 -1.81965e+07 0 
-1.81965e+07 -1.29798e+07 0 
0 0 0 
-2.63595e+07 -779822 0 
-779822 -5.33896e+07 0 
0 0 0 
-2.34254e+07 6.37239e+06 0 
6.37239e+06 -1.59877e+07 0 
0 0 0 
-3.05129e+07 1.11482e+06 0 
1.11482e+06 -1.96326e+07 0 
0 0 0 
-4.28192e+07 -1.10206e+06 0 
-1.10206e+06 -6.34826e+07 0 
0 0 0 
-5.63532e+07 -1.57012e+07 0 
-1.57012e+07 -8.39817e+07 0 
0 0 0 
-5.58308e+07 -5.12001e+06 0 
-5.12001e+06 -4.04165e+07 0 
0 0 0 
-3.88381e+07 -9.93618e+06 0 
-9.93618e+06 -1.77795e+07 0 
0 0 0 
-492319 -3.23854e+06 0 
-3.23854e+06 1.24737e+07 0 
0 0 0 
1.55972e+07 -1.02661e+07 0 
-1.02661e+07 -2.46993e+07 0 
0 0 0 
4.22545e+07 518403 0 
518403 -1.48804e+07 0 
0 0 0 
3.63936e+07 -5.18277e+06 0 
-5.18277e+06 -2.88471e+07 0 
0 0 0 
3.9584e+07 -6.68725e+06 0 
-6.68725e+06 4.55755e+07 0 
0 0 0 
2.75586e+06 -1.73899e+07 0 
-1.73899e+07 -3.15925e+07 0 
0 0 0 
2.39267e+07 -9.11612e+06 0 
-9.11612e+06 2.67943e+07 0 
0 0 0 
3.35507e+06 -1.62759e+07 0 
-1.62759e+07 -1.9274e+07 0 
0 0 0 
1.02147e+07 -9.6412e+06 0 
-9.6412e+06 1.24363e+07 0 
0 0 0 
-5.42016e+06 -6.75644e+06 0 
-6.75644e+06 -2.76559e+07 0 
0 0 0 
8.99287e+06 175900 0 
175900 8.56023e+07 0 
0 0 0 
-7.49531e+06 -1.26575e+07 0 
-1.26575e+07 3.50036e+07 0 
0 0 0 
9.51344e+06 -4.13067e+06 0 
-4.13067e+06 2.23982e+07 0 
0 0 0 
9.12277e+06 -4.9721e+06 0 
-4.9721e+06 3.28981e+07 0 
0 0 0 
-1.78292e+07 1.96319e+06 0 
1.96319e+06 -1.49083e+06 0 
0 0 0 
9.61583e+06 2.8116e+06 0 
2.8116e+06 3.88259e+07 0 
0 0 0 
1.24384e+07 5.02903e+06 0 
5.02903e+06 3.29585e+07 0 
0 0 0 
3.10272e+06 -5.18102e+06 0 
-5.18102e+06 1.68435e+07 0 
0 0 0 
2.03226e+07 1.75142e+06 0 
1.75142e+06 6.8009e+07 0 
0 0 0 
1.93185e+07 1.03234e+06 0 
1.03234e+06 4.72379e+07 0 
0 0 0 
2.35124e+07 659325 0 
659325 5.3481e+07 0 
0 0 0 
2.34667e+07 -7.63451e+06 0 
-7.63451e+06 -1.20136e+07 0 
0 0 0 
3.25895e+07 -1.04481e+07 0 
-1.04481e+07 5.41134e+07 0 
0 0 0 
3.50382e+06 5.48964e+06 0 
5.48964e+06 2.99432e+07 0 
0 0 0 
-5.44616e+06 -2.15205e+06 0 
-2.15205e+06 3.09373e+07 0 
0 0 0 
-1.96306e+07 2.37772e+06 0 
2.37772e+06 2.36197e+07 0 
0 0 0 
-1.79001e+07 1.07479e+06 0 
1.07479e+06 -3.00352e+06 0 
0 0 0 
-2.32067e+07 1.01461e+07 0 
1.01461e+07 7.21123e+06 0 
0 0 0 
-8.63624e+06 1.55509e+07 0 
1.55509e+07 -980642 0 
0 0 0 
-2.22959e+07 5.21162e+06 0 
5.21162e+06 -2.49625e+07 0 
0 0 0 
-1.57589e+07 3.2825e+06 0 
3.2825e+06 -3.69117e+07 0 
0 0 0 
1.94818e+06 -1.02871e+07 0 
-1.02871e+07 -1.61609e+07 0 
0 0 0 
0 0 0 
0 0 0 
0 0 0 
3.92986e+06 3.6887e+06 0 
3.6887e+06 -446212 0 
0 0 0 
4.52415e+07 -9.27001e+06 0 
-9.27001e+06 8.08474e+06 0 
0 0 0 
-3.7969e+07 1.13585e+07 0 
1.13585e+07 -2.24965e+07 0 
0 0 0 
-1.2908e+07 -4.7638e+06 0 
-4.7638e+06 -2.08595e+07 0 
0 0 0 
-5.8939e+07 8.92659e+06 0 
8.92659e+06 -3.57475e+07 0 
0 0 0 
3.72618e+06 -1.41993e+06 0 
-1.41993e+06 -1.7516e+07 0 
0 0 0 
1.86395e+07 -3.10895e+06 0 
-3.10895e+06 -1.03809e+07 0 
0 0 0 
2.59452e+07 3.61345e+06 0 
3.61345e+06 -1.84786e+06 0 
0 0 0 
3.97755e+07 4.36668e+06 0 
4.36668e+06 -6.17596e+06 0 
0 0 0 
-2.83354e+06 -2.54238e+06 0 
-2.54238e+06 -4.9718e+07 0 
0 0 0 
-5.16618e+07 -419073 0 
-419073 -7.02671e+07 0 
0 0 0 
-1.74597e+07 -1.16417e+06 0 
-1.16417e+06 -5.30419e+07 0 
0 0 0 
-5.76441e+07 1.34658e+06 0 
1.34658e+06 -6.1414e+07 0 
0 0 0 
1.69803e+07 -7.25624e+06 0 
-7.25624e+06 -2.74881e+07 0 
0 0 0 
-1.62189e+07 -5.35589e+06 0 
-5.35589e+06 -1.5422e+07 0 
0 0 0 
4.32014e+06 -7.76933e+06 0 
-7.76933e+06 7.07237e+06 0 
0 0 0 
-1.89631e+07 -2.86771e+06 0 
-2.86771e+06 -1.07942e+06 0 
0 0 0 
3.57072e+07 852189 0 
852189 3.58235e+07 0 
0 0 0 
1.11544e+07 -3.48452e+06 0 
-3.48452e+06 1.28535e+07 0 
0 0 0 
-2.55013e+07 -8.70803e+06 0 
-8.70803e+06 -1.06032e+07 0 
0 0 0 
-8.4744e+06 -726437 0 
-726437 -1.1924e+07 0 
0 0 0 
-6.27781e+07 2.77835e+06 0 
2.77835e+06 -4.32108e+07 0 
0 0 0 
-1.35732e+07 -5.12539e+06 0 
-5.12539e+06 -1.85051e+07 0 
0 0 0 
1.96616e+07 -9.71754e+06 0 
-9.71754e+06 3.11296e+06 0 
0 0 0 
3.964e+07 -1.33405e+07 0 
-1.33405e+07 1.95302e+07 0 
0 0 0 
-1.77271e+06 -5.08688e+06 0 
-5.08688e+06 2.55007e+07 0 
0 0 0 
4.72036e+07 5.97503e+06 0 
5.97503e+06 4.34391e+07 0 
0 0 0 
-1.72737e+07 1.29016e+07 0 
1.29016e+07 1.32133e+07 0 
0 0 0 
8.74329e+06 9.96908e+06 0 
9.96908e+06 1.19099e+07 0 
0 0 0 
-2.17033e+07 6.3005e+06 0 
6.3005e+06 -4.97845e+06 0 
0 0 0 
-1.881e+07 1.0944e+06 0 
1.0944e+06 -3.7663e+06 0 
0 0 0 
-2.7361e+07 -1.20295e+07 0 
-1.20295e+07 1.3434e+06 0 
0 0 0 
3.89961e+07 -1.43134e+07 0 
-1.43134e+07 2.70209e+07 0 
0 0 0 
-3.15756e+07 -8.14989e+06 0 
-8.14989e+06 -595721 0 
0 0 0 
3.61301e+07 -502241 0 
-502241 1.08239e+07 0 
0 0 0 
-3.98224e+07 3.43008e+06 0 
3.43008e+06 -1.53643e+07 0 
0 0 0 
156582 -639586 0 
-639586 -1.66195e+07 0 
0 0 0 
-4.94826e+07 -3.99945e+06 0 
-3.99945e+06 -3.20969e+07 0 
0 0 0 
2.98888e+07 -9.33151e+06 0 
-9.33151e+06 -978307 0 
0 0 0 
-1.02128e+07 -9.77058e+06 0 
-9.77058e+06 -1.53567e+07 0 
0 0 0 
3.39831e+07 954919 0 
954919 -6.47096e+06 0 
0 0 0 
-4.24254e+07 -2.17558e+06 0 
-2.17558e+06 -4.24701e+07 0 
0 0 0 
-1.99284e+07 1.19414e+06 0 
1.19414e+06 -4.38767e+07 0 
0 0 0 
-7.62901e+07 -5.69554e+06 0 
-5.69554e+06 -7.71274e+07 0 
0 0 0 
9.90378e+06 6.77684e+06 0 
6.77684e+06 -3.24295e+07 0 
0 0 0 
-9.72071e+06 -6.12549e+06 0 
-6.12549e+06 -3.14352e+07 0 
0 0 0 
3.25714e+07 4.17573e+06 0 
4.17573e+06 -1.92578e+07 0 
0 0 0 
-2.13524e+07 1.91823e+06 0 
1.91823e+06 -2.80289e+07 0 
0 0 0 
-2.30409e+07 3.08839e+06 0 
3.08839e+06 -4.05142e+07 0 
0 0 0 
-5.18476e+07 -487190 0 
-487190 -7.42948e+07 0 
0 0 0 
1.77569e+07 -292328 0 
-292328 -5.21331e+07 0 
0 0 0 
-4.78241e+07 3.43386e+06 0 
3.43386e+06 -6.69739e+07 0 
0 0 0 
-8.72762e+06 216249 0 
216249 -4.14681e+07 0 
0 0 0 
-4.76469e+06 -2.92359e+06 0 
-2.92359e+06 -3.25385e+07 0 
0 0 0 
-1.19404e+07 7.90266e+06 0 
7.90266e+06 -2.72852e+07 0 
0 0 0 
-9.43275e+06 9.48032e+06 0 
9.48032e+06 -3.28672e+07 0 
0 0 0 
-1.45456e+07 1.16064e+07 0 
1.16064e+07 -3.76529e+07 0 
0 0 0 
-6.95506e+06 6.19605e+06 0 
6.19605e+06 -2.10305e+07 0 
0 0 0 
-2.48632e+07 837438 0 
837438 -1.51217e+07 0 
0 0 0 
-9.45373e+06 -5.76384e+06 0 
-5.76384e+06 -1.12563e+07 0 
0 0 0 
-9.3977e+06 -6.22137e+06 0 
-6.22137e+06 -1.51689e+07 0 
0 0 0 
-1.02806e+07 -1.15042e+07 0 
-1.15042e+07 -1.18222e+07 0 
0 0 0 
-523817 -4.959e+06 0 
-4.959e+06 207283 0 
0 0 0 
1.10144e+07 2.71885e+06 0 
2.71885e+06 -1.86243e+06 0 
0 0 0 
0 0 0 
0 0 0 
0 0 0 
2.78411e+07 3.76859e+06 0 
3.76859e+06 5.19718e+07 0 
0 0 0 
5.29521e+07 -890353 0 
-890353 9.14137e+07 0 
0 0 0 
8.7153e+07 -4.63625e+06 0 
-4.63625e+06 1.47218e+08 0 
0 0 0 
7.66504e+07 503126 0 
503126 1.03708e+08 0 
0 0 0 
4.31332e+07 605208 0 
605208 4.97025e+07 0 
0 0 0 
1.03902e+07 5.92972e+06 0 
5.92972e+06 2.31357e+07 0 
0 0 0 
1.82234e+06 5.88263e+06 0 
5.88263e+06 3.80959e+07 0 
0 0 0 
-3.18924e+07 9.95537e+06 0 
9.95537e+06 -1.18696e+07 0 
0 0 0 
-8.83071e+06 2.49777e+06 0 
2.49777e+06 2.02845e+07 0 
0 0 0 
1.00907e+07 -1.41676e+06 0 
-1.41676e+06 -3.19131e+06 0 
0 0 0 
4.33406e+07 -301046 0 
-301046 9.71962e+07 0 
0 0 0 
2.06354e+07 4.04629e+06 0 
4.04629e+06 3.47376e+07 0 
0 0 0 
4.41535e+06 7.66939e+06 0 
7.66939e+06 6.39313e+07 0 
0 0 0 
-4.54115e+07 1.0873e+07 0 
1.0873e+07 -6.28142e+07 0 
0 0 0 
-2.38859e+07 1.93612e+07 0 
1.93612e+07 -1.23928e+07 0 
0 0 0 
-2.30463e+07 2.95817e+07 0 
2.95817e+07 7.98764e+06 0 
0 0 0 
-2.16054e+07 -1.08178e+06 0 
-1.08178e+06 4.57187e+07 0 
0 0 0 
6.02729e+07 1.23401e+07 0 
1.23401e+07 -3.61599e+07 0 
0 0 0 
1.07757e+07 1.29731e+07 0 
1.29731e+07 6.56263e+06 0 
0 0 0 
-6.36357e+07 2.12011e+06 0 
2.12011e+06 -3.76564e+07 0 
0 0 0 
-4.9806e+07 -5.39293e+06 0 
-5.39293e+06 -3.62001e+07 0 
0 0 0 
-6.5177e+07 735470 0 
735470 -8.69974e+07 0 
0 0 0 
-5.36339e+07 2.83982e+06 0 
2.83982e+06 -4.1674e+07 0 
0 0 0 
-5.63458e+07 -8.49621e+06 0 
-8.49621e+06 -4.20841e+07 0 
0 0 0 
-6.66991e+07 -3.96725e+06 0 
-3.96725e+06 -3.74368e+07 0 
0 0 0 
-4.97897e+07 -6.33983e+06 0 
-6.33983e+06 -1.94278e+07 0 
0 0 0 
-7.25861e+07 1.73746e+06 0 
1.73746e+06 -9.31791e+07 0 
0 0 0 
-7.07821e+07 -1.77453e+07 0 
-1.77453e+07 -9.36592e+07 0 
0 0 0 
-3.52289e+07 -2.31755e+06 0 
-2.31755e+06 -1.02805e+07 0 
0 0 0 
-4.73499e+07 2.55651e+06 0 
2.55651e+06 -3.35842e+07 0 
0 0 0 
-4.92956e+07 4.46381e+06 0 
4.46381e+06 1.16874e+07 0 
0 0 0 
-7.32763e+07 3.50493e+06 0 
3.50493e+06 -5.45889e+07 0 
0 0 0 
-8.16914e+07 -5.54423e+06 0 
-5.54423e+06 -7.10647e+07 0 
0 0 0 
-7.80528e+07 -1.46761e+07 0 
-1.46761e+07 -5.63834e+07 0 
0 0 0 
-4.24762e+07 -1.02005e+07 0 
-1.02005e+07 4.64655e+06 0 
0 0 0 
-4.65164e+07 -1.18626e+07 0 
-1.18626e+07 -4.47532e+07 0 
0 0 0 
-3.72262e+07 -1.38122e+07 0 
-1.38122e+07 7.5141e+06 0 
0 0 0 
-4.65032e+07 -1.80833e+07 0 
-1.80833e+07 -3.09969e+07 0 
0 0 0 
-2.56275e+07 -8.41744e+06 0 
-8.41744e+06 -899034 0 
0 0 0 
-2.84207e+07 -5.42431e+06 0 
-5.42431e+06 -1.88311e+07 0 
0 0 0 
2.70156e+07 6.96176e+06 0 
6.96176e+06 8.52799e+07 0 
0 0 0 
2.54574e+07 -2.18752e+06 0 
-2.18752e+06 5.22021e+07 0 
0 0 0 
7.17735e+06 -1.03585e+07 0 
-1.03585e+07 -5.92518e+06 0 
0 0 0 
2.50203e+07 -1.87232e+07 0 
-1.87232e+07 6.01954e+07 0 
0 0 0 
3.98036e+06 838229 0 
838229 1.12632e+07 0 
0 0 0 
-772999 2.46304e+06 0 
2.46304e+06 3.91956e+07 0 
0 0 0 
9.35037e+06 6.29171e+06 0 
6.29171e+06 4.05045e+07 0 
0 0 0 
1.11306e+07 -486571 0 
-486571 5.11226e+06 0 
0 0 0 
3.54325e+07 -829970 0 
-829970 8.14479e+07 0 
0 0 0 
2.39932e+07 7.22015e+06 0 
7.22015e+06 3.84059e+07 0 
0 0 0 
3.62176e+07 825338 0 
825338 5.14281e+07 0 
0 0 0 
1.16373e+07 5.94964e+06 0 
5.94964e+06 -1.75913e+07 0 
0 0 0 
4.73103e+07 -8.5741e+06 0 
-8.5741e+06 5.91898e+07 0 
0 0 0 
4.54764e+07 3.44503e+06 0 
3.44503e+06 6.64291e+07 0 
0 0 0 
2.97685e+07 -2.7007e+06 0 
-2.7007e+06 2.98335e+07 0 
0 0 0 
2.53093e+07 -4.46436e+06 0 
-4.46436e+06 4.30119e+07 0 
0 0 0 
1.73852e+06 1.07707e+07 0 
1.07707e+07 1.66723e+07 0 
0 0 0 
1.52735e+07 2.22646e+06 0 
2.22646e+06 1.49691e+07 0 
0 0 0 
-4.39744e+06 8.08676e+06 0 
8.08676e+06 1.206e+07 0 
0 0 0 
-1.14973e+07 6.79778e+06 0 
6.79778e+06 -3.60352e+07 0 
0 0 0 
-2.04914e+07 -3.91757e+06 0 
-3.91757e+06 -4.32527e+07 0 
0 0 0 
-1.53371e+07 -6.63275e+06 0 
-6.63275e+06 -3.68181e+07 0 
0 0 0 
3.78823e+07 7.26105e+06 0 
7.26105e+06 3.54437e+07 0 
0 0 0 
0 0 0 
0 0 0 
0 0 0 
5.2674e+06 -4.24505e+06 0 
-4.24505e+06 242761 0 
0 0 0 
4.33933e+07 -1.13561e+07 0 
-1.13561e+07 2.82347e+07 0 
0 0 0 
-2.10202e+07 -5.64533e+06 0 
-5.64533e+06 -4.78783e+06 0 
0 0 0 
-346221 -1.85375e+06 0 
-1.85375e+06 -1.42698e+07 0 
0 0 0 
-5.20783e+07 1.57795e+07 0 
1.57795e+07 -3.094e+07 0 
0 0 0 
-9.40216e+06 1.53998e+07 0 
1.53998e+07 -1.2002e+07 0 
0 0 0 
3.77995e+07 4.29353e+06 0 
4.29353e+06 2.01724e+07 0 
0 0 0 
2.01792e+07 5.92382e+06 0 
5.92382e+06 3.79685e+07 0 
0 0 0 
5.82281e+07 -6.54385e+06 0 
-6.54385e+06 5.03922e+07 0 
0 0 0 
1.33337e+07 -1.01255e+07 0 
-1.01255e+07 1.98498e+07 0 
0 0 0 
-2.88962e+07 -7.2408e+06 0 
-7.2408e+06 -1.39162e+07 0 
0 0 0 
-1.27801e+06 -4.75586e+06 0 
-4.75586e+06 -2.0612e+07 0 
0 0 0 
-5.30931e+07 3.63549e+06 0 
3.63549e+06 -4.72012e+07 0 
0 0 0 
2.14859e+07 264210 0 
264210 -2.02889e+07 0 
0 0 0 
-2.80684e+07 5.4436e+06 0 
5.4436e+06 -3.09605e+07 0 
0 0 0 
1.78512e+07 6.69559e+06 0 
6.69559e+06 -1.69651e+06 0 
0 0 0 
-3.86712e+07 1.06664e+07 0 
1.06664e+07 -1.07154e+07 0 
0 0 0 
3.17756e+07 6.6548e+06 0 
6.6548e+06 -2.7226e+06 0 
0 0 0 
-2.02764e+07 -1.44675e+07 0 
-1.44675e+07 -1.72746e+07 0 
0 0 0 
-1.56204e+07 -5.77574e+06 0 
-5.77574e+06 -3.15963e+07 0 
0 0 0 
-2.19212e+07 -1.0237e+07 0 
-1.0237e+07 -3.72292e+07 0 
0 0 0 
-6.10769e+07 -4.02776e+06 0 
-4.02776e+06 -4.30366e+07 0 
0 0 0 
-1.01412e+06 -600867 0 
-600867 -1.17881e+07 0 
0 0 0 
1.30014e+07 914083 0 
914083 2.51841e+07 0 
0 0 0 
6.39961e+07 -5.37169e+06 0 
-5.37169e+06 6.20649e+07 0 
0 0 0 
1.75803e+07 -1.72683e+06 0 
-1.72683e+06 5.53811e+07 0 
0 0 0 
4.77666e+07 -3.98259e+06 0 
-3.98259e+06 6.0537e+07 0 
0 0 0 
-1.56328e+07 -3.44728e+06 0 
-3.44728e+06 3.55845e+06 0 
0 0 0 
-535038 -2.01447e+06 0 
-2.01447e+06 -1.34567e+07 0 
0 0 0 
-5.34192e+07 -2.60985e+06 0 
-2.60985e+06 -4.97856e+07 0 
0 0 0 
-3.16435e+07 5.56823e+06 0 
5.56823e+06 -5.67121e+07 0 
0 0 0 
-6.05582e+07 -3.36053e+06 0 
-3.36053e+06 -4.93027e+07 0 
0 0 0 
3.96585e+07 -6.43178e+06 0 
-6.43178e+06 3.77709e+06 0 
0 0 0 
-2.41081e+07 -9.53164e+06 0 
-9.53164e+06 -1.17424e+07 0 
0 0 0 
3.18196e+07 -2.63302e+06 0 
-2.63302e+06 960567 0 
0 0 0 
-4.28568e+07 -1.72826e+06 0 
-1.72826e+06 -4.70305e+07 0 
0 0 0 
-7.30976e+06 -4.44338e+06 0 
-4.44338e+06 -4.14792e+07 0 
0 0 0 
-7.49286e+07 1.16793e+07 0 
1.16793e+07 -5.38288e+07 0 
0 0 0 
2.81093e+07 -1.04614e+07 0 
-1.04614e+07 -8.99732e+06 0 
0 0 0 
-1.95903e+07 -4.15039e+06 0 
-4.15039e+06 -1.72022e+07 0 
0 0 0 
5.13938e+07 -1.68803e+07 0 
-1.68803e+07 2.29615e+06 0 
0 0 0 
-3.45839e+07 -1.00581e+07 0 
-1.00581e+07 -2.79415e+07 0 
0 0 0 
-578323 -3.30363e+06 0 
-3.30363e+06 -1.3002e+07 0 
0 0 0 
-5.16358e+07 1.04345e+07 0 
1.04345e+07 -1.41133e+07 0 
0 0 0 
2.99139e+07 1.3366e+07 0 
1.3366e+07 1.21673e+07 0 
0 0 0 
-6.13132e+06 1.32259e+07 0 
1.32259e+07 1.00229e+07 0 
0 0 0 
4.98734e+07 1.19509e+06 0 
1.19509e+06 4.90631e+07 0 
0 0 0 
-8.22225e+06 -6.18607e+06 0 
-6.18607e+06 2.34917e+07 0 
0 0 0 
-8.39259e+06 -1.06162e+07 0 
-1.06162e+07 1.08295e+07 0 
0 0 0 
-2.85341e+07 -1.47604e+06 0 
-1.47604e+06 -8.63265e+06 0 
0 0 0 
3.74899e+07 -5.19358e+06 0 
-5.19358e+06 5.44373e+06 0 
0 0 0 
-2.76903e+07 -3.19352e+06 0 
-3.19352e+06 -2.63915e+07 0 
0 0 0 
-1.06868e+07 2.82142e+06 0 
2.82142e+06 -2.1386e+07 0 
0 0 0 
1.21282e+07 -2.87786e+06 0 
-2.87786e+06 -3.15604e+06 0 
0 0 0 
-5.7489e+06 6.55147e+06 0 
6.55147e+06 -2.79259e+07 0 
0 0 0 
8.35203e+06 7.25894e+06 0 
7.25894e+06 -2.23816e+07 0 
0 0 0 
-3.14063e+07 7.66019e+06 0 
7.66019e+06 -4.12348e+07 0 
0 0 0 
-1.3753e+07 4.57918e+06 0 
4.57918e+06 -5.44495e+07 0 
0 0 0 
-5.74228e+07 632142 0 
632142 -6.41739e+07 0 
0 0 0 
-6.22629e+06 -1.69527e+06 0 
-1.69527e+06 -4.10251e+07 0 
0 0 0 
-3.95523e+07 4.62451e+06 0 
4.62451e+06 -3.67183e+07 0 
0 0 0 
2.72934e+07 -944883 0 
-944883 5.99421e+06 0 
0 0 0 
3.47002e+06 6.91787e+06 0 
6.91787e+06 1.10643e+07 0 
0 0 0 
2.20912e+07 5.25747e+06 0 
5.25747e+06 -5.9924e+06 0 
0 0 0 
3.31676e+07 46727.4 0 
46727.4 1.93936e+07 0 
0 0 0 
0 0 0 
0 0 0 
0 0 0 
6.42881e+06 7.51574e+06 0 
7.51574e+06 5.04453e+07 0 
0 0 0 
1.35094e+07 1.11123e+07 0 
1.11123e+07 7.80087e+07 0 
0 0 0 
3.89033e+07 7.22988e+06 0 
7.22988e+06 1.23632e+08 0 
0 0 0 
3.2427e+07 -3.56462e+06 0 
-3.56462e+06 8.64285e+07 0 
0 0 0 
8.84433e+06 -3.25126e+06 0 
-3.25126e+06 4.48607e+07 0 
0 0 0 
-7.74019e+06 -6.85052e+06 0 
-6.85052e+06 7.11581e+06 0 
0 0 0 
324164 3.33189e+06 0 
3.33189e+06 5.85694e+07 0 
0 0 0 
-1.97543e+06 1.49414e+07 0 
1.49414e+07 2.55625e+06 0 
0 0 0 
1.82276e+07 9.62346e+06 0 
9.62346e+06 2.32456e+07 0 
0 0 0 
8.45324e+06 4.97793e+06 0 
4.97793e+06 -8.74445e+06 0 
0 0 0 
4.73953e+07 -3.47752e+06 0 
-3.47752e+06 9.21398e+07 0 
0 0 0 
3.29245e+07 8.92547e+06 0 
8.92547e+06 5.66184e+07 0 
0 0 0 
4.03841e+07 7.122e+06 0 
7.122e+06 6.33372e+07 0 
0 0 0 
5.40135e+06 8.60074e+06 0 
8.60074e+06 -3.3352e+07 0 
0 0 0 
5.00216e+06 1.53992e+07 0 
1.53992e+07 6.46283e+06 0 
0 0 0 
-3.52846e+07 8.24437e+06 0 
8.24437e+06 1.44975e+07 0 
0 0 0 
-3.36656e+07 -1.13382e+06 0 
-1.13382e+06 -3.39511e+07 0 
0 0 0 
-1.33466e+07 1.35684e+07 0 
1.35684e+07 -6.48442e+07 0 
0 0 0 
8.837e+06 1.44183e+07 0 
1.44183e+07 -3.74098e+07 0 
0 0 0 
-3.48677e+07 8.88485e+06 0 
8.88485e+06 -4.00309e+07 0 
0 0 0 
-1.41328e+07 6.51683e+06 0 
6.51683e+06 -2.57328e+07 0 
0 0 0 
-1.5706e+07 -5.29733e+06 0 
-5.29733e+06 -5.9857e+07 0 
0 0 0 
6.38298e+06 -284833 0 
-284833 -2.45511e+07 0 
0 0 0 
1.65393e+07 -2.52556e+06 0 
-2.52556e+06 -2.40293e+07 0 
0 0 0 
2.73183e+07 -2.86179e+06 0 
-2.86179e+06 -4.96304e+06 0 
0 0 0 
5.04853e+07 1.81741e+07 0 
1.81741e+07 2.04003e+07 0 
0 0 0 
5.8017e+07 3.60001e+06 0 
3.60001e+06 -4.71627e+07 0 
0 0 0 
7.58288e+07 9.43257e+06 0 
9.43257e+06 -5.55758e+07 0 
0 0 0 
1.15928e+08 -5.43944e+06 0 
-5.43944e+06 4.58326e+07 0 
0 0 0 
9.42947e+07 -333446 0 
-333446 1.9859e+07 0 
0 0 0 
8.12301e+07 -1.22567e+07 0 
-1.22567e+07 3.81345e+07 0 
0 0 0 
2.93941e+07 -1.18025e+07 0 
-1.18025e+07 -2.26642e+07 0 
0 0 0 
-4.6657e+06 -1.92894e+07 0 
-1.92894e+07 -5.79419e+07 0 
0 0 0 
-2.10144e+07 -1.44394e+07 0 
-1.44394e+07 -2.77332e+07 0 
0 0 0 
-2.88218e+07 -1.17229e+07 0 
-1.17229e+07 1.29806e+07 0 
0 0 0 
-5.33433e+07 -5.22061e+06 0 
-5.22061e+06 -4.15826e+07 0 
0 0 0 
-2.37413e+07 -1.03334e+07 0 
-1.03334e+07 4.93758e+06 0 
0 0 0 
-2.01715e+07 -4.89943e+06 0 
-4.89943e+06 -1.61722e+07 0 
0 0 0 
-1.54188e+07 -1.12156e+07 0 
-1.12156e+07 -351347 0 
0 0 0 
-1.4153e+07 -277243 0 
-277243 2.70874e+06 0 
0 0 0 
-6.27685e+06 -1.36332e+06 0 
-1.36332e+06 6.63674e+07 0 
0 0 0 
-2.59348e+07 -5.80623e+06 0 
-5.80623e+06 4.22571e+07 0 
0 0 0 
-6.33577e+07 -2.2528e+06 0 
-2.2528e+06 -6.16136e+07 0 
0 0 0 
-1.92613e+07 -1.35066e+07 0 
-1.35066e+07 6.4709e+07 0 
0 0 0 
-2.72686e+07 -626338 0 
-626338 1.23837e+07 0 
0 0 0 
-9.04338e+06 2.8236e+06 0 
2.8236e+06 4.40689e+07 0 
0 0 0 
-1.54135e+07 1.40633e+07 0 
1.40633e+07 2.92658e+07 0 
0 0 0 
-1.5289e+07 -4.14966e+06 0 
-4.14966e+06 -9.08878e+06 0 
0 0 0 
2.87191e+07 3.04748e+06 0 
3.04748e+06 8.37627e+07 0 
0 0 0 
2.03217e+07 1.04201e+07 0 
1.04201e+07 4.33278e+07 0 
0 0 0 
1.44762e+07 9.45556e+06 0 
9.45556e+06 2.8709e+07 0 
0 0 0 
-1.09676e+07 -442745 0 
-442745 -2.61385e+07 0 
0 0 0 
1.08515e+07 -5.88311e+06 0 
-5.88311e+06 5.17156e+07 0 
0 0 0 
1.88773e+07 -2.96619e+06 0 
-2.96619e+06 5.5935e+07 0 
0 0 0 
6.84122e+06 -5.53852e+06 0 
-5.53852e+06 2.72254e+07 0 
0 0 0 
2.28571e+07 -3.79931e+06 0 
-3.79931e+06 3.95498e+07 0 
0 0 0 
3.09977e+07 1.15062e+06 0 
1.15062e+06 3.97135e+07 0 
0 0 0 
-2.64671e+06 5.02775e+06 0 
5.02775e+06 4.49129e+06 0 
0 0 0 
1.50544e+06 6.44204e+06 0 
6.44204e+06 1.77774e+07 0 
0 0 0 
-3.53292e+07 5.83934e+06 0 
5.83934e+06 -4.35502e+07 0 
0 0 0 
-3.67792e+07 2.09696e+06 0 
2.09696e+06 -6.30933e+07 0 
0 0 0 
-2.62696e+07 2.88875e+06 0 
2.88875e+06 -3.56555e+07 0 
0 0 0 
-3.90267e+07 -372739 0 
-372739 1.30092e+07 0 
0 0 0 
-5.17643e+07 7.66852e+06 0 
7.66852e+06 -2.74894e+07 0 
0 0 0 
0 0 0 
0 0 0 
0 0 0 
-5.10713e+06 -1.90461e+06 0 
-1.90461e+06 -1.46437e+06 0 
0 0 0 
2.21507e+07 -1.15618e+07 0 
-1.15618e+07 -6.6174e+06 0 
0 0 0 
-1.31072e+06 -9.48604e+06 0 
-9.48604e+06 -1.31572e+07 0 
0 0 0 
645193 -6.67583e+06 0 
-6.67583e+06 -6.64921e+06 0 
0 0 0 
-9.85693e+06 6.34005e+06 0 
6.34005e+06 -1.77011e+07 0 
0 0 0 
-3.57852e+07 1.81012e+07 0 
1.81012e+07 -3.24989e+07 0 
0 0 0 
2.34516e+07 1.40335e+07 0 
1.40335e+07 -330932 0 
0 0 0 
-8.30726e+06 1.31656e+07 0 
1.31656e+07 -1.24731e+07 0 
0 0 0 
3.30681e+07 -1.89627e+06 0 
-1.89627e+06 1.2632e+07 0 
0 0 0 
9.76522e+06 -1.61326e+07 0 
-1.61326e+07 2.11151e+07 0 
0 0 0 
-1.79927e+07 -1.07513e+07 0 
-1.07513e+07 9.55548e+06 0 
0 0 0 
1.81734e+07 -6.71067e+06 0 
-6.71067e+06 2.09913e+07 0 
0 0 0 
-4.03247e+07 -4.67715e+06 0 
-4.67715e+06 4.38638e+06 0 
0 0 0 
5.2588e+07 -809603 0 
-809603 4.06858e+07 0 
0 0 0 
-2.15673e+07 -973564 0 
-973564 1.87916e+07 0 
0 0 0 
5.06755e+07 -55016.8 0 
-55016.8 3.15768e+07 0 
0 0 0 
-3.64524e+07 2.23485e+06 0 
2.23485e+06 -3.85484e+06 0 
0 0 0 
1.33401e+07 774333 0 
774333 9.16561e+06 0 
0 0 0 
-2.00506e+07 -1.12927e+07 0 
-1.12927e+07 -1.77414e+07 0 
0 0 0 
-5.16034e+06 -1.28055e+07 0 
-1.28055e+07 -1.89189e+06 0 
0 0 0 
-2.38145e+07 -9.06717e+06 0 
-9.06717e+06 -1.07729e+07 0 
0 0 0 
-2.84058e+07 1.11482e+06 0 
1.11482e+06 -1.91124e+07 0 
0 0 0 
1.60109e+07 1.82853e+07 0 
1.82853e+07 -3.15089e+06 0 
0 0 0 
-1.13654e+07 1.54425e+07 0 
1.54425e+07 -1.7891e+07 0 
0 0 0 
4.79327e+07 9.6266e+06 0 
9.6266e+06 2.19175e+07 0 
0 0 0 
-5.00701e+06 -5.13511e+06 0 
-5.13511e+06 7.09845e+06 0 
0 0 0 
1.32972e+07 -1.44831e+07 0 
-1.44831e+07 409421 0 
0 0 0 
-1.9934e+07 -2.43087e+07 0 
-2.43087e+07 -8.14098e+06 0 
0 0 0 
6.46142e+06 -1.31946e+07 0 
-1.31946e+07 -2.15577e+07 0 
0 0 0 
-4.69078e+07 -6.38483e+06 0 
-6.38483e+06 -4.30008e+07 0 
0 0 0 
-1.94714e+07 6.2191e+06 0 
6.2191e+06 -3.13554e+07 0 
0 0 0 
-6.43767e+07 1.24655e+07 0 
1.24655e+07 -4.37009e+07 0 
0 0 0 
2.6854e+07 -5.78495e+06 0 
-5.78495e+06 -7.43e+06 0 
0 0 0 
-2.36034e+07 -1.25818e+07 0 
-1.25818e+07 -2.90171e+07 0 
0 0 0 
2.7719e+07 -8.26776e+06 0 
-8.26776e+06 -1.52586e+06 0 
0 0 0 
-2.47347e+07 -1.41202e+07 0 
-1.41202e+07 -3.38172e+06 0 
0 0 0 
2.38242e+07 -3.56627e+06 0 
-3.56627e+06 1.88384e+07 0 
0 0 0 
-4.48727e+07 1.19669e+07 0 
1.19669e+07 -6.00715e+06 0 
0 0 0 
2.2541e+07 1.44208e+07 0 
1.44208e+07 2.04769e+07 0 
0 0 0 
-6.32714e+06 7.35626e+06 0 
7.35626e+06 2.21265e+07 0 
0 0 0 
3.42465e+07 -2.06621e+06 0 
-2.06621e+06 4.87345e+07 0 
0 0 0 
4.63483e+06 -1.49093e+07 0 
-1.49093e+07 4.92063e+07 0 
0 0 0 
5.07811e+07 -8.27748e+06 0 
-8.27748e+06 4.91941e+07 0 
0 0 0 
-3.40897e+07 1.02684e+07 0 
1.02684e+07 1.46652e+06 0 
0 0 0 
3.77703e+07 1.66026e+07 0 
1.66026e+07 1.86712e+07 0 
0 0 0 
-3.54351e+07 1.44303e+07 0 
1.44303e+07 -7.34525e+06 0 
0 0 0 
1.26818e+07 -114787 0 
-114787 -1.81902e+06 0 
0 0 0 
-2.59139e+07 -3.85128e+06 0 
-3.85128e+06 -4.50331e+06 0 
0 0 0 
2.80858e+06 -1.86838e+07 0 
-1.86838e+07 1.375e+07 0 
0 0 0 
-8.904e+06 -1.44701e+06 0 
-1.44701e+06 1.20688e+07 0 
0 0 0 
2.28428e+07 -4.4249e+06 0 
-4.4249e+06 2.37993e+07 0 
0 0 0 
-731348 -5.58359e+06 0 
-5.58359e+06 2.03093e+07 0 
0 0 0 
-1.14123e+06 14233.7 0 
14233.7 1.41634e+07 0 
0 0 0 
4.07606e+07 4.28177e+06 0 
4.28177e+06 1.45364e+07 0 
0 0 0 
-3.05451e+06 2.58592e+06 0 
2.58592e+06 1.17052e+07 0 
0 0 0 
3.01752e+07 8.644e+06 0 
8.644e+06 8.01241e+06 0 
0 0 0 
-2.45473e+07 6.81142e+06 0 
6.81142e+06 -416387 0 
0 0 0 
-2.61003e+06 1.8606e+06 0 
1.8606e+06 1.76836e+07 0 
0 0 0 
-1.8582e+07 1.02839e+07 0 
1.02839e+07 1.0323e+07 0 
0 0 0 
2.12572e+07 4.21858e+06 0 
4.21858e+06 3.48396e+07 0 
0 0 0 
-3.2084e+07 1.2101e+07 0 
1.2101e+07 1.39314e+07 0 
0 0 0 
3.9059e+07 1.99042e+06 0 
1.99042e+06 3.91725e+07 0 
0 0 0 
3.41762e+06 -1.35298e+06 0 
-1.35298e+06 2.42501e+07 0 
0 0 0 
3.19751e+07 -5.93646e+06 0 
-5.93646e+06 2.59353e+07 0 
0 0 0 
-3.46159e+07 8.93053e+06 0 
8.93053e+06 -9.50619e+06 0 
0 0 0 
-3.1296e+07 -5.5021e+06 0 
-5.5021e+06 -1.64996e+07 0 
0 0 0 
0 0 0 
0 0 0 
0 0 0 
1.56583e+07 -1.07799e+06 0 
-1.07799e+06 5.83371e+07 0 
0 0 0 
1.16204e+07 2.15187e+06 0 
2.15187e+06 7.2925e+07 0 
0 0 0 
1.16082e+07 -2.98616e+06 0 
-2.98616e+06 1.07623e+08 0 
0 0 0 
-1.34551e+07 -6.03555e+06 0 
-6.03555e+06 6.86508e+07 0 
0 0 0 
-3.58959e+07 -2.51361e+07 0 
-2.51361e+07 2.08911e+06 0 
0 0 0 
-3.61674e+07 -1.41017e+07 0 
-1.41017e+07 2.62279e+07 0 
0 0 0 
-2.2044e+07 -4.48766e+06 0 
-4.48766e+06 6.08127e+07 0 
0 0 0 
-4.89901e+07 1.64514e+07 0 
1.64514e+07 1.49696e+07 0 
0 0 0 
-5.82893e+07 1.49083e+07 0 
1.49083e+07 -2.07354e+07 0 
0 0 0 
-4.73554e+07 6.49592e+06 0 
6.49592e+06 -2.53602e+07 0 
0 0 0 
-2.3746e+07 -4.52601e+06 0 
-4.52601e+06 4.36052e+07 0 
0 0 0 
-1.77524e+07 -4.89007e+06 0 
-4.89007e+06 6.0804e+07 0 
0 0 0 
-3.04045e+07 -250685 0 
-250685 4.26832e+07 0 
0 0 0 
-6.44634e+07 1.24592e+07 0 
1.24592e+07 -5.78545e+07 0 
0 0 0 
-6.80146e+07 -4.82322e+06 0 
-4.82322e+06 -1.86201e+07 0 
0 0 0 
-3.77196e+07 -1.78421e+06 0 
-1.78421e+06 4.46832e+06 0 
0 0 0 
-3.28926e+07 2.29714e+07 0 
2.29714e+07 -2.30657e+07 0 
0 0 0 
2.99001e+07 3.45642e+07 0 
3.45642e+07 -6.1336e+07 0 
0 0 0 
7.03057e+06 1.67267e+07 0 
1.67267e+07 -3.92834e+07 0 
0 0 0 
219427 1.08696e+07 0 
1.08696e+07 -4.78789e+07 0 
0 0 0 
-847080 -1.75823e+07 0 
-1.75823e+07 -1.23168e+07 0 
0 0 0 
-6.14882e+07 -6.74299e+06 0 
-6.74299e+06 -6.12948e+07 0 
0 0 0 
-7.04675e+07 9.18132e+06 0 
9.18132e+06 -5.04106e+07 0 
0 0 0 
-6.14349e+07 -4.07873e+06 0 
-4.07873e+06 -5.46216e+07 0 
0 0 0 
-3.06261e+07 5.28938e+06 0 
5.28938e+06 -5.86108e+06 0 
0 0 0 
-3.72423e+07 1.76953e+07 0 
1.76953e+07 -1.05318e+07 0 
0 0 0 
-7.44726e+07 1.63465e+07 0 
1.63465e+07 -8.83706e+07 0 
0 0 0 
-8.58291e+07 1.01476e+06 0 
1.01476e+06 -1.13565e+08 0 
0 0 0 
-6.63335e+07 -3.39825e+06 0 
-3.39825e+06 -3.28259e+07 0 
0 0 0 
-6.01026e+07 -1.32071e+07 0 
-1.32071e+07 -3.23929e+07 0 
0 0 0 
-4.39567e+07 -1.79846e+07 0 
-1.79846e+07 -1.82952e+07 0 
0 0 0 
-5.57266e+07 -2.27571e+07 0 
-2.27571e+07 -5.37087e+07 0 
0 0 0 
-8.82585e+07 -2.4683e+07 0 
-2.4683e+07 -8.58371e+07 0 
0 0 0 
-7.18131e+07 -2.76123e+07 0 
-2.76123e+07 -4.06972e+07 0 
0 0 0 
-5.79168e+07 -1.93364e+07 0 
-1.93364e+07 1.04725e+07 0 
0 0 0 
-6.68978e+07 -2.94419e+06 0 
-2.94419e+06 -1.16976e+07 0 
0 0 0 
-6.94447e+07 4.42034e+06 0 
4.42034e+06 -3.30033e+07 0 
0 0 0 
-6.11954e+07 -6.09142e+06 0 
-6.09142e+06 -1.6286e+07 0 
0 0 0 
-5.91847e+07 3.04722e+06 0 
3.04722e+06 -2.25823e+07 0 
0 0 0 
-2.57784e+07 7.49507e+06 0 
7.49507e+06 5.79393e+06 0 
0 0 0 
1.08042e+07 3.01242e+06 0 
3.01242e+06 6.10861e+07 0 
0 0 0 
1.11113e+07 -1.04368e+07 0 
-1.04368e+07 4.27173e+07 0 
0 0 0 
-1.90664e+06 -5.08499e+06 0 
-5.08499e+06 -1.89507e+07 0 
0 0 0 
3.83663e+07 -1.12806e+06 0 
-1.12806e+06 7.04364e+07 0 
0 0 0 
3.66422e+07 6.34673e+06 0 
6.34673e+06 4.86671e+07 0 
0 0 0 
4.25207e+07 2.23133e+06 0 
2.23133e+06 6.24598e+07 0 
0 0 0 
2.63082e+07 2.57714e+06 0 
2.57714e+06 2.25906e+07 0 
0 0 0 
8.76509e+06 263184 0 
263184 1.49914e+07 0 
0 0 0 
4.07297e+07 1.07262e+07 0 
1.07262e+07 1.02907e+08 0 
0 0 0 
1.62529e+07 1.15003e+07 0 
1.15003e+07 3.09982e+07 0 
0 0 0 
-195037 936174 0 
936174 2.04593e+07 0 
0 0 0 
-2.04959e+07 5.7388e+06 0 
5.7388e+06 -3.93247e+07 0 
0 0 0 
2.3695e+07 2.14073e+06 0 
2.14073e+06 6.57493e+07 0 
0 0 0 
1.97983e+07 1.80971e+06 0 
1.80971e+06 5.04903e+07 0 
0 0 0 
3.2534e+07 6.48717e+06 0 
6.48717e+06 4.25861e+07 0 
0 0 0 
5.15571e+07 2.00032e+06 0 
2.00032e+06 3.8696e+07 0 
0 0 0 
5.20671e+07 -2.70906e+06 0 
-2.70906e+06 4.95057e+07 0 
0 0 0 
4.76647e+07 -6.26988e+06 0 
-6.26988e+06 3.16399e+07 0 
0 0 0 
4.16445e+07 560804 0 
560804 2.49734e+07 0 
0 0 0 
1.9869e+07 -7.11069e+06 0 
-7.11069e+06 -3.16435e+07 0 
0 0 0 
2.58901e+06 -3.40723e+06 0 
-3.40723e+06 -3.67146e+07 0 
0 0 0 
9.36851e+06 2.92123e+06 0 
2.92123e+06 -2.94298e+07 0 
0 0 0 
4.74802e+07 -169483 0 
-169483 3.70292e+07 0 
0 0 0 
3.45587e+07 8.32487e+06 0 
8.32487e+06 894578 0 
0 0 0 
3.09348e+07 -2.02687e+06 0 
-2.02687e+06 1.44012e+07 0 
0 0 0 
0 0 0 
0 0 0 
0 0 0 
3.95558e+06 1.96078e+06 0 
1.96078e+06 -143103 0 
0 0 0 
-1.89785e+06 -5.70721e+06 0 
-5.70721e+06 2.45614e+06 0 
0 0 0 
2.6078e+07 -9.34422e+06 0 
-9.34422e+06 4.45418e+06 0 
0 0 0 
-425869 -2.53593e+06 0 
-2.53593e+06 -1.677e+07 0 
0 0 0 
2.75635e+06 3.23346e+06 0 
3.23346e+06 -2.59798e+07 0 
0 0 0 
-3.85671e+07 9.17556e+06 0 
9.17556e+06 -5.56277e+07 0 
0 0 0 
-626298 2.43775e+07 0 
2.43775e+07 -4.64963e+07 0 
0 0 0 
-3.12438e+07 8.08424e+06 0 
8.08424e+06 -3.38799e+07 0 
0 0 0 
5.87487e+06 2.16304e+06 0 
2.16304e+06 -1.95221e+07 0 
0 0 0 
-1.36668e+07 -1.46006e+07 0 
-1.46006e+07 -1.63302e+07 0 
0 0 0 
-7.46625e+06 -1.6382e+07 0 
-1.6382e+07 -3.58303e+06 0 
0 0 0 
1.49556e+07 -3.86612e+06 0 
-3.86612e+06 9.55401e+06 0 
0 0 0 
-2.09858e+07 9.41713e+06 0 
9.41713e+06 6.47417e+06 0 
0 0 0 
4.10529e+07 1.51069e+07 0 
1.51069e+07 3.52457e+07 0 
0 0 0 
-1.80716e+07 4.46126e+06 0 
4.46126e+06 1.15591e+07 0 
0 0 0 
4.38177e+07 5.65679e+06 0 
5.65679e+06 1.9314e+07 0 
0 0 0 
-4.50497e+07 448772 0 
448772 -1.13027e+07 0 
0 0 0 
2.55844e+07 -4.57595e+06 0 
-4.57595e+06 3.07781e+06 0 
0 0 0 
-5.16298e+07 -9.69533e+06 0 
-9.69533e+06 -2.01036e+07 0 
0 0 0 
4.33025e+06 -1.221e+07 0 
-1.221e+07 -6.37978e+06 0 
0 0 0 
-9.81611e+06 -3.72299e+06 0 
-3.72299e+06 -1.01827e+07 0 
0 0 0 
-9.8737e+06 8.27452e+06 0 
8.27452e+06 -1.52189e+07 0 
0 0 0 
2.62627e+07 1.7036e+07 0 
1.7036e+07 -5.49128e+06 0 
0 0 0 
-2.04373e+07 1.62401e+07 0 
1.62401e+07 -4.90774e+06 0 
0 0 0 
2.12729e+07 5.35626e+06 0 
5.35626e+06 -1.06735e+07 0 
0 0 0 
-5.26255e+07 -1.63698e+07 0 
-1.63698e+07 -3.00795e+07 0 
0 0 0 
1.65521e+07 -2.81093e+07 0 
-2.81093e+07 2.09248e+06 0 
0 0 0 
-2.58328e+07 -2.50176e+07 0 
-2.50176e+07 -2.45246e+07 0 
0 0 0 
3.39928e+07 -2.1179e+07 0 
-2.1179e+07 5.3477e+06 0 
0 0 0 
-2.32176e+07 -4.40337e+06 0 
-4.40337e+06 -2.06527e+07 0 
0 0 0 
-5.26738e+06 9.56191e+06 0 
9.56191e+06 -1.65497e+07 0 
0 0 0 
-6.7747e+07 1.29378e+07 0 
1.29378e+07 -4.83481e+07 0 
0 0 0 
3.79127e+06 9.04385e+06 0 
9.04385e+06 -1.91178e+07 0 
0 0 0 
-2.25236e+07 -9.63282e+06 0 
-9.63282e+06 2.36407e+06 0 
0 0 0 
3.5831e+07 -6.68257e+06 0 
-6.68257e+06 1.52185e+07 0 
0 0 0 
-2.93638e+07 -1.01426e+07 0 
-1.01426e+07 -1.98985e+07 0 
0 0 0 
3.53478e+07 -2.11345e+06 0 
-2.11345e+06 -878485 0 
0 0 0 
-3.30488e+07 5.59782e+06 0 
5.59782e+06 -3.83153e+07 0 
0 0 0 
4.55103e+06 1.47114e+07 0 
1.47114e+07 -3.01714e+07 0 
0 0 0 
-4.48197e+07 6.73032e+06 0 
6.73032e+06 -3.00738e+07 0 
0 0 0 
8.04233e+06 398150 0 
398150 -4.71409e+06 0 
0 0 0 
-3.64954e+07 -4.87726e+06 0 
-4.87726e+06 -1.47951e+07 0 
0 0 0 
6.0484e+07 -2.22111e+07 0 
-2.22111e+07 3.11286e+07 0 
0 0 0 
-1.49766e+07 -1.17035e+07 0 
-1.17035e+07 2.9535e+06 0 
0 0 0 
3.42507e+07 -6.81565e+06 0 
-6.81565e+06 1.24319e+07 0 
0 0 0 
-4.53645e+07 -589396 0 
-589396 -3.08337e+07 0 
0 0 0 
2.37186e+06 2.81697e+06 0 
2.81697e+06 -1.84017e+07 0 
0 0 0 
-4.37343e+07 5.61886e+06 0 
5.61886e+06 -3.59126e+07 0 
0 0 0 
6.13393e+06 1.63761e+06 0 
1.63761e+06 -26330.5 0 
0 0 0 
-1.31999e+07 -3.0513e+06 0 
-3.0513e+06 1.19419e+07 0 
0 0 0 
2.69598e+07 -2.3109e+06 0 
-2.3109e+06 2.95788e+07 0 
0 0 0 
-1.00222e+06 1.27059e+06 0 
1.27059e+06 2.13301e+07 0 
0 0 0 
1.11511e+07 2.90221e+06 0 
2.90221e+06 1.74728e+07 0 
0 0 0 
4.5042e+07 2.6718e+06 0 
2.6718e+06 3.8785e+07 0 
0 0 0 
6.6644e+06 -1.12959e+06 0 
-1.12959e+06 1.54553e+07 0 
0 0 0 
3.09798e+07 4.41224e+06 0 
4.41224e+06 2.97794e+07 0 
0 0 0 
-3.23986e+07 978335 0 
978335 -7.57241e+06 0 
0 0 0 
1.0957e+07 8.77022e+06 0 
8.77022e+06 5.12472e+06 0 
0 0 0 
-3.79948e+07 7.08619e+06 0 
7.08619e+06 -1.26969e+07 0 
0 0 0 
7.88655e+06 64082.1 0 
64082.1 -1.15808e+07 0 
0 0 0 
-4.61723e+07 4.90299e+06 0 
4.90299e+06 -1.6281e+07 0 
0 0 0 
1.98143e+07 1.68111e+06 0 
1.68111e+06 4.96712e+06 0 
0 0 0 
-3.06463e+07 -1.18648e+07 0 
-1.18648e+07 -1.88721e+07 0 
0 0 0 
3.75684e+07 -1.19802e+07 0 
-1.19802e+07 4.51808e+06 0 
0 0 0 
-2.47252e+07 -1.62296e+07 0 
-1.62296e+07 -1.69307e+07 0 
0 0 0 
1.31763e+07 2.33649e+06 0 
2.33649e+06 -2.8158e+06 0 
0 0 0 
-1.7317e+06 6.2197e+06 0 
6.2197e+06 -3.17535e+07 0 
0 0 0 
0 0 0 
0 0 0 
0 0 0 
2.16454e+07 -52115.2 0 
-52115.2 5.92112e+07 0 
0 0 0 
1.71078e+07 535454 0 
535454 6.38418e+07 0 
0 0 0 
2.44291e+07 -4.91172e+06 0 
-4.91172e+06 1.06791e+08 0 
0 0 0 
1.80591e+07 -1.54015e+07 0 
-1.54015e+07 7.22096e+07 0 
0 0 0 
-3.50597e+06 -1.03214e+07 0 
-1.03214e+07 1.36595e+06 0 
0 0 0 
1.26688e+07 -1.8111e+07 0 
-1.8111e+07 5.76643e+07 0 
0 0 0 
1.46851e+07 740828 0 
740828 9.41971e+07 0 
0 0 0 
6.14274e+06 1.14893e+07 0 
1.14893e+07 6.47422e+07 0 
0 0 0 
-5.02334e+07 1.25846e+07 0 
1.25846e+07 -4.38388e+07 0 
0 0 0 
-6.3872e+07 1.2746e+06 0 
1.2746e+06 -2.8076e+07 0 
0 0 0 
-4.84399e+07 2.02887e+06 0 
2.02887e+06 1.95372e+07 0 
0 0 0 
-3.13129e+07 4.0215e+06 0 
4.0215e+06 6.23749e+07 0 
0 0 0 
-2.82312e+07 3.03764e+06 0 
3.03764e+06 3.92555e+07 0 
0 0 0 
-6.96839e+07 -8.96188e+06 0 
-8.96188e+06 -4.56142e+07 0 
0 0 0 
-5.29491e+07 6.30989e+06 0 
6.30989e+06 -3.72814e+07 0 
0 0 0 
-2.59963e+07 5.68927e+06 0 
5.68927e+06 2.84012e+07 0 
0 0 0 
-3.49381e+07 2.88861e+07 0 
2.88861e+07 2.65386e+07 0 
0 0 0 
5.69934e+07 4.79945e+07 0 
4.79945e+07 2.24317e+07 0 
0 0 0 
2.64148e+07 2.7748e+07 0 
2.7748e+07 2.21759e+06 0 
0 0 0 
5.03369e+07 -2.48138e+07 0 
-2.48138e+07 -2.18795e+07 0 
0 0 0 
1.18118e+07 -3.82281e+07 0 
-3.82281e+07 4.12253e+07 0 
0 0 0 
-2.34397e+07 -1.94034e+07 0 
-1.94034e+07 -3.55071e+07 0 
0 0 0 
-2.38302e+07 -2.89054e+06 0 
-2.89054e+06 -3.77978e+07 0 
0 0 0 
-4.65177e+07 -4.84509e+06 0 
-4.84509e+06 -4.62914e+07 0 
0 0 0 
-4.84937e+07 754656 0 
754656 3.91775e+06 0 
0 0 0 
-6.59882e+07 1.20966e+07 0 
1.20966e+07 -1.37414e+07 0 
0 0 0 
-1.17163e+08 4.98608e+06 0 
4.98608e+06 -1.19281e+08 0 
0 0 0 
-1.29007e+08 -536190 0 
-536190 -1.27334e+08 0 
0 0 0 
-8.09671e+07 -46075.9 0 
-46075.9 -4.41e+07 0 
0 0 0 
-7.50806e+07 -7.96787e+06 0 
-7.96787e+06 -5.92529e+07 0 
0 0 0 
-4.37931e+07 -5.46814e+06 0 
-5.46814e+06 -9.69832e+06 0 
0 0 0 
-3.02018e+07 -1.86099e+07 0 
-1.86099e+07 -4.971e+07 0 
0 0 0 
-3.42257e+06 -2.04009e+07 0 
-2.04009e+07 -7.24787e+07 0 
0 0 0 
3.40586e+07 -2.21913e+07 0 
-2.21913e+07 6.47322e+06 0 
0 0 0 
5.7917e+07 -1.27247e+07 0 
-1.27247e+07 6.43363e+07 0 
0 0 0 
4.30343e+07 -7.40444e+06 0 
-7.40444e+06 4.64193e+07 0 
0 0 0 
1.74993e+07 2.54416e+06 0 
2.54416e+06 -8.12147e+06 0 
0 0 0 
3.26495e+07 3.83422e+06 0 
3.83422e+06 2.47203e+07 0 
0 0 0 
1.28402e+07 -4.98973e+06 0 
-4.98973e+06 -2.02355e+07 0 
0 0 0 
-2.54899e+06 6.40474e+06 0 
6.40474e+06 3.14411e+07 0 
0 0 0 
-1.71754e+07 3.63526e+06 0 
3.63526e+06 3.73247e+07 0 
0 0 0 
-1.7487e+07 2.90181e+06 0 
2.90181e+06 2.59907e+07 0 
0 0 0 
-4.84845e+07 -8.86356e+06 0 
-8.86356e+06 -4.83784e+07 0 
0 0 0 
-9.30085e+06 -7.96526e+06 0 
-7.96526e+06 8.6693e+07 0 
0 0 0 
-9.48984e+06 1.43019e+07 0 
1.43019e+07 3.28238e+07 0 
0 0 0 
1.16611e+07 8.20806e+06 0 
8.20806e+06 5.25376e+07 0 
0 0 0 
4.43004e+06 1.64855e+07 0 
1.64855e+07 3.20079e+06 0 
0 0 0 
1.58936e+07 -1.61565e+06 0 
-1.61565e+06 2.46816e+07 0 
0 0 0 
1.9853e+07 -83302.3 0 
-83302.3 9.17706e+07 0 
0 0 0 
-4.12029e+06 130611 0 
130611 2.70083e+07 0 
0 0 0 
3.40543e+06 5.44334e+06 0 
5.44334e+06 2.75172e+07 0 
0 0 0 
-1.71402e+07 9.05304e+06 0 
9.05304e+06 -4.02715e+07 0 
0 0 0 
6.26493e+06 202082 0 
202082 5.96382e+07 0 
0 0 0 
-1.92288e+06 4.06255e+06 0 
4.06255e+06 4.37222e+07 0 
0 0 0 
-1.56631e+07 4.41912e+06 0 
4.41912e+06 2.85994e+07 0 
0 0 0 
-3.68988e+07 1.09474e+07 0 
1.09474e+07 1.42809e+06 0 
0 0 0 
-1.29533e+07 999096 0 
999096 2.58901e+07 0 
0 0 0 
-1.89292e+07 -3.24191e+06 0 
-3.24191e+06 508013 0 
0 0 0 
-2.34904e+07 -5.95787e+06 0 
-5.95787e+06 6.05778e+06 0 
0 0 0 
-5.11737e+07 -8.25941e+06 0 
-8.25941e+06 -6.0116e+07 0 
0 0 0 
-3.03808e+07 627538 0 
627538 -3.00662e+07 0 
0 0 0 
-3.47494e+07 3.3913e+06 0 
3.3913e+06 -4.75078e+07 0 
0 0 0 
-7.82173e+06 5.04375e+06 0 
5.04375e+06 3.23182e+07 0 
0 0 0 
-2.91505e+07 1.51135e+07 0 
1.51135e+07 -3.47332e+07 0 
0 0 0 
-2.55528e+07 3.84641e+06 0 
3.84641e+06 -9.91801e+06 0 
0 0 0 
-1.11021e+07 -2.63857e+06 0 
-2.63857e+06 5.51858e+06 0 
0 0 0 
0 0 0 
0 0 0 
0 0 0 
9.49341e+06 -4.76731e+06 0 
-4.76731e+06 1.24469e+06 0 
0 0 0 
-2.14947e+07 -6.56811e+06 0 
-6.56811e+06 4.0493e+06 0 
0 0 0 
4.15781e+07 -1.83026e+07 0 
-1.83026e+07 3.75018e+07 0 
0 0 0 
2.67561e+07 -1.36154e+07 0 
-1.36154e+07 4.09599e+07 0 
0 0 0 
3.5067e+07 -1.22878e+07 0 
-1.22878e+07 4.79756e+07 0 
0 0 0 
1.66496e+07 8.06666e+06 0 
8.06666e+06 3.63194e+07 0 
0 0 0 
-2.48934e+06 1.76068e+07 0 
1.76068e+07 2.17701e+07 0 
0 0 0 
-2.13568e+07 1.30861e+07 0 
1.30861e+07 -1.09041e+07 0 
0 0 0 
-1.96237e+07 1.87905e+06 0 
1.87905e+06 -1.95806e+07 0 
0 0 0 
-9.12521e+06 -619077 0 
-619077 -1.94789e+07 0 
0 0 0 
-8.16238e+06 -1.94883e+06 0 
-1.94883e+06 -1.01399e+06 0 
0 0 0 
3.38965e+07 4.41285e+06 0 
4.41285e+06 3.25265e+07 0 
0 0 0 
-6.3799e+06 892770 0 
892770 2.71675e+07 0 
0 0 0 
3.19087e+07 319796 0 
319796 2.6905e+07 0 
0 0 0 
-2.16549e+07 -1.06458e+07 0 
-1.06458e+07 -9.62898e+06 0 
0 0 0 
1.79447e+07 -1.24873e+07 0 
-1.24873e+07 -3.79748e+06 0 
0 0 0 
-2.6543e+07 273829 0 
273829 -2.85904e+07 0 
0 0 0 
4.49152e+06 -8.49844e+06 0 
-8.49844e+06 -2.80063e+07 0 
0 0 0 
-6.2728e+07 -1.00322e+06 0 
-1.00322e+06 -4.58175e+07 0 
0 0 0 
1.75208e+07 478330 0 
478330 1.63515e+06 0 
0 0 0 
1.15782e+06 3.30663e+06 0 
3.30663e+06 5.16205e+06 0 
0 0 0 
1.04627e+07 1.07546e+06 0 
1.07546e+06 2.24068e+07 0 
0 0 0 
3.38476e+07 1.11851e+07 0 
1.11851e+07 1.49008e+07 0 
0 0 0 
-2.51989e+07 1.41438e+07 0 
1.41438e+07 -4.39127e+07 0 
0 0 0 
-3.68621e+07 628462 0 
628462 -5.01061e+07 0 
0 0 0 
-7.55095e+07 -2.09945e+06 0 
-2.09945e+06 -7.59512e+07 0 
0 0 0 
-1.39619e+06 -1.32938e+07 0 
-1.32938e+07 -5.3524e+07 0 
0 0 0 
-3.33196e+07 -1.51703e+07 0 
-1.51703e+07 -4.11993e+07 0 
0 0 0 
4.88656e+07 -9.20007e+06 0 
-9.20007e+06 5.2986e+06 0 
0 0 0 
-1.20557e+06 -6.37158e+06 0 
-6.37158e+06 1.65189e+07 0 
0 0 0 
2.79384e+07 4.1001e+06 0 
4.1001e+06 2.91874e+07 0 
0 0 0 
-5.1478e+07 7.83175e+06 0 
7.83175e+06 -1.1865e+06 0 
0 0 0 
4.53986e+06 1.22491e+07 0 
1.22491e+07 3.52678e+06 0 
0 0 0 
-5.29849e+07 5.05555e+06 0 
5.05555e+06 -2.31625e+07 0 
0 0 0 
4.17371e+07 -7.20009e+06 0 
-7.20009e+06 2.62235e+07 0 
0 0 0 
-2.07262e+07 -8.77073e+06 0 
-8.77073e+06 1.86018e+07 0 
0 0 0 
6.65523e+07 -4.17359e+06 0 
-4.17359e+06 5.85245e+07 0 
0 0 0 
1.03534e+07 -4.14221e+06 0 
-4.14221e+06 5.59096e+07 0 
0 0 0 
4.23919e+07 8.86858e+06 0 
8.86858e+06 6.13988e+07 0 
0 0 0 
-3.47578e+07 1.39076e+07 0 
1.39076e+07 2.13788e+07 0 
0 0 0 
1.45109e+07 7.518e+06 0 
7.518e+06 4.07657e+07 0 
0 0 0 
-3.38765e+07 -3.4579e+06 0 
-3.4579e+06 2.82884e+07 0 
0 0 0 
5.81772e+07 -5.52651e+06 0 
-5.52651e+06 6.36943e+07 0 
0 0 0 
5.73003e+06 -1.54225e+07 0 
-1.54225e+07 5.6102e+07 0 
0 0 0 
4.33206e+07 -1.45533e+07 0 
-1.45533e+07 4.06606e+07 0 
0 0 0 
-1.51817e+07 -1.23647e+07 0 
-1.23647e+07 -2.02175e+06 0 
0 0 0 
1.65458e+07 3.3769e+06 0 
3.3769e+06 -1.25282e+06 0 
0 0 0 
-3.83093e+07 1.74598e+06 0 
1.74598e+06 -2.39896e+07 0 
0 0 0 
6.09585e+06 1.26997e+07 0 
1.26997e+07 -7.9738e+06 0 
0 0 0 
-2.46755e+07 4.89004e+06 0 
4.89004e+06 490210 0 
0 0 0 
1.67668e+07 3.88528e+06 0 
3.88528e+06 2.45887e+07 0 
0 0 0 
4.55276e+06 -9.83823e+06 0 
-9.83823e+06 2.79827e+07 0 
0 0 0 
2.22094e+07 -7.7528e+06 0 
-7.7528e+06 3.55437e+07 0 
0 0 0 
3.85596e+07 653687 0 
653687 2.16067e+07 0 
0 0 0 
4.87709e+06 -6.87915e+06 0 
-6.87915e+06 1.15139e+07 0 
0 0 0 
2.14589e+07 -831465 0 
-831465 3.61979e+06 0 
0 0 0 
-3.07059e+07 -1.15565e+06 0 
-1.15565e+06 -1.1223e+07 0 
0 0 0 
1.06454e+07 2.01922e+06 0 
2.01922e+06 -1.01875e+07 0 
0 0 0 
-5.59417e+07 -7.01433e+06 0 
-7.01433e+06 -4.36796e+07 0 
0 0 0 
2.02346e+07 7.46844e+06 0 
7.46844e+06 -1.68693e+07 0 
0 0 0 
-5.30801e+07 1.90454e+07 0 
1.90454e+07 -4.81289e+07 0 
0 0 0 
-4.47953e+06 9.05368e+06 0 
9.05368e+06 -2.87779e+07 0 
0 0 0 
-4.69159e+07 2.26156e+06 0 
2.26156e+06 -3.88977e+07 0 
0 0 0 
1.52897e+07 -76837.4 0 
-76837.4 -1.55674e+07 0 
0 0 0 
2.16924e+06 -1.49941e+07 0 
-1.49941e+07 -3.22597e+06 0 
0 0 0 
1.9208e+06 573042 0 
573042 2.20217e+07 0 
0 0 0 
-1.76706e+07 -795256 0 
-795256 -4.92873e+07 0 
0 0 0 
3.94827e+07 534174 0 
534174 4.12342e+07 0 
0 0 0 
0 0 0 
0 0 0 
0 0 0 
2.84044e+07 5.80026e+06 0 
5.80026e+06 7.21386e+07 0 
0 0 0 
4.13028e+07 9.45223e+06 0 
9.45223e+06 6.70053e+07 0 
0 0 0 
4.77561e+07 -6.27011e+06 0 
-6.27011e+06 7.26567e+07 0 
0 0 0 
4.71445e+07 -1.11809e+07 0 
-1.11809e+07 1.00258e+08 0 
0 0 0 
2.24117e+07 -8.62508e+06 0 
-8.62508e+06 2.19607e+07 0 
0 0 0 
5.35593e+07 1.03909e+06 0 
1.03909e+06 7.09033e+07 0 
0 0 0 
7.95842e+07 2.436e+06 0 
2.436e+06 1.31927e+08 0 
0 0 0 
3.5467e+07 -1.32834e+06 0 
-1.32834e+06 6.41321e+07 0 
0 0 0 
-1.11242e+07 -8.4362e+06 0 
-8.4362e+06 -2.19669e+07 0 
0 0 0 
-6.47956e+06 1.08892e+07 0 
1.08892e+07 -4.33771e+06 0 
0 0 0 
1.58288e+07 5.53091e+06 0 
5.53091e+06 3.99001e+07 0 
0 0 0 
4.07841e+07 1.1449e+07 0 
1.1449e+07 8.52828e+07 0 
0 0 0 
1.93275e+07 1.18253e+06 0 
1.18253e+06 3.69239e+07 0 
0 0 0 
4.71608e+06 -3.1255e+06 0 
-3.1255e+06 -2.18148e+07 0 
0 0 0 
5.98123e+06 4.77493e+06 0 
4.77493e+06 -8.16479e+06 0 
0 0 0 
3.12155e+07 1.09148e+07 0 
1.09148e+07 6.05449e+07 0 
0 0 0 
3.19201e+07 1.12868e+07 0 
1.12868e+07 5.37433e+07 0 
0 0 0 
3.34071e+07 3.46908e+07 0 
3.46908e+07 3.31264e+07 0 
0 0 0 
1.03459e+08 1.00982e+07 0 
1.00982e+07 7.95089e+07 0 
0 0 0 
4.54242e+07 1.56452e+07 0 
1.56452e+07 -2.31795e+06 0 
0 0 0 
2.04291e+07 -7.44483e+06 0 
-7.44483e+06 4.28372e+06 0 
0 0 0 
4.9952e+06 -1.21304e+06 0 
-1.21304e+06 -6.50352e+07 0 
0 0 0 
4.80125e+07 -1.52247e+07 0 
-1.52247e+07 8.84254e+06 0 
0 0 0 
2.32214e+07 -1.5033e+07 0 
-1.5033e+07 -3.51994e+06 0 
0 0 0 
2.06689e+07 -1.60748e+06 0 
-1.60748e+06 9.83331e+06 0 
0 0 0 
2.1416e+07 -1.30124e+07 0 
-1.30124e+07 1.96769e+07 0 
0 0 0 
-2.74571e+07 -7.98988e+06 0 
-7.98988e+06 -8.97489e+07 0 
0 0 0 
-4.1374e+07 -5.59838e+06 0 
-5.59838e+06 -9.23539e+07 0 
0 0 0 
-4.1467e+07 6.30673e+06 0 
6.30673e+06 -2.51934e+07 0 
0 0 0 
-5.23776e+07 2.288e+06 0 
2.288e+06 -6.42853e+07 0 
0 0 0 
-5.21223e+07 -1.44787e+06 0 
-1.44787e+06 -1.08932e+07 0 
0 0 0 
-6.03644e+07 6.14957e+06 0 
6.14957e+06 -6.03012e+07 0 
0 0 0 
-5.28243e+07 -6.11877e+06 0 
-6.11877e+06 -1.06576e+08 0 
0 0 0 
1.42756e+07 -6.25159e+06 0 
-6.25159e+06 1.18147e+07 0 
0 0 0 
2.68886e+07 -2.65888e+07 0 
-2.65888e+07 5.2257e+07 0 
0 0 0 
1.60286e+06 -1.77781e+07 0 
-1.77781e+07 4.09151e+07 0 
0 0 0 
-3.38949e+07 -8.5277e+06 0 
-8.5277e+06 -1.02269e+07 0 
0 0 0 
-4.72718e+07 -9.5195e+06 0 
-9.5195e+06 -1.22386e+07 0 
0 0 0 
-5.44487e+07 -1.19564e+07 0 
-1.19564e+07 -4.39624e+07 0 
0 0 0 
-1.98345e+07 -5.77972e+06 0 
-5.77972e+06 2.58104e+07 0 
0 0 0 
-2.19685e+07 -4.28264e+06 0 
-4.28264e+06 5.52538e+07 0 
0 0 0 
-4.91987e+07 1.76243e+06 0 
1.76243e+06 -5.51109e+06 0 
0 0 0 
-3.24226e+07 724354 0 
724354 -4.70588e+07 0 
0 0 0 
4.46304e+07 5.82988e+06 0 
5.82988e+06 1.20719e+08 0 
0 0 0 
2.54757e+07 1.73521e+07 0 
1.73521e+07 5.89558e+07 0 
0 0 0 
2.66868e+07 1.31869e+07 0 
1.31869e+07 6.67962e+07 0 
0 0 0 
-1.94139e+07 7.94227e+06 0 
7.94227e+06 -3.8875e+07 0 
0 0 0 
1.80727e+07 1.08239e+06 0 
1.08239e+06 3.93558e+07 0 
0 0 0 
6.14496e+07 765591 0 
765591 7.60277e+07 0 
0 0 0 
4.86184e+07 -1.17964e+06 0 
-1.17964e+06 6.86325e+07 0 
0 0 0 
4.03793e+07 5.56028e+06 0 
5.56028e+06 5.07621e+07 0 
0 0 0 
6.30136e+06 4.76118e+06 0 
4.76118e+06 -3.25492e+07 0 
0 0 0 
2.7546e+07 4.2846e+06 0 
4.2846e+06 6.87403e+07 0 
0 0 0 
2.62058e+07 9.56466e+06 0 
9.56466e+06 4.92461e+07 0 
0 0 0 
2.73908e+07 6.91195e+06 0 
6.91195e+06 4.71076e+07 0 
0 0 0 
1.04323e+07 6.33307e+06 0 
6.33307e+06 7.51708e+06 0 
0 0 0 
2.66893e+06 4.51306e+06 0 
4.51306e+06 2.45876e+07 0 
0 0 0 
-1.12418e+06 -5.64762e+06 0 
-5.64762e+06 4.01648e+06 0 
0 0 0 
1.04983e+07 1.03571e+06 0 
1.03571e+06 8.13104e+06 0 
0 0 0 
1.58769e+06 -1.12328e+07 0 
-1.12328e+07 -4.08209e+07 0 
0 0 0 
-6.50059e+06 -5.92527e+06 0 
-5.92527e+06 -9.39421e+06 0 
0 0 0 
4671.6 1.42301e+07 0 
1.42301e+07 -2.7413e+07 0 
0 0 0 
4.76487e+07 8.22419e+06 0 
8.22419e+06 5.90828e+07 0 
0 0 0 
2.1449e+07 9.15938e+06 0 
9.15938e+06 -2.78772e+07 0 
0 0 0 
3.96496e+07 855559 0 
855559 -626123 0 
0 0 0 
5.38027e+07 1.70454e+06 0 
1.70454e+06 3.00234e+07 0 
0 0 0 
2.9666e+07 6.35036e+06 0 
6.35036e+06 -1.91847e+07 0 
0 0 0 
0 0 0 
0 0 0 
0 0 0 
8.98988e+06 -2.62727e+06 0 
-2.62727e+06 1.00797e+06 0 
0 0 0 
-4.43416e+07 2.34611e+06 0 
2.34611e+06 -3.1818e+07 0 
0 0 0 
2.54536e+07 -1.01022e+07 0 
-1.01022e+07 -7.98581e+06 0 
0 0 0 
-386879 -6.76934e+06 0 
-6.76934e+06 -1.51579e+07 0 
0 0 0 
4.31415e+07 -6.40912e+06 0 
-6.40912e+06 8.99699e+06 0 
0 0 0 
1.90084e+07 -5.00494e+06 0 
-5.00494e+06 1.60528e+07 0 
0 0 0 
-1.071e+07 1.04504e+07 0 
1.04504e+07 -4.09293e+06 0 
0 0 0 
-2.67903e+07 1.91768e+06 0 
1.91768e+06 -1.62905e+07 0 
0 0 0 
-3.18616e+07 3.20915e+06 0 
3.20915e+06 -2.82269e+07 0 
0 0 0 
-4.6529e+06 2.35381e+06 0 
2.35381e+06 -1.04621e+07 0 
0 0 0 
-8.91466e+06 4.05226e+06 0 
4.05226e+06 -6.58515e+06 0 
0 0 0 
2.78089e+07 9.34759e+06 0 
9.34759e+06 1.16671e+07 0 
0 0 0 
-2.72642e+07 3.86943e+06 0 
3.86943e+06 -1.63761e+07 0 
0 0 0 
1.09874e+07 -2.01563e+06 0 
-2.01563e+06 -1.15357e+07 0 
0 0 0 
-2.08677e+07 -9.5126e+06 0 
-9.5126e+06 -7.68756e+06 0 
0 0 0 
1.43309e+07 -9.71008e+06 0 
-9.71008e+06 4.83835e+06 0 
0 0 0 
-1.04978e+06 -1.07304e+07 0 
-1.07304e+07 -1.30889e+07 0 
0 0 0 
9.05882e+06 -1.16063e+07 0 
-1.16063e+07 -4.98016e+06 0 
0 0 0 
-3.71884e+07 5.79623e+06 0 
5.79623e+06 -1.32912e+07 0 
0 0 0 
1.15016e+07 -1.68456e+06 0 
-1.68456e+06 4.75825e+06 0 
0 0 0 
1.09023e+07 1.21505e+06 0 
1.21505e+06 1.45117e+07 0 
0 0 0 
8.75777e+06 7.82545e+06 0 
7.82545e+06 1.29586e+07 0 
0 0 0 
3.06893e+07 -7.76481e+06 0 
-7.76481e+06 1.15128e+07 0 
0 0 0 
-3.5182e+07 -1.05157e+07 0 
-1.05157e+07 -1.88012e+07 0 
0 0 0 
-2.20684e+07 -9.31561e+06 0 
-9.31561e+06 -3.27091e+07 0 
0 0 0 
-6.21341e+07 1.39742e+06 0 
1.39742e+06 -4.2007e+07 0 
0 0 0 
4.85465e+06 -5.4089e+06 0 
-5.4089e+06 -7.41316e+06 0 
0 0 0 
-1.6623e+07 3.27513e+06 0 
3.27513e+06 3.92683e+06 0 
0 0 0 
6.51659e+07 4.60616e+06 0 
4.60616e+06 6.10354e+07 0 
0 0 0 
1.81228e+07 1.78903e+06 0 
1.78903e+06 4.9222e+07 0 
0 0 0 
3.65671e+07 1.69712e+06 0 
1.69712e+06 4.99318e+07 0 
0 0 0 
-2.89487e+07 137422 0 
137422 1.33258e+07 0 
0 0 0 
-2.74023e+06 7.35024e+06 0 
7.35024e+06 9.31706e+06 0 
0 0 0 
-4.53554e+07 8.13042e+06 0 
8.13042e+06 -1.04528e+07 0 
0 0 0 
1.48294e+07 7.9732e+06 0 
7.9732e+06 6.28409e+06 0 
0 0 0 
-1.72558e+07 4.35146e+06 0 
4.35146e+06 1.09419e+07 0 
0 0 0 
4.59518e+07 1.43699e+06 0 
1.43699e+06 3.79217e+07 0 
0 0 0 
8.22236e+06 -1.56274e+06 0 
-1.56274e+06 2.09103e+07 0 
0 0 0 
3.47119e+07 -8.00535e+06 0 
-8.00535e+06 2.19792e+07 0 
0 0 0 
-3.80385e+07 560603 0 
560603 -1.83279e+07 0 
0 0 0 
-1.34923e+07 2.2294e+06 0 
2.2294e+06 -1.91761e+07 0 
0 0 0 
-5.96488e+07 -16699.1 0 
-16699.1 -3.46771e+07 0 
0 0 0 
3.80298e+07 -1.49947e+06 0 
-1.49947e+06 1.28128e+07 0 
0 0 0 
-2.75404e+07 -7.81075e+06 0 
-7.81075e+06 5.51268e+06 0 
0 0 0 
5.36584e+07 -2.18071e+07 0 
-2.18071e+07 5.40988e+07 0 
0 0 0 
-4.5691e+06 -1.64463e+07 0 
-1.64463e+07 3.69965e+07 0 
0 0 0 
5.75329e+07 -1.32772e+07 0 
-1.32772e+07 3.50245e+07 0 
0 0 0 
-3.31086e+07 3.08593e+06 0 
3.08593e+06 -1.11109e+07 0 
0 0 0 
2.14828e+07 1.2617e+07 0 
1.2617e+07 -981269 0 
0 0 0 
-3.7408e+07 1.7991e+07 0 
1.7991e+07 -2.14587e+07 0 
0 0 0 
4.57677e+06 1.0778e+07 0 
1.0778e+07 1.16381e+07 0 
0 0 0 
-1.96497e+07 8.62615e+06 0 
8.62615e+06 1.51002e+07 0 
0 0 0 
5.10158e+07 -1.20291e+06 0 
-1.20291e+06 5.23195e+07 0 
0 0 0 
2.0768e+07 -7.93403e+06 0 
-7.93403e+06 4.37671e+07 0 
0 0 0 
2.07814e+07 -8.85055e+06 0 
-8.85055e+06 3.63619e+07 0 
0 0 0 
3.53624e+07 -1.02353e+07 0 
-1.02353e+07 3.86036e+07 0 
0 0 0 
-1.59736e+07 -2.34673e+06 0 
-2.34673e+06 -855795 0 
0 0 0 
7.99938e+06 -2.66289e+06 0 
-2.66289e+06 -1.61536e+06 0 
0 0 0 
-4.05067e+07 5.52015e+06 0 
5.52015e+06 -3.06987e+07 0 
0 0 0 
2.84963e+07 3.54012e+06 0 
3.54012e+06 -1.60316e+07 0 
0 0 0 
-5.33927e+07 1.0135e+07 0 
1.0135e+07 -4.21739e+07 0 
0 0 0 
-716954 4.57082e+06 0 
4.57082e+06 -3.25397e+07 0 
0 0 0 
-6.6114e+07 3.87252e+06 0 
3.87252e+06 -5.71433e+07 0 
0 0 0 
-904517 1.97059e+06 0 
1.97059e+06 -3.20686e+07 0 
0 0 0 
-8.3324e+06 6.53421e+06 0 
6.53421e+06 -1.5569e+07 0 
0 0 0 
7.45066e+06 2.24516e+06 0 
2.24516e+06 -1.34793e+07 0 
0 0 0 
1.63889e+07 1.30173e+07 0 
1.30173e+07 -1.19391e+07 0 
0 0 0 
1.99296e+07 1.45803e+07 0 
1.45803e+07 3.70201e+07 0 
0 0 0 
3.89705e+06 7.85571e+06 0 
7.85571e+06 -1.77507e+07 0 
0 0 0 
0 0 0 
0 0 0 
0 0 0 
3.88648e+07 1.17702e+07 0 
1.17702e+07 9.94537e+07 0 
0 0 0 
2.69231e+07 1.14246e+07 0 
1.14246e+07 4.86829e+07 0 
0 0 0 
2.59531e+07 2.73452e+06 0 
2.73452e+06 3.98271e+07 0 
0 0 0 
6.18468e+07 -2.15615e+06 0 
-2.15615e+06 1.13328e+08 0 
0 0 0 
3.8371e+07 -3.27354e+06 0 
-3.27354e+06 3.26432e+07 0 
0 0 0 
4.06518e+07 -6.42726e+06 0 
-6.42726e+06 7.75043e+07 0 
0 0 0 
5.13094e+07 -4.33398e+06 0 
-4.33398e+06 1.01804e+08 0 
0 0 0 
4.37874e+07 -1.42529e+07 0 
-1.42529e+07 5.7661e+07 0 
0 0 0 
2.95408e+07 -9.28506e+06 0 
-9.28506e+06 7.84683e+06 0 
0 0 0 
2.84298e+07 -2.15807e+06 0 
-2.15807e+06 2.724e+07 0 
0 0 0 
1.93833e+07 5.40982e+06 0 
5.40982e+06 3.79199e+07 0 
0 0 0 
3.5047e+07 9.66107e+06 0 
9.66107e+06 7.12962e+07 0 
0 0 0 
2.54777e+07 -9.68245e+06 0 
-9.68245e+06 2.59747e+07 0 
0 0 0 
1.80221e+07 -3.21432e+06 0 
-3.21432e+06 -9.96301e+06 0 
0 0 0 
2.27877e+07 6.61901e+06 0 
6.61901e+06 1.43536e+07 0 
0 0 0 
1.53743e+07 7.09944e+06 0 
7.09944e+06 4.58647e+07 0 
0 0 0 
-1.8467e+07 80645.2 0 
80645.2 4.95784e+07 0 
0 0 0 
1.81275e+06 -1.18819e+07 0 
-1.18819e+07 2.00216e+07 0 
0 0 0 
8.39701e+07 1.19564e+07 0 
1.19564e+07 7.25061e+06 0 
0 0 0 
-7.80271e+07 2.40285e+07 0 
2.40285e+07 -1.21714e+08 0 
0 0 0 
-7.47068e+06 1.67246e+07 0 
1.67246e+07 6.93464e+06 0 
0 0 0 
-6.49929e+06 -2.09001e+07 0 
-2.09001e+07 -8.35828e+07 0 
0 0 0 
-1.3934e+07 -7.36515e+06 0 
-7.36515e+06 3.90835e+07 0 
0 0 0 
-2.34823e+07 -6.2345e+06 0 
-6.2345e+06 -4.52977e+07 0 
0 0 0 
1.0364e+07 -8.80925e+06 0 
-8.80925e+06 1.20334e+07 0 
0 0 0 
-7.3383e+06 -6.21289e+06 0 
-6.21289e+06 -2.2353e+07 0 
0 0 0 
-3.0198e+07 -2.39508e+07 0 
-2.39508e+07 -6.18606e+07 0 
0 0 0 
-3.86624e+07 -2.95077e+06 0 
-2.95077e+06 -7.78669e+07 0 
0 0 0 
-9.57514e+06 -5.23331e+06 0 
-5.23331e+06 -1.6501e+07 0 
0 0 0 
-5.14082e+07 -9.50928e+06 0 
-9.50928e+06 -7.45933e+07 0 
0 0 0 
-2.50837e+07 -1.36759e+07 0 
-1.36759e+07 6.91596e+06 0 
0 0 0 
-7.4733e+07 1.24721e+06 0 
1.24721e+06 -6.16154e+07 0 
0 0 0 
-1.00286e+08 7.25158e+06 0 
7.25158e+06 -1.18273e+08 0 
0 0 0 
-7.16199e+07 2.22366e+06 0 
2.22366e+06 -3.78055e+07 0 
0 0 0 
-2.57043e+07 -2.00825e+07 0 
-2.00825e+07 2.55401e+07 0 
0 0 0 
4.10119e+06 -2.23185e+07 0 
-2.23185e+07 5.16377e+07 0 
0 0 0 
-8.94573e+06 -1.85826e+07 0 
-1.85826e+07 -1.22093e+07 0 
0 0 0 
-1.75543e+07 -2.33448e+07 0 
-2.33448e+07 1.31586e+06 0 
0 0 0 
-3.39559e+07 -1.13466e+07 0 
-1.13466e+07 -3.10176e+07 0 
0 0 0 
-2.03689e+07 -1.40129e+07 0 
-1.40129e+07 2.59801e+07 0 
0 0 0 
-1.11947e+07 -1.24029e+07 0 
-1.24029e+07 8.10489e+07 0 
0 0 0 
-2.51842e+07 1.19818e+07 0 
1.19818e+07 8.36167e+06 0 
0 0 0 
-5.81806e+07 1.84875e+07 0 
1.84875e+07 -3.81373e+07 0 
0 0 0 
-1.06263e+07 2.19975e+07 0 
2.19975e+07 1.04596e+08 0 
0 0 0 
-1.99249e+07 2.66261e+07 0 
2.66261e+07 2.97026e+07 0 
0 0 0 
6.96185e+06 9.80832e+06 0 
9.80832e+06 7.89357e+07 0 
0 0 0 
-2.20067e+07 2.17447e+07 0 
2.17447e+07 -6.47264e+07 0 
0 0 0 
8.23014e+06 8.65044e+06 0 
8.65044e+06 2.21762e+07 0 
0 0 0 
-1.38247e+06 -2.23431e+06 0 
-2.23431e+06 5.94652e+07 0 
0 0 0 
2.97873e+06 1.22546e+06 0 
1.22546e+06 5.15461e+07 0 
0 0 0 
5.54416e+06 4.86588e+06 0 
4.86588e+06 5.01913e+07 0 
0 0 0 
-9.25725e+06 1.96259e+06 0 
1.96259e+06 -2.53684e+07 0 
0 0 0 
4.05219e+07 486373 0 
486373 6.58422e+07 0 
0 0 0 
8.12923e+06 -7.46302e+06 0 
-7.46302e+06 3.4491e+07 0 
0 0 0 
-1.31314e+07 -6.33055e+06 0 
-6.33055e+06 4.08511e+07 0 
0 0 0 
-3.25695e+07 5.99169e+06 0 
5.99169e+06 -2.52134e+06 0 
0 0 0 
-2.7141e+07 6.71173e+06 0 
6.71173e+06 5.43091e+06 0 
0 0 0 
-5.96051e+06 9.52784e+06 0 
9.52784e+06 1.10646e+06 0 
0 0 0 
-6.4776e+06 -6.08719e+06 0 
-6.08719e+06 -5.73389e+06 0 
0 0 0 
-4.54389e+07 -3.77695e+06 0 
-3.77695e+06 -4.60478e+07 0 
0 0 0 
-1.70013e+07 4.98496e+06 0 
4.98496e+06 -1.3126e+07 0 
0 0 0 
-2.10255e+07 1.43878e+07 0 
1.43878e+07 -2.33089e+07 0 
0 0 0 
-4.01305e+06 6.92624e+06 0 
6.92624e+06 4.68488e+07 0 
0 0 0 
-3.09318e+07 1.38258e+07 0 
1.38258e+07 -6.37623e+07 0 
0 0 0 
-1.16578e+07 1.15393e+06 0 
1.15393e+06 -2.55518e+07 0 
0 0 0 
1.44384e+06 -3.53877e+06 0 
-3.53877e+06 2.41991e+07 0 
0 0 0 
-1.16455e+07 -1.14944e+06 0 
-1.14944e+06 -1.36049e+07 0 
0 0 0 
2.17012e+07 2.35315e+06 0 
2.35315e+06 3.8644e+07 0 
0 0 0 
0 0 0 
0 0 0 
0 0 0 
1.22143e+07 -4.22877e+06 0 
-4.22877e+06 1.02703e+07 0 
0 0 0 
-3.66902e+07 -6.76708e+06 0 
-6.76708e+06 1.87368e+06 0 
0 0 0 
2.43914e+07 -6.22015e+06 0 
-6.22015e+06 2.46952e+07 0 
0 0 0 
1.31911e+07 -1.30974e+07 0 
-1.30974e+07 3.96043e+07 0 
0 0 0 
7.39144e+07 -3.75332e+06 0 
-3.75332e+06 6.89753e+07 0 
0 0 0 
2.10111e+07 -9.82188e+06 0 
-9.82188e+06 4.13005e+07 0 
0 0 0 
1.52541e+07 -4.48605e+06 0 
-4.48605e+06 2.60706e+07 0 
0 0 0 
-2.89031e+07 -6.52448e+06 0 
-6.52448e+06 -9.53776e+06 0 
0 0 0 
-1.56601e+07 3.79716e+06 0 
3.79716e+06 -5.70521e+06 0 
0 0 0 
627357 1.29371e+07 0 
1.29371e+07 1.0068e+07 0 
0 0 0 
-191508 8.85738e+06 0 
8.85738e+06 1.63806e+07 0 
0 0 0 
2.04679e+07 8.47791e+06 0 
8.47791e+06 1.21266e+07 0 
0 0 0 
-2.54903e+07 -8.90351e+06 0 
-8.90351e+06 -1.75349e+07 0 
0 0 0 
-5.38971e+06 -363582 0 
-363582 -2.94479e+07 0 
0 0 0 
-3.26806e+07 91656.6 0 
91656.6 -4.60571e+07 0 
0 0 0 
3.15938e+06 -1.2798e+07 0 
-1.2798e+07 -3.18617e+07 0 
0 0 0 
-1.6893e+07 -4.77983e+06 0 
-4.77983e+06 -3.26946e+07 0 
0 0 0 
8.09538e+06 -1.27789e+07 0 
-1.27789e+07 -1.91879e+07 0 
0 0 0 
-2.83341e+07 -6.59072e+06 0 
-6.59072e+06 -2.79313e+07 0 
0 0 0 
4.79606e+06 1.37583e+06 0 
1.37583e+06 -1.97002e+07 0 
0 0 0 
1.10272e+07 7.11224e+06 0 
7.11224e+06 -2.12573e+07 0 
0 0 0 
-1.13894e+07 -127365 0 
-127365 -3.56141e+07 0 
0 0 0 
2.63096e+06 -3.10107e+06 0 
-3.10107e+06 -1.9751e+07 0 
0 0 0 
-4.28477e+07 -5.62091e+06 0 
-5.62091e+06 -2.46445e+07 0 
0 0 0 
-5.27997e+06 -6.42685e+06 0 
-6.42685e+06 -1.08159e+07 0 
0 0 0 
-5.04304e+07 -2.02386e+06 0 
-2.02386e+06 -2.17694e+07 0 
0 0 0 
1.01349e+07 -1.77283e+06 0 
-1.77283e+06 7.07514e+06 0 
0 0 0 
1.32838e+06 1.17301e+07 0 
1.17301e+07 1.29903e+07 0 
0 0 0 
4.09977e+07 1.47987e+07 0 
1.47987e+07 2.19278e+07 0 
0 0 0 
432279 1.00935e+06 0 
1.00935e+06 1.83752e+07 0 
0 0 0 
2.22477e+07 -1.23712e+07 0 
-1.23712e+07 1.76765e+07 0 
0 0 0 
-2.9263e+07 -1.29428e+07 0 
-1.29428e+07 -2.24822e+07 0 
0 0 0 
-7.4533e+06 -1.87923e+06 0 
-1.87923e+06 -2.66203e+07 0 
0 0 0 
-5.76741e+07 1.64362e+06 0 
1.64362e+06 -5.39566e+07 0 
0 0 0 
5.66778e+06 7.80759e+06 0 
7.80759e+06 -3.56568e+07 0 
0 0 0 
-5.24023e+07 1.51752e+07 0 
1.51752e+07 -4.13327e+07 0 
0 0 0 
2.85507e+07 -383003 0 
-383003 3.89067e+06 0 
0 0 0 
-1.00683e+07 -5.75217e+06 0 
-5.75217e+06 -1.88207e+07 0 
0 0 0 
2.08136e+07 -8.04978e+06 0 
-8.04978e+06 -1.91652e+07 0 
0 0 0 
-4.54289e+07 -8.73586e+06 0 
-8.73586e+06 -4.71232e+07 0 
0 0 0 
3.04091e+06 4.6123e+06 0 
4.6123e+06 -4.45282e+07 0 
0 0 0 
-6.81903e+07 1.2635e+07 0 
1.2635e+07 -5.95612e+07 0 
0 0 0 
1.40779e+07 1.39659e+07 0 
1.39659e+07 -3.3922e+07 0 
0 0 0 
-6.25384e+07 3.83768e+06 0 
3.83768e+06 -4.87104e+07 0 
0 0 0 
2.0047e+07 -1.18398e+07 0 
-1.18398e+07 -8.0564e+06 0 
0 0 0 
-1.24478e+07 -1.64599e+07 0 
-1.64599e+07 58585.3 0 
0 0 0 
7.19962e+07 -1.96823e+07 0 
-1.96823e+07 3.41315e+07 0 
0 0 0 
-1.53588e+07 -6.32146e+06 0 
-6.32146e+06 -1.02752e+07 0 
0 0 0 
2.25483e+07 1.78856e+06 0 
1.78856e+06 -1.43969e+07 0 
0 0 0 
-5.46031e+07 9.66716e+06 0 
9.66716e+06 -5.11403e+07 0 
0 0 0 
-1.48466e+07 5.15222e+06 0 
5.15222e+06 -4.3612e+07 0 
0 0 0 
-3.8584e+07 2.55287e+06 0 
2.55287e+06 -5.28373e+07 0 
0 0 0 
1.58829e+07 2.80812e+06 0 
2.80812e+06 -3.3176e+07 0 
0 0 0 
-1.52025e+07 -7.12512e+06 0 
-7.12512e+06 -2.4129e+07 0 
0 0 0 
-1.9862e+06 -7.94176e+06 0 
-7.94176e+06 -1.29358e+07 0 
0 0 0 
1.31631e+07 -2.1165e+07 0 
-2.1165e+07 -3.21375e+06 0 
0 0 0 
5.65469e+06 -1.93454e+07 0 
-1.93454e+07 4.54447e+06 0 
0 0 0 
1.53289e+07 -1.43548e+07 0 
-1.43548e+07 -3.48473e+06 0 
0 0 0 
-1.97564e+07 -8.71327e+06 0 
-8.71327e+06 -1.45716e+07 0 
0 0 0 
2.91941e+07 4.04388e+06 0 
4.04388e+06 7.12127e+06 0 
0 0 0 
-5.43942e+07 3.97204e+06 0 
3.97204e+06 -3.06972e+07 0 
0 0 0 
1.05627e+07 -5.68321e+06 0 
-5.68321e+06 -2.57457e+07 0 
0 0 0 
-6.17513e+07 5.23138e+06 0 
5.23138e+06 -4.89231e+07 0 
0 0 0 
-1.33812e+06 7.09643e+06 0 
7.09643e+06 -2.55558e+07 0 
0 0 0 
-1.71496e+07 1.50212e+07 0 
1.50212e+07 -3.62797e+07 0 
0 0 0 
1.10177e+07 971308 0 
971308 -2.17986e+07 0 
0 0 0 
-9.46718e+06 1.10752e+07 0 
1.10752e+07 -2.85359e+07 0 
0 0 0 
-5.09272e+06 -7.24756e+06 0 
-7.24756e+06 -3.46519e+07 0 
0 0 0 
-1.82773e+07 6.31784e+06 0 
6.31784e+06 -4.68306e+07 0 
0 0 0 
-5.5509e+06 -2.71117e+06 0 
-2.71117e+06 -3.83211e+07 0 
0 0 0 
0 0 0 
0 0 0 
0 0 0 
2.07809e+07 807165 0 
807165 9.80102e+07 0 
0 0 0 
-2.95075e+07 -2.66035e+06 0 
-2.66035e+06 3.179e+07 0 
0 0 0 
-3.72509e+07 4.49012e+06 0 
4.49012e+06 1.37165e+07 0 
0 0 0 
3.36465e+06 2.71797e+06 0 
2.71797e+06 9.40105e+07 0 
0 0 0 
-1.34471e+07 -3.83163e+06 0 
-3.83163e+06 1.21159e+07 0 
0 0 0 
5.25133e+06 -1.46023e+07 0 
-1.46023e+07 4.3641e+07 0 
0 0 0 
5.43794e+06 -1.38037e+07 0 
-1.38037e+07 8.39705e+07 0 
0 0 0 
6.29674e+06 -6.9444e+06 0 
-6.9444e+06 5.41932e+07 0 
0 0 0 
6.06434e+06 -8.12686e+06 0 
-8.12686e+06 6.97826e+06 0 
0 0 0 
3.05905e+07 1.71407e+06 0 
1.71407e+06 4.5513e+07 0 
0 0 0 
3.81928e+07 -1.44546e+06 0 
-1.44546e+06 3.84487e+07 0 
0 0 0 
1.77413e+07 748974 0 
748974 5.67342e+07 0 
0 0 0 
-1.4762e+07 -3.34931e+06 0 
-3.34931e+06 6.87881e+06 0 
0 0 0 
-2.67156e+07 3.05112e+06 0 
3.05112e+06 -9.62594e+06 0 
0 0 0 
-2.3069e+07 -3.86531e+06 0 
-3.86531e+06 2.4119e+06 0 
0 0 0 
-6.55991e+06 4.78882e+06 0 
4.78882e+06 3.47196e+07 0 
0 0 0 
-8.81118e+06 -2.42711e+07 0 
-2.42711e+07 3.21759e+07 0 
0 0 0 
1.46295e+07 -2.19383e+07 0 
-2.19383e+07 1.09729e+07 0 
0 0 0 
3.73546e+07 3.40277e+07 0 
3.40277e+07 79513.5 0 
0 0 0 
3.42331e+07 2.71937e+07 0 
2.71937e+07 -3.57559e+07 0 
0 0 0 
7.26778e+07 -1.49678e+07 0 
-1.49678e+07 6.31505e+07 0 
0 0 0 
-1.22929e+07 -2.26473e+07 0 
-2.26473e+07 -1.72877e+07 0 
0 0 0 
-2.00501e+07 -4.73923e+06 0 
-4.73923e+06 2.62294e+07 0 
0 0 0 
-3.42129e+07 -366040 0 
-366040 -6.85429e+07 0 
0 0 0 
-8.36549e+06 -1.31054e+07 0 
-1.31054e+07 8.86056e+06 0 
0 0 0 
-2.86939e+07 -7.25167e+06 0 
-7.25167e+06 -4.3024e+07 0 
0 0 0 
-3.75666e+07 -2.30723e+07 0 
-2.30723e+07 -6.55925e+07 0 
0 0 0 
-4.11734e+07 -1.12014e+07 0 
-1.12014e+07 -6.48216e+07 0 
0 0 0 
-4.1481e+07 -1.94751e+07 0 
-1.94751e+07 -3.5752e+07 0 
0 0 0 
-3.61511e+07 -9.12812e+06 0 
-9.12812e+06 -7.08489e+07 0 
0 0 0 
-3.85795e+06 -2.26038e+07 0 
-2.26038e+07 7.76966e+06 0 
0 0 0 
-7.51953e+06 -1.79086e+07 0 
-1.79086e+07 -2.08912e+07 0 
0 0 0 
-6.28304e+07 -1.25783e+07 0 
-1.25783e+07 -9.71053e+07 0 
0 0 0 
-5.81905e+07 962653 0 
962653 -3.54581e+07 0 
0 0 0 
-5.60622e+07 -1.18585e+07 0 
-1.18585e+07 -7.52519e+06 0 
0 0 0 
-2.1601e+07 -1.70093e+07 0 
-1.70093e+07 5.23264e+07 0 
0 0 0 
-4.83737e+07 -1.10807e+07 0 
-1.10807e+07 -2.35184e+07 0 
0 0 0 
-2.34645e+07 -7.27391e+06 0 
-7.27391e+06 2.51987e+06 0 
0 0 0 
-2.22491e+07 -2.8724e+06 0 
-2.8724e+06 -2.5365e+07 0 
0 0 0 
8.71063e+06 -2.27203e+06 0 
-2.27203e+06 4.17659e+07 0 
0 0 0 
6.5603e+07 -2.26942e+06 0 
-2.26942e+06 1.09554e+08 0 
0 0 0 
4.58215e+07 7.39613e+06 0 
7.39613e+06 7.85787e+07 0 
0 0 0 
2.02073e+07 1.65437e+07 0 
1.65437e+07 -1.7123e+07 0 
0 0 0 
6.7696e+07 1.65774e+07 0 
1.65774e+07 1.30741e+08 0 
0 0 0 
2.01448e+07 2.38102e+07 0 
2.38102e+07 3.79828e+07 0 
0 0 0 
2.41617e+07 1.8825e+07 0 
1.8825e+07 8.09975e+07 0 
0 0 0 
-3.58662e+07 1.09429e+07 0 
1.09429e+07 -7.62925e+07 0 
0 0 0 
-1.55975e+07 1.04655e+07 0 
1.04655e+07 7.80417e+06 0 
0 0 0 
2.03e+07 1.14117e+07 0 
1.14117e+07 5.95498e+07 0 
0 0 0 
4.10278e+07 1.00211e+07 0 
1.00211e+07 6.50639e+07 0 
0 0 0 
4.03025e+07 4.24912e+06 0 
4.24912e+06 6.42328e+07 0 
0 0 0 
3.89604e+06 1.0588e+07 0 
1.0588e+07 -8.07603e+06 0 
0 0 0 
2.9262e+07 1.04357e+07 0 
1.04357e+07 5.06558e+07 0 
0 0 0 
5.74947e+07 -6.03454e+06 0 
-6.03454e+06 3.0877e+07 0 
0 0 0 
7.66438e+07 -1.16795e+07 0 
-1.16795e+07 7.37845e+07 0 
0 0 0 
5.72546e+07 -1.49143e+06 0 
-1.49143e+06 5.7314e+07 0 
0 0 0 
3.80178e+07 1.00865e+07 0 
1.00865e+07 2.07808e+07 0 
0 0 0 
1.39326e+07 1.18213e+07 0 
1.18213e+07 -4.18068e+06 0 
0 0 0 
1.92905e+07 -5.94389e+06 0 
-5.94389e+06 -7.58138e+06 0 
0 0 0 
4.24886e+07 -1.55592e+07 0 
-1.55592e+07 -5.72634e+06 0 
0 0 0 
5.35653e+07 4.79454e+06 0 
4.79454e+06 1.74253e+07 0 
0 0 0 
4.3641e+07 5.68731e+06 0 
5.68731e+06 -4.39515e+06 0 
0 0 0 
4.35195e+07 922242 0 
922242 6.56959e+07 0 
0 0 0 
-2.24498e+07 4.47077e+06 0 
4.47077e+06 -6.63929e+07 0 
0 0 0 
-2.94489e+07 8.10577e+06 0 
8.10577e+06 -2.66969e+07 0 
0 0 0 
-1.01511e+07 3.44636e+06 0 
3.44636e+06 7.30632e+06 0 
0 0 0 
8.18988e+06 -148874 0 
-148874 7.9883e+06 0 
0 0 0 
-417610 -4.47979e+06 0 
-4.47979e+06 3.08472e+07 0 
0 0 0 
-3.61201e+07 -357046 0 
-357046 -5.60749e+07 0 
0 0 0 
0 0 0 
0 0 0 
0 0 0 
8.17035e+06 -1.03773e+06 0 
-1.03773e+06 -4.95421e+06 0 
0 0 0 
-4.25081e+07 3.48359e+06 0 
3.48359e+06 -2.56005e+07 0 
0 0 0 
-5.38182e+06 -1.05022e+06 0 
-1.05022e+06 -1.13145e+07 0 
0 0 0 
2.29555e+06 6.14893e+06 0 
6.14893e+06 -1.27084e+07 0 
0 0 0 
6.06678e+07 6.15137e+06 0 
6.15137e+06 1.22207e+07 0 
0 0 0 
-2.52121e+06 -2.84153e+06 0 
-2.84153e+06 9.01951e+06 0 
0 0 0 
1.42922e+07 -9.14584e+06 0 
-9.14584e+06 8.61314e+06 0 
0 0 0 
-2.19631e+07 -6.36303e+06 0 
-6.36303e+06 -4.57225e+06 0 
0 0 0 
-7.51735e+06 2.94628e+06 0 
2.94628e+06 1.25041e+07 0 
0 0 0 
6.48159e+06 2.46317e+06 0 
2.46317e+06 5.64831e+06 0 
0 0 0 
-4.35222e+06 5.21056e+06 0 
5.21056e+06 -8.88961e+06 0 
0 0 0 
-6.69297e+06 -1.17523e+06 0 
-1.17523e+06 -2.10028e+07 0 
0 0 0 
-4.19933e+07 -1.17263e+07 0 
-1.17263e+07 -4.05263e+07 0 
0 0 0 
1.35604e+07 -9.72054e+06 0 
-9.72054e+06 -9.04041e+06 0 
0 0 0 
-3.1056e+07 -1.85895e+06 0 
-1.85895e+06 -1.90797e+07 0 
0 0 0 
1.79133e+07 -8.75563e+06 0 
-8.75563e+06 1.36597e+07 0 
0 0 0 
4.63398e+06 -7.60645e+06 0 
-7.60645e+06 1.70525e+07 0 
0 0 0 
1.81679e+07 950209 0 
950209 2.31098e+07 0 
0 0 0 
5.9991e+06 8.49781e+06 0 
8.49781e+06 1.61853e+07 0 
0 0 0 
1.05204e+07 2.97333e+06 0 
2.97333e+06 1.15083e+07 0 
0 0 0 
1.27092e+07 -923871 0 
-923871 1.39033e+07 0 
0 0 0 
1.41231e+06 -1.04774e+07 0 
-1.04774e+07 1.83667e+07 0 
0 0 0 
1.97625e+07 -5.76752e+06 0 
-5.76752e+06 1.52046e+07 0 
0 0 0 
-3.88303e+07 -5.9919e+06 0 
-5.9919e+06 3.50053e+06 0 
0 0 0 
5.8745e+06 -9.7795e+06 0 
-9.7795e+06 3.65546e+07 0 
0 0 0 
-2.63998e+07 -2.39278e+06 0 
-2.39278e+06 1.6518e+07 0 
0 0 0 
2.90145e+07 8.0773e+06 0 
8.0773e+06 3.81723e+07 0 
0 0 0 
9.33248e+06 2.28317e+06 0 
2.28317e+06 2.55263e+07 0 
0 0 0 
3.54711e+07 8.62902e+06 0 
8.62902e+06 2.7512e+07 0 
0 0 0 
-2.29575e+07 -4.6173e+06 0 
-4.6173e+06 -1.91926e+06 0 
0 0 0 
5.45939e+06 -1.83506e+07 0 
-1.83506e+07 -1.7482e+06 0 
0 0 0 
-7.20036e+06 -2.3564e+07 0 
-2.3564e+07 -2.23634e+06 0 
0 0 0 
7.348e+06 -8.99557e+06 0 
-8.99557e+06 -1.43866e+07 0 
0 0 0 
-2.65218e+07 6.87855e+06 0 
6.87855e+06 -2.06351e+07 0 
0 0 0 
1.05442e+07 8.30875e+06 0 
8.30875e+06 -1.02868e+07 0 
0 0 0 
-4.82378e+07 2.83892e+07 0 
2.83892e+07 -3.69579e+07 0 
0 0 0 
1.96557e+06 1.17089e+07 0 
1.17089e+07 -2.49919e+07 0 
0 0 0 
-1.7112e+07 -620623 0 
-620623 -3.05064e+07 0 
0 0 0 
5.3383e+06 -5.52882e+06 0 
-5.52882e+06 -1.55431e+07 0 
0 0 0 
-1.21969e+07 -2.43964e+06 0 
-2.43964e+06 -1.44524e+07 0 
0 0 0 
2.04089e+07 1.63267e+06 0 
1.63267e+06 -484591 0 
0 0 0 
-4.05728e+07 7.29592e+06 0 
7.29592e+06 -4.13414e+07 0 
0 0 0 
-1.97375e+06 8.6036e+06 0 
8.6036e+06 -3.10221e+07 0 
0 0 0 
-7.64345e+07 1.19017e+07 0 
1.19017e+07 -5.97464e+07 0 
0 0 0 
7.60159e+06 4.90217e+06 0 
4.90217e+06 -1.36393e+07 0 
0 0 0 
-1.80285e+07 1.58344e+06 0 
1.58344e+06 -1.92698e+06 0 
0 0 0 
7.53333e+07 -1.87448e+07 0 
-1.87448e+07 4.40037e+07 0 
0 0 0 
6.26254e+06 -1.54137e+07 0 
-1.54137e+07 2.18248e+07 0 
0 0 0 
3.02743e+07 -8.66687e+06 0 
-8.66687e+06 1.90439e+07 0 
0 0 0 
-2.77391e+07 4.15515e+06 0 
4.15515e+06 -1.32826e+07 0 
0 0 0 
-2.41121e+07 8.64826e+06 0 
8.64826e+06 -2.7385e+07 0 
0 0 0 
-2.0069e+07 -376963 0 
-376963 -3.31341e+07 0 
0 0 0 
7.15333e+06 1.82146e+06 0 
1.82146e+06 -2.60103e+07 0 
0 0 0 
-1.10917e+07 -297174 0 
-297174 -3.22568e+07 0 
0 0 0 
-2.37428e+07 -3.25256e+06 0 
-3.25256e+06 -2.1128e+07 0 
0 0 0 
1.12427e+07 -3.37918e+06 0 
-3.37918e+06 1.92324e+06 0 
0 0 0 
-6.12463e+06 -1.78102e+07 0 
-1.78102e+07 -8.67303e+06 0 
0 0 0 
4.00105e+07 -1.76347e+07 0 
-1.76347e+07 9.19944e+06 0 
0 0 0 
-1.12929e+07 -7.77116e+06 0 
-7.77116e+06 -4.46904e+06 0 
0 0 0 
3.07816e+07 -9.80962e+06 0 
-9.80962e+06 -409992 0 
0 0 0 
-5.69843e+07 -7.905e+06 0 
-7.905e+06 -4.73646e+07 0 
0 0 0 
-1.51496e+06 -6.81499e+06 0 
-6.81499e+06 -2.56606e+07 0 
0 0 0 
-3.19706e+07 -4.06153e+06 0 
-4.06153e+06 -3.31655e+07 0 
0 0 0 
5.27701e+06 8.02023e+06 0 
8.02023e+06 -1.51005e+07 0 
0 0 0 
-7.95833e+06 1.4399e+07 0 
1.4399e+07 -5.1076e+06 0 
0 0 0 
2.29408e+07 8.69026e+06 0 
8.69026e+06 2.35575e+07 0 
0 0 0 
-2.07111e+07 950766 0 
950766 2.65788e+06 0 
0 0 0 
1.63183e+07 6.13195e+06 0 
6.13195e+06 773602 0 
0 0 0 
2.61792e+06 613762 0 
613762 1.82697e+06 0 
0 0 0 
-4.66209e+07 1.60514e+06 0 
1.60514e+06 -4.9012e+07 0 
0 0 0 
-2.71205e+07 5.5588e+06 0 
5.5588e+06 -1.7673e+07 0 
0 0 0 
0 0 0 
0 0 0 
0 0 0 
2.72128e+07 -354688 0 
-354688 9.14206e+07 0 
0 0 0 
9.3028e+06 -1.1203e+07 0 
-1.1203e+07 4.74905e+07 0 
0 0 0 
-1.89465e+06 1.26599e+07 0 
1.26599e+07 4.81327e+07 0 
0 0 0 
4.53326e+06 4.52821e+06 0 
4.52821e+06 6.20985e+07 0 
0 0 0 
-7.12199e+06 -1.02265e+07 0 
-1.02265e+07 2.02426e+07 0 
0 0 0 
3.0382e+06 -3.53279e+06 0 
-3.53279e+06 4.51281e+07 0 
0 0 0 
7.86993e+06 -5.04612e+06 0 
-5.04612e+06 7.5731e+07 0 
0 0 0 
-1.12938e+06 1.6745e+07 0 
1.6745e+07 7.60497e+07 0 
0 0 0 
-1.19604e+07 7.36696e+06 0 
7.36696e+06 4.51065e+06 0 
0 0 0 
-1.39012e+07 4.81217e+06 0 
4.81217e+06 1.00824e+07 0 
0 0 0 
-2.46512e+07 -1.35297e+07 0 
-1.35297e+07 1.48299e+07 0 
0 0 0 
-1.52978e+07 -6.63953e+06 0 
-6.63953e+06 5.39973e+07 0 
0 0 0 
-3.89497e+07 -5.21992e+06 0 
-5.21992e+06 -2.70308e+06 0 
0 0 0 
-2.70282e+07 180255 0 
180255 -3.14679e+06 0 
0 0 0 
-2.74731e+07 2.82023e+06 0 
2.82023e+06 6.94856e+06 0 
0 0 0 
-3.97019e+07 4.05043e+06 0 
4.05043e+06 1.63984e+07 0 
0 0 0 
-4.05957e+07 -1.62713e+07 0 
-1.62713e+07 -2.37428e+07 0 
0 0 0 
-1.49385e+07 -4.47651e+06 0 
-4.47651e+06 -1.36987e+07 0 
0 0 0 
1.52837e+07 2.21022e+07 0 
2.21022e+07 4.52868e+07 0 
0 0 0 
4.05883e+07 1.16969e+07 0 
1.16969e+07 4.05302e+07 0 
0 0 0 
1.78035e+07 6.99108e+06 0 
6.99108e+06 5.19377e+07 0 
0 0 0 
-8.2153e+07 1.71905e+07 0 
1.71905e+07 -1.34196e+08 0 
0 0 0 
-4.83128e+07 -445275 0 
-445275 -5.38643e+07 0 
0 0 0 
-4.60143e+07 1.33473e+07 0 
1.33473e+07 -5.1274e+07 0 
0 0 0 
-5.21385e+06 -4.0532e+06 0 
-4.0532e+06 -1.97119e+07 0 
0 0 0 
-2.78765e+06 -7.10027e+06 0 
-7.10027e+06 -2.69689e+07 0 
0 0 0 
-2.17006e+07 -2.35616e+07 0 
-2.35616e+07 -7.66619e+07 0 
0 0 0 
-1.77338e+07 -9.74516e+06 0 
-9.74516e+06 -4.95966e+07 0 
0 0 0 
-6.85365e+06 -1.00105e+07 0 
-1.00105e+07 -2.72034e+07 0 
0 0 0 
-2.66904e+07 -7.66519e+06 0 
-7.66519e+06 -6.33937e+07 0 
0 0 0 
-1.32622e+07 -1.14272e+07 0 
-1.14272e+07 -2.87524e+06 0 
0 0 0 
-3.48758e+07 -1.36049e+07 0 
-1.36049e+07 -2.16892e+07 0 
0 0 0 
-6.96659e+07 -1.57526e+07 0 
-1.57526e+07 -8.79651e+07 0 
0 0 0 
-8.10248e+07 -5.78337e+06 0 
-5.78337e+06 -5.24031e+07 0 
0 0 0 
-5.30683e+07 -7.26053e+06 0 
-7.26053e+06 4.13454e+06 0 
0 0 0 
-2.80962e+07 1.73194e+06 0 
1.73194e+06 4.16042e+07 0 
0 0 0 
-1.48063e+07 -1.00626e+07 0 
-1.00626e+07 1.92613e+07 0 
0 0 0 
-2.43064e+07 8.20787e+06 0 
8.20787e+06 -1.21505e+07 0 
0 0 0 
-2.06807e+07 -450614 0 
-450614 -9.13963e+06 0 
0 0 0 
-1.25398e+07 8.91682e+06 0 
8.91682e+06 1.30424e+07 0 
0 0 0 
8.36691e+06 -1.06188e+06 0 
-1.06188e+06 9.79058e+07 0 
0 0 0 
1.52393e+07 -2.04757e+06 0 
-2.04757e+06 9.04688e+07 0 
0 0 0 
-3.32567e+07 1.11077e+07 0 
1.11077e+07 -2.87136e+07 0 
0 0 0 
8.81023e+06 9.10556e+06 0 
9.10556e+06 1.07368e+08 0 
0 0 0 
-3.22306e+07 1.50409e+07 0 
1.50409e+07 3.3057e+07 0 
0 0 0 
-2.2159e+07 1.623e+07 0 
1.623e+07 5.89913e+07 0 
0 0 0 
-5.98054e+07 2.10844e+07 0 
2.10844e+07 -9.59002e+07 0 
0 0 0 
-7.42344e+06 1.10723e+07 0 
1.10723e+07 2.03703e+07 0 
0 0 0 
4.06303e+06 1.34012e+07 0 
1.34012e+07 4.41279e+07 0 
0 0 0 
-7.69778e+06 1.18757e+07 0 
1.18757e+07 5.16779e+07 0 
0 0 0 
-1.12754e+07 6.4504e+06 0 
6.4504e+06 4.01412e+07 0 
0 0 0 
-1.14812e+07 6.26007e+06 0 
6.26007e+06 6.02785e+06 0 
0 0 0 
-1.91474e+07 1.03585e+07 0 
1.03585e+07 1.94058e+07 0 
0 0 0 
-4.66591e+07 944265 0 
944265 -2.50414e+07 0 
0 0 0 
1.49316e+07 -2.19995e+06 0 
-2.19995e+06 6.26631e+07 0 
0 0 0 
1.32835e+07 -1.12643e+07 0 
-1.12643e+07 4.09853e+07 0 
0 0 0 
-5.45272e+06 192802 0 
192802 2.91627e+07 0 
0 0 0 
-2.01018e+07 8.7599e+06 0 
8.7599e+06 -3.3639e+07 0 
0 0 0 
-2.30901e+07 605910 0 
605910 -2.19957e+07 0 
0 0 0 
-1.87803e+07 3.31084e+06 0 
3.31084e+06 -2.04383e+07 0 
0 0 0 
-1.11751e+07 6.46939e+06 0 
6.46939e+06 -1.32678e+07 0 
0 0 0 
-1.7425e+07 -3.96602e+06 0 
-3.96602e+06 -1.15513e+07 0 
0 0 0 
1.86386e+06 -7.93259e+06 0 
-7.93259e+06 3.44261e+07 0 
0 0 0 
-3.20646e+07 -2.10235e+06 0 
-2.10235e+06 -4.96061e+07 0 
0 0 0 
-2.47688e+07 511809 0 
511809 -1.7311e+07 0 
0 0 0 
-2.5809e+07 8.56519e+06 0 
8.56519e+06 -1.62917e+07 0 
0 0 0 
-1.61007e+07 1.19535e+06 0 
1.19535e+06 1.85796e+06 0 
0 0 0 
1.6983e+07 -1.16774e+07 0 
-1.16774e+07 2.94061e+07 0 
0 0 0 
7.13861e+06 -2.32943e+06 0 
-2.32943e+06 -2.04181e+07 0 
0 0 0 
2.60114e+07 8.79422e+06 0 
8.79422e+06 -1.93636e+07 0 
0 0 0 
0 0 0 
0 0 0 
0 0 0 
1.48099e+07 -4.09235e+06 0 
-4.09235e+06 1.44955e+07 0 
0 0 0 
-2.95135e+07 -7.98317e+06 0 
-7.98317e+06 -5.11431e+06 0 
0 0 0 
-449426 7.42351e+06 0 
7.42351e+06 7.22999e+06 0 
0 0 0 
2.01662e+07 2.89911e+06 0 
2.89911e+06 2.26865e+07 0 
0 0 0 
5.33519e+07 6.95623e+06 0 
6.95623e+06 2.55098e+07 0 
0 0 0 
-3.27267e+07 -1.09578e+07 0 
-1.09578e+07 -1.77933e+07 0 
0 0 0 
2.21472e+07 -1.97773e+07 0 
-1.97773e+07 -7.69298e+06 0 
0 0 0 
-4.34553e+07 -5.31053e+06 0 
-5.31053e+06 -1.80496e+07 0 
0 0 0 
9.36767e+06 -5.88023e+06 0 
-5.88023e+06 -5.70369e+06 0 
0 0 0 
-1.16724e+06 4.85805e+06 0 
4.85805e+06 -1.21983e+07 0 
0 0 0 
-1.09324e+07 -2.59501e+06 0 
-2.59501e+06 -1.46037e+07 0 
0 0 0 
164939 -1.06933e+07 0 
-1.06933e+07 -1.69885e+07 0 
0 0 0 
-4.42949e+07 1.48473e+06 0 
1.48473e+06 -1.66624e+07 0 
0 0 0 
2.18343e+07 -4.71591e+06 0 
-4.71591e+06 1.35557e+07 0 
0 0 0 
-2.07323e+07 -831145 0 
-831145 -5.41036e+06 0 
0 0 0 
1.26734e+07 586274 0 
586274 -1.0817e+06 0 
0 0 0 
-3.74564e+06 -6.08427e+06 0 
-6.08427e+06 -8.06046e+06 0 
0 0 0 
2.33335e+07 -3.27528e+06 0 
-3.27528e+06 -5.97851e+06 0 
0 0 0 
-1.45491e+07 -9.84051e+06 0 
-9.84051e+06 -2.4602e+07 0 
0 0 0 
-1.65159e+07 -1.06929e+07 0 
-1.06929e+07 -3.48751e+07 0 
0 0 0 
-1.24317e+06 -379208 0 
-379208 -3.69155e+07 0 
0 0 0 
-1.90536e+07 2.02783e+06 0 
2.02783e+06 -4.56134e+07 0 
0 0 0 
3.4066e+06 -3.1995e+06 0 
-3.1995e+06 -1.76969e+07 0 
0 0 0 
-4.92886e+07 -1.20521e+06 0 
-1.20521e+06 -3.01829e+07 0 
0 0 0 
-1.75349e+06 -107008 0 
-107008 -2.23229e+07 0 
0 0 0 
-2.07777e+07 1.10316e+07 0 
1.10316e+07 1.58669e+06 0 
0 0 0 
1.99594e+07 5.75301e+06 0 
5.75301e+06 1.19199e+07 0 
0 0 0 
-477297 9.26807e+06 0 
9.26807e+06 6.29741e+06 0 
0 0 0 
1.01128e+07 -20513.8 0 
-20513.8 -2.86137e+06 0 
0 0 0 
-3.67078e+07 -6.08236e+06 0 
-6.08236e+06 -4.37018e+07 0 
0 0 0 
-1.59251e+07 -1.04642e+07 0 
-1.04642e+07 -2.28954e+07 0 
0 0 0 
4.67244e+06 -1.39256e+07 0 
-1.39256e+07 -1.24273e+06 0 
0 0 0 
3.08655e+07 -1.25403e+07 0 
-1.25403e+07 3.21187e+07 0 
0 0 0 
-103987 -1.33198e+06 0 
-1.33198e+06 1.00258e+07 0 
0 0 0 
3.656e+07 3.2705e+06 0 
3.2705e+06 2.39518e+07 0 
0 0 0 
-3.26123e+07 2.17306e+07 0 
2.17306e+07 -1.58353e+07 0 
0 0 0 
-2.02188e+07 8.05991e+06 0 
8.05991e+06 -3.13952e+07 0 
0 0 0 
-3.09575e+07 124431 0 
124431 -2.64998e+07 0 
0 0 0 
1.56942e+07 4.36264e+06 0 
4.36264e+06 -692002 0 
0 0 0 
1.60251e+06 7.70737e+06 0 
7.70737e+06 1.5531e+07 0 
0 0 0 
3.93025e+07 4.71855e+06 0 
4.71855e+06 4.21486e+07 0 
0 0 0 
-2.37356e+07 757612 0 
757612 2.66903e+07 0 
0 0 0 
1.3369e+07 1.58385e+06 0 
1.58385e+06 1.98349e+07 0 
0 0 0 
-5.20285e+07 1.00029e+07 0 
1.00029e+07 -1.78472e+06 0 
0 0 0 
1.51443e+07 1.25356e+07 0 
1.25356e+07 1.14758e+07 0 
0 0 0 
-2.90405e+07 9.13616e+06 0 
9.13616e+06 3.60586e+06 0 
0 0 0 
4.29563e+07 -1.70207e+07 0 
-1.70207e+07 3.30227e+07 0 
0 0 0 
2.60963e+07 -1.86929e+07 0 
-1.86929e+07 4.87804e+07 0 
0 0 0 
4.65161e+07 -1.79793e+07 0 
-1.79793e+07 6.52191e+07 0 
0 0 0 
1.08848e+07 -5.22596e+06 0 
-5.22596e+06 3.96301e+07 0 
0 0 0 
951121 2.72761e+06 0 
2.72761e+06 2.78522e+07 0 
0 0 0 
-1.90611e+07 2.02436e+06 0 
2.02436e+06 2.05756e+06 0 
0 0 0 
2.93469e+06 -1.3311e+06 0 
-1.3311e+06 -3.2701e+06 0 
0 0 0 
1.67227e+07 1.83819e+06 0 
1.83819e+06 9.12314e+06 0 
0 0 0 
-1.81486e+07 5.18869e+06 0 
5.18869e+06 -175169 0 
0 0 0 
1.73671e+07 3.31596e+06 0 
3.31596e+06 1.5869e+07 0 
0 0 0 
-1.10313e+07 -2.23124e+06 0 
-2.23124e+06 3.16842e+07 0 
0 0 0 
6.33221e+07 -1.12158e+07 0 
-1.12158e+07 6.22619e+07 0 
0 0 0 
-6.41489e+06 -1.11414e+07 0 
-1.11414e+07 3.33507e+07 0 
0 0 0 
4.78762e+07 -1.61099e+07 0 
-1.61099e+07 4.89064e+07 0 
0 0 0 
-1.03634e+07 -1.02815e+07 0 
-1.02815e+07 2.93593e+07 0 
0 0 0 
1.7682e+07 5.45223e+06 0 
5.45223e+06 4.18543e+07 0 
0 0 0 
7.44974e+06 9.32279e+06 0 
9.32279e+06 5.05717e+07 0 
0 0 0 
3.37233e+07 1.36699e+07 0 
1.36699e+07 6.68288e+07 0 
0 0 0 
1.77352e+07 1.42002e+07 0 
1.42002e+07 5.87848e+07 0 
0 0 0 
2.2877e+07 1.48402e+07 0 
1.48402e+07 5.59013e+07 0 
0 0 0 
-7.8605e+06 -2.96924e+06 0 
-2.96924e+06 5.41467e+07 0 
0 0 0 
3.07139e+07 -1.06124e+06 0 
-1.06124e+06 6.89465e+07 0 
0 0 0 
2.73502e+07 -4.09106e+06 0 
-4.09106e+06 7.07258e+07 0 
0 0 0 
1.04621e+07 -3.23325e+06 0 
-3.23325e+06 6.65952e+07 0 
0 0 0 
4.13067e+07 1.20214e+07 0 
1.20214e+07 -784217 0 
0 0 0 
5.97196e+07 3.03072e+06 0 
3.03072e+06 6.80625e+07 0 
0 0 0 
0 0 0 
0 0 0 
0 0 0 
1.60805e+07 -1.13398e+07 0 
-1.13398e+07 7.042e+07 0 
0 0 0 
9.23113e+06 -1.08255e+07 0 
-1.08255e+07 5.84367e+07 0 
0 0 0 
1.29725e+07 -2.04323e+06 0 
-2.04323e+06 7.10476e+07 0 
0 0 0 
-6.33409e+06 8.86145e+06 0 
8.86145e+06 3.11153e+07 0 
0 0 0 
-4.60214e+06 -9.53127e+06 0 
-9.53127e+06 1.57048e+07 0 
0 0 0 
-215468 -1.70922e+07 0 
-1.70922e+07 5.9577e+07 0 
0 0 0 
2.92279e+07 -7.87787e+06 0 
-7.87787e+06 9.86037e+07 0 
0 0 0 
2.90468e+07 8.82269e+06 0 
8.82269e+06 9.76939e+07 0 
0 0 0 
-2.42962e+07 5.97275e+06 0 
5.97275e+06 -2.27365e+06 0 
0 0 0 
-2.37904e+07 3.62157e+06 0 
3.62157e+06 -1.2799e+07 0 
0 0 0 
-1.78996e+07 2.13169e+06 0 
2.13169e+06 1.6561e+07 0 
0 0 0 
-1.80417e+06 -2.84496e+06 0 
-2.84496e+06 5.95297e+07 0 
0 0 0 
1.34199e+06 314321 0 
314321 -7.95691e+06 0 
0 0 0 
1.02434e+07 -5.33723e+06 0 
-5.33723e+06 2.76459e+07 0 
0 0 0 
-2.15341e+06 -1.14594e+07 0 
-1.14594e+07 1.15354e+07 0 
0 0 0 
-1.30811e+06 -1.01845e+07 0 
-1.01845e+07 2.2214e+07 0 
0 0 0 
3.31192e+06 7.68773e+06 0 
7.68773e+06 -2.86226e+06 0 
0 0 0 
-1.90463e+07 -1.48136e+06 0 
-1.48136e+06 -2.42786e+07 0 
0 0 0 
6.19106e+07 -3.59621e+07 0 
-3.59621e+07 7.47009e+07 0 
0 0 0 
5.49025e+07 -1.42547e+07 0 
-1.42547e+07 2.03563e+07 0 
0 0 0 
-7.35395e+06 2.66388e+07 0 
2.66388e+07 -2.38469e+07 0 
0 0 0 
-1.97532e+07 2.99522e+07 0 
2.99522e+07 -8.98421e+07 0 
0 0 0 
-2.68368e+07 7.5364e+06 0 
7.5364e+06 -6.23765e+07 0 
0 0 0 
-2.18996e+07 9.54926e+06 0 
9.54926e+06 -4.71347e+07 0 
0 0 0 
-2.77441e+07 3.08058e+06 0 
3.08058e+06 -4.55166e+07 0 
0 0 0 
-2.77244e+07 -2.24061e+07 0 
-2.24061e+07 -4.33749e+07 0 
0 0 0 
-4.60022e+07 -1.36672e+07 0 
-1.36672e+07 -7.9434e+07 0 
0 0 0 
-2.97104e+07 -1.45888e+07 0 
-1.45888e+07 -4.51071e+07 0 
0 0 0 
-4.09238e+07 -3.6787e+06 0 
-3.6787e+06 -4.11783e+07 0 
0 0 0 
-3.74727e+07 1.62232e+06 0 
1.62232e+06 -5.04519e+07 0 
0 0 0 
-2.8648e+07 -2.72405e+06 0 
-2.72405e+06 -1.01501e+07 0 
0 0 0 
-1.85649e+07 -8.14894e+06 0 
-8.14894e+06 -3.85601e+07 0 
0 0 0 
-5.9343e+06 -2.47661e+07 0 
-2.47661e+07 -5.22513e+07 0 
0 0 0 
2.1194e+07 3.68619e+06 0 
3.68619e+06 -1.78284e+07 0 
0 0 0 
2.93853e+07 2.7603e+06 0 
2.7603e+06 4.20414e+07 0 
0 0 0 
1.93839e+07 -2.2769e+06 0 
-2.2769e+06 3.91833e+07 0 
0 0 0 
1.73604e+07 -9.76586e+06 0 
-9.76586e+06 3.83859e+07 0 
0 0 0 
-957066 -1.31979e+07 0 
-1.31979e+07 1.05462e+07 0 
0 0 0 
-2.94643e+07 854563 0 
854563 -1.10281e+07 0 
0 0 0 
-2.2685e+07 8.03835e+06 0 
8.03835e+06 1.61428e+07 0 
0 0 0 
1.48695e+07 2.0933e+07 0 
2.0933e+07 9.12879e+07 0 
0 0 0 
3.95346e+07 1.21353e+07 0 
1.21353e+07 1.17538e+08 0 
0 0 0 
-4.44072e+06 1.26606e+07 0 
1.26606e+07 -3.02749e+07 0 
0 0 0 
5.16394e+07 1.47994e+07 0 
1.47994e+07 1.35056e+08 0 
0 0 0 
4.06709e+07 1.38192e+07 0 
1.38192e+07 7.06286e+07 0 
0 0 0 
2.02411e+07 2.73272e+07 0 
2.73272e+07 6.05794e+07 0 
0 0 0 
-3.37257e+07 1.60778e+07 0 
1.60778e+07 -8.45131e+07 0 
0 0 0 
-6.4758e+06 2.30227e+07 0 
2.30227e+07 1.66322e+07 0 
0 0 0 
-1.24757e+06 1.69898e+07 0 
1.69898e+07 3.70366e+07 0 
0 0 0 
1.55217e+07 8.71946e+06 0 
8.71946e+06 5.48552e+07 0 
0 0 0 
1.40796e+07 5.22739e+06 0 
5.22739e+06 3.72877e+07 0 
0 0 0 
1.61692e+07 4.62289e+06 0 
4.62289e+06 2.67031e+07 0 
0 0 0 
3.39021e+07 2.51518e+06 0 
2.51518e+06 3.60343e+07 0 
0 0 0 
2.81153e+07 1.11649e+07 0 
1.11649e+07 -2.88542e+06 0 
0 0 0 
3.55788e+07 7.07043e+06 0 
7.07043e+06 5.32621e+07 0 
0 0 0 
5.22706e+07 -1.23994e+07 0 
-1.23994e+07 5.34836e+07 0 
0 0 0 
6.89193e+07 2.62156e+06 0 
2.62156e+06 6.48823e+07 0 
0 0 0 
3.02253e+07 4.77276e+06 0 
4.77276e+06 -1.24907e+07 0 
0 0 0 
3.22654e+07 2.6457e+06 0 
2.6457e+06 -4.8294e+06 0 
0 0 0 
4.05679e+07 1.53017e+06 0 
1.53017e+06 5.79368e+06 0 
0 0 0 
2.28955e+07 -1.3789e+06 0 
-1.3789e+06 -2.31503e+07 0 
0 0 0 
2.46844e+07 -759142 0 
-759142 5.03424e+06 0 
0 0 0 
2.55531e+07 -1.49835e+07 0 
-1.49835e+07 3.07403e+07 0 
0 0 0 
226789 -1.04072e+07 0 
-1.04072e+07 -2.4395e+07 0 
0 0 0 
1.41026e+07 261029 0 
261029 1.16319e+07 0 
0 0 0 
325653 8.83198e+06 0 
8.83198e+06 -6.43853e+06 0 
0 0 0 
-1.15827e+07 1.19928e+07 0 
1.19928e+07 -6.29661e+06 0 
0 0 0 
-1.73021e+07 4.91149e+06 0 
4.91149e+06 2.16646e+07 0 
0 0 0 
-4.28978e+07 3.2812e+06 0 
3.2812e+06 -2.8075e+07 0 
0 0 0 
-7.01147e+07 5.7353e+06 0 
5.7353e+06 -5.43899e+07 0 
0 0 0 
-7.34353e+07 3.7261e+06 0 
3.7261e+06 -4.236e+07 0 
0 0 0 
0 0 0 
0 0 0 
0 0 0 
4.49115e+06 -1.42044e+06 0 
-1.42044e+06 -8.76343e+06 0 
0 0 0 
-3.17738e+07 -5.4924e+06 0 
-5.4924e+06 -2.17104e+07 0 
0 0 0 
9.57346e+06 9.75736e+06 0 
9.75736e+06 -7.70336e+06 0 
0 0 0 
-4.56176e+06 1.59811e+06 0 
1.59811e+06 -1.64185e+07 0 
0 0 0 
3.36563e+07 1.6588e+06 0 
1.6588e+06 -7.21936e+06 0 
0 0 0 
-5.92378e+07 -1.13383e+07 0 
-1.13383e+07 -4.04318e+07 0 
0 0 0 
3.50386e+07 -9.67464e+06 0 
-9.67464e+06 6.33641e+06 0 
0 0 0 
-3.71996e+07 1.33244e+06 0 
1.33244e+06 -1.73308e+07 0 
0 0 0 
1.5636e+07 3.02892e+06 0 
3.02892e+06 -1.84654e+06 0 
0 0 0 
3.78144e+06 -580690 0 
-580690 -9.42595e+06 0 
0 0 0 
-2.3583e+07 2.80147e+06 0 
2.80147e+06 -2.78262e+07 0 
0 0 0 
-5.27906e+06 -6.56292e+06 0 
-6.56292e+06 -8.31199e+06 0 
0 0 0 
-2.73941e+07 -1.22542e+06 0 
-1.22542e+06 -4.71286e+06 0 
0 0 0 
2.41913e+07 -699079 0 
-699079 2.18465e+07 0 
0 0 0 
-1.67507e+07 -2.01774e+06 0 
-2.01774e+06 1.0788e+07 0 
0 0 0 
2.95749e+07 1.13496e+06 0 
1.13496e+06 2.94927e+07 0 
0 0 0 
3.39217e+06 -3.39634e+06 0 
-3.39634e+06 3.25196e+07 0 
0 0 0 
3.02526e+07 -9.34889e+06 0 
-9.34889e+06 4.50066e+07 0 
0 0 0 
8.95613e+06 -6.86177e+06 0 
-6.86177e+06 3.63992e+07 0 
0 0 0 
1.32756e+07 -3.14228e+06 0 
-3.14228e+06 4.60376e+07 0 
0 0 0 
3.10758e+07 -914529 0 
-914529 4.40662e+07 0 
0 0 0 
6.94616e+06 -1.00182e+06 0 
-1.00182e+06 3.50397e+07 0 
0 0 0 
-1.14924e+06 -4.63909e+06 0 
-4.63909e+06 1.36242e+07 0 
0 0 0 
-2.46912e+07 -4.13714e+06 0 
-4.13714e+06 -1.85737e+07 0 
0 0 0 
1.23543e+07 7.9472e+06 0 
7.9472e+06 3.6497e+06 0 
0 0 0 
-2.63911e+07 1.14886e+07 0 
1.14886e+07 -1.14024e+07 0 
0 0 0 
4.09579e+07 8.12516e+06 0 
8.12516e+06 2.89056e+07 0 
0 0 0 
-2.27592e+07 9.85156e+06 0 
9.85156e+06 1.12984e+07 0 
0 0 0 
1.74302e+07 -6.46746e+06 0 
-6.46746e+06 2.85975e+07 0 
0 0 0 
-3.31844e+07 -1.2554e+07 0 
-1.2554e+07 1.55779e+07 0 
0 0 0 
1.85113e+07 -3.70647e+06 0 
-3.70647e+06 2.3087e+07 0 
0 0 0 
6.38493e+06 -5.26816e+06 0 
-5.26816e+06 3.41904e+07 0 
0 0 0 
2.98912e+07 -7.65288e+06 0 
-7.65288e+06 4.357e+07 0 
0 0 0 
2.97801e+07 -1.09932e+07 0 
-1.09932e+07 4.50821e+07 0 
0 0 0 
5.01417e+07 7.45238e+06 0 
7.45238e+06 4.37153e+07 0 
0 0 0 
-6.26676e+06 -3.68139e+06 0 
-3.68139e+06 3.38288e+07 0 
0 0 0 
-1.41413e+07 5.07776e+06 0 
5.07776e+06 2.41676e+07 0 
0 0 0 
-965532 1.08003e+07 0 
1.08003e+07 3.40932e+07 0 
0 0 0 
3.10462e+07 1.17464e+07 0 
1.17464e+07 5.26663e+07 0 
0 0 0 
646626 1.01925e+07 0 
1.01925e+07 3.50314e+07 0 
0 0 0 
2.78397e+07 -3.22524e+06 0 
-3.22524e+06 3.93197e+07 0 
0 0 0 
-3.28449e+07 -1.31326e+07 0 
-1.31326e+07 5.99271e+06 0 
0 0 0 
1.42651e+07 -3.80309e+06 0 
-3.80309e+06 2.6258e+07 0 
0 0 0 
-4.04964e+07 5782.06 0 
5782.06 -1.55294e+07 0 
0 0 0 
1.50941e+07 1.33882e+07 0 
1.33882e+07 4.16186e+06 0 
0 0 0 
-4.56923e+07 8.67317e+06 0 
8.67317e+06 -1.60238e+07 0 
0 0 0 
5.56826e+06 -6.79585e+06 0 
-6.79585e+06 9.63963e+06 0 
0 0 0 
1.61231e+07 -6.80101e+06 0 
-6.80101e+06 1.92767e+07 0 
0 0 0 
5.3036e+07 -1.0319e+07 0 
-1.0319e+07 4.78089e+07 0 
0 0 0 
1.46676e+07 -1.0119e+07 0 
-1.0119e+07 4.82825e+07 0 
0 0 0 
1.9298e+07 -4.99423e+06 0 
-4.99423e+06 4.55441e+07 0 
0 0 0 
-1.7359e+06 -8.54306e+06 0 
-8.54306e+06 6.45318e+07 0 
0 0 0 
1.84464e+07 -3.83242e+06 0 
-3.83242e+06 8.02477e+07 0 
0 0 0 
4.61841e+07 -758073 0 
-758073 7.6851e+07 0 
0 0 0 
-1.23379e+06 -1.30355e+07 0 
-1.30355e+07 4.1186e+07 0 
0 0 0 
3.57531e+07 1.88303e+06 0 
1.88303e+06 3.24681e+07 0 
0 0 0 
-3.00519e+07 1.32796e+06 0 
1.32796e+06 5.3676e+06 0 
0 0 0 
3.2885e+07 -1.71607e+07 0 
-1.71607e+07 4.02163e+07 0 
0 0 0 
-7.53548e+06 -1.3946e+07 0 
-1.3946e+07 4.32442e+07 0 
0 0 0 
6.58083e+07 -2.08291e+07 0 
-2.08291e+07 7.31701e+07 0 
0 0 0 
1.67037e+07 -1.17364e+07 0 
-1.17364e+07 5.62897e+07 0 
0 0 0 
4.65007e+07 2.5751e+06 0 
2.5751e+06 6.36696e+07 0 
0 0 0 
7.47582e+06 1.37079e+07 0 
1.37079e+07 5.42787e+07 0 
0 0 0 
1.79252e+07 7.96977e+06 0 
7.96977e+06 5.65589e+07 0 
0 0 0 
2.06796e+07 1.00213e+07 0 
1.00213e+07 4.71808e+07 0 
0 0 0 
-5.05389e+06 4.93685e+06 0 
4.93685e+06 3.90201e+07 0 
0 0 0 
-375643 -6.61728e+06 0 
-6.61728e+06 3.42815e+07 0 
0 0 0 
6.73929e+06 5.47031e+06 0 
5.47031e+06 3.97949e+07 0 
0 0 0 
7.86476e+06 -2.791e+06 0 
-2.791e+06 3.99211e+07 0 
0 0 0 
1.63306e+07 -9.81988e+06 0 
-9.81988e+06 4.84018e+07 0 
0 0 0 
3.61758e+07 -1.40663e+07 0 
-1.40663e+07 4.91466e+07 0 
0 0 0 
-5.49372e+07 -9.93001e+06 0 
-9.93001e+06 1.00034e+07 0 
0 0 0 
-1.81959e+07 -9.76767e+06 0 
-9.76767e+06 3.64201e+07 0 
0 0 0 
0 0 0 
0 0 0 
0 0 0 
3.67818e+07 -1.01035e+06 0 
-1.01035e+06 5.6815e+07 0 
0 0 0 
6.11668e+07 -1.22126e+07 0 
-1.22126e+07 8.36506e+07 0 
0 0 0 
6.87674e+07 1.98085e+06 0 
1.98085e+06 1.11022e+08 0 
0 0 0 
5.71626e+07 1.856e+07 0 
1.856e+07 5.04386e+07 0 
0 0 0 
6.11311e+07 7.68169e+06 0 
7.68169e+06 2.29319e+07 0 
0 0 0 
1.07428e+08 -5.56399e+06 0 
-5.56399e+06 7.89964e+07 0 
0 0 0 
1.36898e+08 352501 0 
352501 1.72974e+08 0 
0 0 0 
1.18707e+08 -899717 0 
-899717 1.20261e+08 0 
0 0 0 
7.8423e+07 -5.78624e+06 0 
-5.78624e+06 1.92587e+07 0 
0 0 0 
4.45377e+07 -1.75639e+07 0 
-1.75639e+07 5.79281e+06 0 
0 0 0 
5.6126e+07 -1.31467e+07 0 
-1.31467e+07 5.32793e+07 0 
0 0 0 
8.59182e+07 588696 0 
588696 8.7539e+07 0 
0 0 0 
4.07172e+07 5.29752e+06 0 
5.29752e+06 -6.74472e+06 0 
0 0 0 
4.13166e+07 -1.02866e+07 0 
-1.02866e+07 3.43678e+07 0 
0 0 0 
2.95891e+07 -6.69136e+06 0 
-6.69136e+06 2.3394e+07 0 
0 0 0 
3.68981e+07 -2.36663e+06 0 
-2.36663e+06 4.76375e+07 0 
0 0 0 
6.8367e+06 7.67376e+06 0 
7.67376e+06 1.44636e+06 0 
0 0 0 
1.34616e+07 -1.84436e+07 0 
-1.84436e+07 -2.79495e+07 0 
0 0 0 
5.53345e+07 -4.55716e+07 0 
-4.55716e+07 -3.71281e+07 0 
0 0 0 
20087.9 7.0246e+06 0 
7.0246e+06 -2.04326e+07 0 
0 0 0 
1.90285e+07 6.87257e+06 0 
6.87257e+06 -1.65314e+07 0 
0 0 0 
-1.61801e+06 2.82769e+07 0 
2.82769e+07 -9.08939e+07 0 
0 0 0 
8.19229e+06 2.24606e+07 0 
2.24606e+07 -6.08301e+07 0 
0 0 0 
1.36449e+07 8.69827e+06 0 
8.69827e+06 -5.0164e+07 0 
0 0 0 
8.09482e+06 6.58296e+06 0 
6.58296e+06 -3.63021e+07 0 
0 0 0 
1.28043e+07 -5.65439e+06 0 
-5.65439e+06 -4.51206e+07 0 
0 0 0 
3.39066e+07 -1.43527e+07 0 
-1.43527e+07 -4.57708e+07 0 
0 0 0 
4.00564e+07 -1.36267e+07 0 
-1.36267e+07 -2.36728e+07 0 
0 0 0 
5.66654e+07 -1.09071e+07 0 
-1.09071e+07 -5.64203e+06 0 
0 0 0 
6.06773e+07 -3.07262e+06 0 
-3.07262e+06 4.75e+06 0 
0 0 0 
8.07248e+07 -1.31743e+07 0 
-1.31743e+07 5.99868e+06 0 
0 0 0 
5.30219e+07 -1.5562e+07 0 
-1.5562e+07 -2.73694e+07 0 
0 0 0 
4.81409e+07 -1.51978e+07 0 
-1.51978e+07 -2.20838e+07 0 
0 0 0 
3.10852e+07 -1.30368e+07 0 
-1.30368e+07 -3.34038e+06 0 
0 0 0 
3.96379e+07 -3.98312e+06 0 
-3.98312e+06 5.4654e+07 0 
0 0 0 
2.28427e+07 1.85479e+06 0 
1.85479e+06 2.09134e+07 0 
0 0 0 
1.01069e+07 -8.9778e+06 0 
-8.9778e+06 3.28218e+07 0 
0 0 0 
-1.43996e+07 -1.68745e+07 0 
-1.68745e+07 1.41637e+07 0 
0 0 0 
-3.2494e+07 -9.62722e+06 0 
-9.62722e+06 5.6163e+06 0 
0 0 0 
-3.16981e+07 1.3266e+07 0 
1.3266e+07 2.43052e+07 0 
0 0 0 
-5.84497e+06 1.95677e+07 0 
1.95677e+07 1.00024e+08 0 
0 0 0 
-1.68099e+07 1.4529e+07 0 
1.4529e+07 7.89226e+07 0 
0 0 0 
-3.76345e+07 1.32416e+07 0 
1.32416e+07 -2.33516e+07 0 
0 0 0 
2.57311e+06 1.46794e+07 0 
1.46794e+07 9.78654e+07 0 
0 0 0 
-1.63418e+07 1.84207e+06 0 
1.84207e+06 7.05744e+07 0 
0 0 0 
-2.21114e+07 8.79373e+06 0 
8.79373e+06 5.12419e+07 0 
0 0 0 
-7.91619e+07 3.29139e+07 0 
3.29139e+07 -9.30904e+07 0 
0 0 0 
-3.49238e+07 2.07125e+07 0 
2.07125e+07 1.91079e+06 0 
0 0 0 
-1.79304e+07 2.00898e+07 0 
2.00898e+07 1.31006e+07 0 
0 0 0 
1.52658e+06 1.5094e+07 0 
1.5094e+07 5.68159e+07 0 
0 0 0 
3.26685e+06 1.97744e+07 0 
1.97744e+07 2.38001e+07 0 
0 0 0 
7.56695e+06 1.15337e+07 0 
1.15337e+07 2.22159e+07 0 
0 0 0 
4.34414e+06 1.07327e+07 0 
1.07327e+07 3.17971e+07 0 
0 0 0 
-2.86584e+06 9.05855e+06 0 
9.05855e+06 -3.43103e+06 0 
0 0 0 
1.3289e+07 9.82684e+06 0 
9.82684e+06 1.54983e+07 0 
0 0 0 
1.59419e+07 -6.15187e+06 0 
-6.15187e+06 3.33476e+07 0 
0 0 0 
2.11699e+07 -7.78441e+06 0 
-7.78441e+06 6.38481e+07 0 
0 0 0 
-2.49711e+07 -2.28588e+06 0 
-2.28588e+06 -2.72131e+07 0 
0 0 0 
-3.98342e+07 -627897 0 
-627897 -2.61265e+07 0 
0 0 0 
-4.57406e+07 757347 0 
757347 -3.21962e+07 0 
0 0 0 
-4.12254e+07 2.06343e+06 0 
2.06343e+06 -2.8644e+07 0 
0 0 0 
-4.82108e+07 160114 0 
160114 -3.86152e+07 0 
0 0 0 
-2.10334e+07 -6.99182e+06 0 
-6.99182e+06 -2.82962e+06 0 
0 0 0 
1.03063e+06 -1.26734e+07 0 
-1.26734e+07 -1.47599e+07 0 
0 0 0 
1.14577e+07 -5.68755e+06 0 
-5.68755e+06 3.59962e+07 0 
0 0 0 
951441 4.16692e+06 0 
4.16692e+06 1.26738e+07 0 
0 0 0 
-1.5948e+07 8.22771e+06 0 
8.22771e+06 -1.94513e+07 0 
0 0 0 
2.03693e+07 1.473e+06 0 
1.473e+06 3.01668e+07 0 
0 0 0 
2.55821e+07 -1.07085e+07 0 
-1.07085e+07 -1.44597e+07 0 
0 0 0 
3.33477e+07 2.25239e+06 0 
2.25239e+06 -1.28169e+07 0 
0 0 0 
2.96964e+07 9.6802e+06 0 
9.6802e+06 4.60029e+06 0 
0 0 0 
1.92922e+07 8.41736e+06 0 
8.41736e+06 -1.52271e+06 0 
0 0 0 
0 0 0 
0 0 0 
0 0 0 
1.06645e+07 -5.3301e+06 0 
-5.3301e+06 7.00734e+06 0 
0 0 0 
-1.21608e+07 -6731.45 0 
-6731.45 4.78519e+06 0 
0 0 0 
2.64888e+07 1.23413e+07 0 
1.23413e+07 1.71173e+07 0 
0 0 0 
-1.88374e+07 4.31423e+06 0 
4.31423e+06 1.28808e+06 0 
0 0 0 
2.68251e+07 -6.60531e+06 0 
-6.60531e+06 8.52275e+06 0 
0 0 0 
-4.8864e+07 -7.31656e+06 0 
-7.31656e+06 -2.08492e+07 0 
0 0 0 
3.43812e+07 -2.10092e+06 0 
-2.10092e+06 1.00371e+07 0 
0 0 0 
-1.4236e+07 -1.05118e+06 0 
-1.05118e+06 -2.91788e+06 0 
0 0 0 
6.37861e+06 -302142 0 
-302142 -4.04999e+06 0 
0 0 0 
-6.01513e+06 -1.96097e+06 0 
-1.96097e+06 -1.83838e+07 0 
0 0 0 
-2.30573e+07 -7.28249e+06 0 
-7.28249e+06 -2.74959e+07 0 
0 0 0 
-1.6297e+07 1.36312e+06 0 
1.36312e+06 -2.71148e+07 0 
0 0 0 
-2.48317e+07 9.18742e+06 0 
9.18742e+06 -2.60573e+07 0 
0 0 0 
1.56559e+07 3.30917e+06 0 
3.30917e+06 -9.40364e+06 0 
0 0 0 
-2.29672e+07 -1.37982e+06 0 
-1.37982e+06 -2.0224e+07 0 
0 0 0 
5.38855e+06 5.21445e+06 0 
5.21445e+06 -1.39588e+07 0 
0 0 0 
-1.17593e+07 -5.83831e+06 0 
-5.83831e+06 -2.37015e+07 0 
0 0 0 
2.17436e+07 3.83329e+06 0 
3.83329e+06 -1.18527e+07 0 
0 0 0 
-2.12248e+07 1.86872e+06 0 
1.86872e+06 -2.1018e+07 0 
0 0 0 
1.09623e+06 1.22927e+06 0 
1.22927e+06 -4.5177e+06 0 
0 0 0 
1.2111e+07 -3.78865e+06 0 
-3.78865e+06 2.85324e+07 0 
0 0 0 
-8.15728e+06 -8.83495e+06 0 
-8.83495e+06 1.87169e+07 0 
0 0 0 
1.9922e+07 -9.86229e+06 0 
-9.86229e+06 3.80893e+07 0 
0 0 0 
6.30403e+06 -9.22862e+06 0 
-9.22862e+06 4.30004e+07 0 
0 0 0 
1.88206e+07 4.65465e+06 0 
4.65465e+06 3.16032e+07 0 
0 0 0 
-1.41136e+06 6.01987e+06 0 
6.01987e+06 1.05729e+07 0 
0 0 0 
1.80789e+07 1.16024e+07 0 
1.16024e+07 -4.48502e+06 0 
0 0 0 
-3.72105e+07 -2.31914e+06 0 
-2.31914e+06 -2.02474e+07 0 
0 0 0 
-1.96402e+07 -5.93818e+06 0 
-5.93818e+06 -2.81324e+07 0 
0 0 0 
-3.96523e+07 -1.09452e+07 0 
-1.09452e+07 -3.2155e+07 0 
0 0 0 
9.76758e+06 -3.21691e+06 0 
-3.21691e+06 -7.93667e+06 0 
0 0 0 
-3.18355e+06 -2.22306e+06 0 
-2.22306e+06 -1.76216e+07 0 
0 0 0 
1.5403e+07 3.16827e+06 0 
3.16827e+06 -963328 0 
0 0 0 
1.57862e+07 868878 0 
868878 1.63121e+07 0 
0 0 0 
3.68611e+07 -9.22844e+06 0 
-9.22844e+06 2.67008e+07 0 
0 0 0 
-1.31291e+07 -2.90253e+06 0 
-2.90253e+06 -2.21641e+07 0 
0 0 0 
-1.8122e+07 -2.82624e+06 0 
-2.82624e+06 -3.48271e+07 0 
0 0 0 
-2.78697e+07 1.36584e+07 0 
1.36584e+07 -4.80192e+07 0 
0 0 0 
-1.16843e+06 2.36265e+06 0 
2.36265e+06 -4.02331e+07 0 
0 0 0 
-4.09766e+07 1.09328e+07 0 
1.09328e+07 -4.54855e+07 0 
0 0 0 
-1.47897e+07 -9.09918e+06 0 
-9.09918e+06 -3.88079e+07 0 
0 0 0 
-4.31333e+07 -7.58998e+06 0 
-7.58998e+06 -4.3279e+07 0 
0 0 0 
109303 -4.52479e+06 0 
-4.52479e+06 -3.24462e+07 0 
0 0 0 
-1.9711e+07 5.07102e+06 0 
5.07102e+06 -2.42621e+07 0 
0 0 0 
-1.01671e+06 1.80619e+07 0 
1.80619e+07 -2.76874e+07 0 
0 0 0 
-5.75592e+07 8.95018e+06 0 
8.95018e+06 -5.92859e+07 0 
0 0 0 
-2.04909e+07 1.4788e+07 0 
1.4788e+07 -4.45422e+07 0 
0 0 0 
-7.83319e+06 9.1698e+06 0 
9.1698e+06 -1.79937e+07 0 
0 0 0 
3.30541e+07 4.93435e+06 0 
4.93435e+06 4.80609e+06 0 
0 0 0 
1.27302e+07 -1.78295e+06 0 
-1.78295e+06 1.01973e+07 0 
0 0 0 
-502654 4.35233e+06 0 
4.35233e+06 9.53624e+06 0 
0 0 0 
-2.604e+07 6.70814e+06 0 
6.70814e+06 -1.67416e+07 0 
0 0 0 
-6.16648e+06 591581 0 
591581 -6.22756e+06 0 
0 0 0 
6.77116e+06 790643 0 
790643 -1.03158e+07 0 
0 0 0 
-2.40022e+07 -5.73311e+06 0 
-5.73311e+06 -1.88262e+07 0 
0 0 0 
3.81128e+07 -9.1269e+06 0 
-9.1269e+06 2.06572e+06 0 
0 0 0 
-5.28164e+07 -1.88363e+06 0 
-1.88363e+06 -4.63662e+07 0 
0 0 0 
1.01461e+07 4.81461e+06 0 
4.81461e+06 -1.48731e+07 0 
0 0 0 
-4.06401e+07 585532 0 
585532 -1.54328e+07 0 
0 0 0 
5.78475e+07 -9.94729e+06 0 
-9.94729e+06 2.93398e+07 0 
0 0 0 
2.41226e+07 -9.09532e+06 0 
-9.09532e+06 3.39046e+07 0 
0 0 0 
4.84182e+07 -1.26585e+06 0 
-1.26585e+06 4.92434e+07 0 
0 0 0 
1.2059e+07 6.38735e+06 0 
6.38735e+06 3.32538e+07 0 
0 0 0 
4.84752e+06 8.63515e+06 0 
8.63515e+06 2.50504e+07 0 
0 0 0 
-1.2215e+07 1.81988e+06 0 
1.81988e+06 1.48009e+07 0 
0 0 0 
-7.58567e+06 7.5767e+06 0 
7.5767e+06 2.57521e+06 0 
0 0 0 
-1.2157e+07 -2.2805e+06 0 
-2.2805e+06 2.83978e+06 0 
0 0 0 
-4.2566e+06 2.09627e+06 0 
2.09627e+06 8.05784e+06 0 
0 0 0 
-1.00897e+07 580250 0 
580250 1.55341e+07 0 
0 0 0 
-4.2019e+06 -3.63426e+06 0 
-3.63426e+06 1.7282e+07 0 
0 0 0 
4.08543e+07 -1.24627e+07 0 
-1.24627e+07 3.67462e+07 0 
0 0 0 
-1.74648e+07 -3.79399e+06 0 
-3.79399e+06 1.21372e+07 0 
0 0 0 
3.55263e+07 -2.49587e+06 0 
-2.49587e+06 6.93951e+07 0 
0 0 0 
3.09998e+07 -1.24422e+06 0 
-1.24422e+06 3.2095e+07 0 
0 0 0 
0 0 0 
0 0 0 
0 0 0 
-4.06031e+06 -1.28502e+06 0 
-1.28502e+06 3.5639e+07 0 
0 0 0 
9.20826e+06 5.42417e+06 0 
5.42417e+06 7.64067e+07 0 
0 0 0 
3.39666e+07 505899 0 
505899 9.89596e+07 0 
0 0 0 
6.58329e+06 8.95069e+06 0 
8.95069e+06 4.4255e+07 0 
0 0 0 
4.54183e+06 1.56751e+07 0 
1.56751e+07 6.15558e+06 0 
0 0 0 
3.74121e+07 1.4271e+07 0 
1.4271e+07 6.33889e+07 0 
0 0 0 
7.34747e+07 6.95884e+06 0 
6.95884e+06 1.31086e+08 0 
0 0 0 
5.64854e+07 -8.07903e+06 0 
-8.07903e+06 8.70509e+07 0 
0 0 0 
1.66364e+07 -1.74428e+07 0 
-1.74428e+07 -5.20927e+06 0 
0 0 0 
2.16011e+07 -1.13926e+07 0 
-1.13926e+07 -5.41853e+06 0 
0 0 0 
5.52029e+07 4.0938e+06 0 
4.0938e+06 8.11892e+07 0 
0 0 0 
4.64134e+07 3.56632e+06 0 
3.56632e+06 5.2428e+07 0 
0 0 0 
4.03474e+07 -7.50983e+06 0 
-7.50983e+06 1.54604e+07 0 
0 0 0 
5.47279e+07 5.03566e+06 0 
5.03566e+06 1.46222e+07 0 
0 0 0 
9.18466e+07 -1.26255e+07 0 
-1.26255e+07 5.80163e+07 0 
0 0 0 
9.77064e+07 -2.98491e+06 0 
-2.98491e+06 6.7524e+07 0 
0 0 0 
8.02028e+07 -5.04489e+06 0 
-5.04489e+06 2.55467e+07 0 
0 0 0 
1.95779e+07 -1.50502e+07 0 
-1.50502e+07 -8.9144e+07 0 
0 0 0 
2.76614e+07 -8.06588e+06 0 
-8.06588e+06 -5.86407e+07 0 
0 0 0 
3.10195e+07 5.55008e+06 0 
5.55008e+06 1.5605e+07 0 
0 0 0 
2.67108e+07 1.79468e+07 0 
1.79468e+07 -6.62571e+06 0 
0 0 0 
8.4429e+07 3.72299e+07 0 
3.72299e+07 -9.48479e+07 0 
0 0 0 
6.86413e+07 6.62255e+06 0 
6.62255e+06 -7.85962e+07 0 
0 0 0 
3.32062e+07 -815379 0 
-815379 -4.31438e+07 0 
0 0 0 
2.01086e+06 -3.6299e+06 0 
-3.6299e+06 -4.43882e+07 0 
0 0 0 
-1.14305e+07 463513 0 
463513 -5.05206e+07 0 
0 0 0 
-3.64947e+07 -1.22542e+07 0 
-1.22542e+07 -9.24288e+07 0 
0 0 0 
-3.05966e+07 -1.82464e+07 0 
-1.82464e+07 -4.12899e+07 0 
0 0 0 
-4.10102e+07 -7.62228e+06 0 
-7.62228e+06 -3.65886e+07 0 
0 0 0 
-3.31977e+07 -3.11795e+06 0 
-3.11795e+06 -1.94471e+07 0 
0 0 0 
-4.80777e+07 -8.42272e+06 0 
-8.42272e+06 -4.3508e+07 0 
0 0 0 
-4.86323e+07 -2.269e+07 0 
-2.269e+07 -7.74994e+07 0 
0 0 0 
-3.11714e+07 -2.17557e+07 0 
-2.17557e+07 -2.256e+07 0 
0 0 0 
-1.10844e+07 -1.34099e+07 0 
-1.34099e+07 -1.77613e+07 0 
0 0 0 
2.55449e+06 -7.7147e+06 0 
-7.7147e+06 5.83203e+07 0 
0 0 0 
-1.56632e+07 -6.69396e+06 0 
-6.69396e+06 -9.02653e+06 0 
0 0 0 
-1.31522e+07 -2.57114e+07 0 
-2.57114e+07 2.32487e+07 0 
0 0 0 
-3.19475e+07 -2.71173e+07 0 
-2.71173e+07 1.2033e+06 0 
0 0 0 
-8.31067e+06 -1.2386e+07 0 
-1.2386e+07 5.54686e+07 0 
0 0 0 
-1.83628e+07 1.23996e+07 0 
1.23996e+07 1.97178e+07 0 
0 0 0 
3.13853e+06 6.24531e+06 0 
6.24531e+06 1.18597e+08 0 
0 0 0 
-3.5076e+07 7.36284e+06 0 
7.36284e+06 6.72184e+07 0 
0 0 0 
-6.75685e+07 2.32397e+07 0 
2.32397e+07 -1.4301e+07 0 
0 0 0 
-2.95329e+07 1.01626e+07 0 
1.01626e+07 6.15756e+07 0 
0 0 0 
1.4625e+07 2.26742e+07 0 
2.26742e+07 9.44369e+07 0 
0 0 0 
5.06947e+07 2.088e+07 0 
2.088e+07 9.31398e+07 0 
0 0 0 
-1.17651e+07 1.01958e+07 0 
1.01958e+07 -6.80405e+07 0 
0 0 0 
-1.129e+07 2.88915e+07 0 
2.88915e+07 -489562 0 
0 0 0 
-2.89373e+06 2.22752e+07 0 
2.22752e+07 1.18918e+07 0 
0 0 0 
1.96489e+07 1.76115e+07 0 
1.76115e+07 6.22688e+07 0 
0 0 0 
1.39688e+07 1.81931e+07 0 
1.81931e+07 3.36718e+07 0 
0 0 0 
2.28128e+07 1.74706e+07 0 
1.74706e+07 1.27821e+07 0 
0 0 0 
4.63742e+07 5.66039e+06 0 
5.66039e+06 5.50459e+07 0 
0 0 0 
2.44546e+07 1.72071e+07 0 
1.72071e+07 3.14531e+06 0 
0 0 0 
7.97062e+06 2.21479e+06 0 
2.21479e+06 1.37607e+06 0 
0 0 0 
5.3617e+06 5.32213e+06 0 
5.32213e+06 2.00089e+07 0 
0 0 0 
3.07674e+07 -2.69951e+06 0 
-2.69951e+06 4.65834e+07 0 
0 0 0 
4.3723e+07 -1.14927e+07 0 
-1.14927e+07 2.61511e+07 0 
0 0 0 
3.8551e+07 3.40588e+06 0 
3.40588e+06 2.00525e+06 0 
0 0 0 
1.18001e+07 -345383 0 
-345383 -1.63173e+07 0 
0 0 0 
-1.69096e+07 -5.12892e+06 0 
-5.12892e+06 -2.79627e+07 0 
0 0 0 
-2.79517e+07 -1.22221e+07 0 
-1.22221e+07 -4.39855e+07 0 
0 0 0 
-1.46902e+07 2.65234e+06 0 
2.65234e+06 2.82724e+06 0 
0 0 0 
-3.33257e+07 1.43413e+06 0 
1.43413e+06 -2.11355e+07 0 
0 0 0 
-1.44868e+06 1.54953e+06 0 
1.54953e+06 2.96031e+07 0 
0 0 0 
1.65191e+07 -1.06746e+06 0 
-1.06746e+06 4.19362e+07 0 
0 0 0 
-9.8815e+06 -4.06538e+06 0 
-4.06538e+06 -3.24178e+07 0 
0 0 0 
-2.3076e+07 3.64284e+06 0 
3.64284e+06 1.13914e+07 0 
0 0 0 
-4.67517e+07 -2.41082e+06 0 
-2.41082e+06 -4.43457e+07 0 
0 0 0 
-4.21147e+07 -2.3291e+06 0 
-2.3291e+06 -2.29618e+07 0 
0 0 0 
-4.36636e+07 -7.37519e+06 0 
-7.37519e+06 -1.59993e+07 0 
0 0 0 
-4.34903e+07 -2.27783e+06 0 
-2.27783e+06 -2.15574e+07 0 
0 0 0 
-2.2059e+07 5.39226e+06 0 
5.39226e+06 4.46846e+07 0 
0 0 0 
0 0 0 
0 0 0 
0 0 0 
6.61573e+06 -1.81936e+06 0 
-1.81936e+06 9.78852e+06 0 
0 0 0 
1.29165e+07 -347132 0 
-347132 2.3333e+07 0 
0 0 0 
2.12157e+07 -2.88602e+06 0 
-2.88602e+06 2.10478e+07 0 
0 0 0 
-2.83241e+07 -3.32587e+06 0 
-3.32587e+06 -1.44936e+07 0 
0 0 0 
1.84729e+07 -1.58149e+06 0 
-1.58149e+06 -3.74802e+06 0 
0 0 0 
-3.5402e+07 5.35693e+06 0 
5.35693e+06 -1.41674e+07 0 
0 0 0 
2.76383e+07 5.38398e+06 0 
5.38398e+06 1.36391e+07 0 
0 0 0 
-1.21516e+07 969843 0 
969843 1.11368e+06 0 
0 0 0 
4.79808e+06 -6.63343e+06 0 
-6.63343e+06 2.84904e+06 0 
0 0 0 
-6.99931e+06 -4.73296e+06 0 
-4.73296e+06 692123 0 
0 0 0 
-1.22598e+07 -569704 0 
-569704 5.36287e+06 0 
0 0 0 
1.34487e+07 5.49975e+06 0 
5.49975e+06 1.90626e+07 0 
0 0 0 
-2.09475e+07 5.38486e+06 0 
5.38486e+06 1.08342e+07 0 
0 0 0 
1.46099e+07 -3.41571e+06 0 
-3.41571e+06 1.60393e+07 0 
0 0 0 
-3.58161e+06 -8.72177e+06 0 
-8.72177e+06 1.40278e+07 0 
0 0 0 
2.28441e+07 -962096 0 
-962096 2.76889e+07 0 
0 0 0 
3.47234e+06 -1.55337e+06 0 
-1.55337e+06 1.28017e+07 0 
0 0 0 
2.68517e+07 -9.4028e+06 0 
-9.4028e+06 1.78446e+07 0 
0 0 0 
-9.31402e+06 -9.39489e+06 0 
-9.39489e+06 2.31307e+06 0 
0 0 0 
-3.3989e+06 7.05016e+06 0 
7.05016e+06 7.247e+06 0 
0 0 0 
3.44217e+06 1.23054e+06 0 
1.23054e+06 -4.16471e+06 0 
0 0 0 
-2.71381e+07 1.0438e+06 0 
1.0438e+06 -1.10774e+07 0 
0 0 0 
5.44756e+06 -1.44217e+06 0 
-1.44217e+06 -8.52587e+06 0 
0 0 0 
-5.05669e+06 -9.36039e+06 0 
-9.36039e+06 -463698 0 
0 0 0 
2.40925e+07 -2.08053e+06 0 
-2.08053e+06 1.46365e+07 0 
0 0 0 
1.69863e+07 5.28937e+06 0 
5.28937e+06 1.60364e+06 0 
0 0 0 
-290856 1.054e+07 0 
1.054e+07 -633374 0 
0 0 0 
-4.2778e+07 6.18715e+06 0 
6.18715e+06 -2.53839e+07 0 
0 0 0 
-1.28819e+07 -1.87864e+06 0 
-1.87864e+06 3.11242e+06 0 
0 0 0 
-3.41256e+07 -2.20278e+06 0 
-2.20278e+06 5.51372e+06 0 
0 0 0 
3.13184e+07 -5.52603e+06 0 
-5.52603e+06 3.42261e+07 0 
0 0 0 
3.00544e+07 4.3475e+06 0 
4.3475e+06 3.84079e+07 0 
0 0 0 
1.89917e+07 906624 0 
906624 3.70123e+07 0 
0 0 0 
1.63217e+07 -1.4103e+06 0 
-1.4103e+06 3.84158e+07 0 
0 0 0 
2.96636e+07 -5.44086e+06 0 
-5.44086e+06 4.53592e+07 0 
0 0 0 
1.97588e+07 -1.80332e+07 0 
-1.80332e+07 5.23047e+07 0 
0 0 0 
2.99683e+07 -5.19695e+06 0 
-5.19695e+06 5.58798e+07 0 
0 0 0 
5.0151e+06 128422 0 
128422 3.79807e+07 0 
0 0 0 
8.35811e+06 4.586e+06 0 
4.586e+06 1.41398e+07 0 
0 0 0 
-2.57293e+07 5.99373e+06 0 
5.99373e+06 -1.82891e+07 0 
0 0 0 
-3.82394e+07 -2.31436e+06 0 
-2.31436e+06 -3.24879e+07 0 
0 0 0 
-1.78084e+07 -3.9111e+06 0 
-3.9111e+06 -2.07743e+07 0 
0 0 0 
3.26935e+06 2.72032e+06 0 
2.72032e+06 3.61382e+06 0 
0 0 0 
1.55304e+07 1.68767e+06 0 
1.68767e+06 1.3994e+07 0 
0 0 0 
6.50327e+06 1.85549e+06 0 
1.85549e+06 6.58683e+06 0 
0 0 0 
-2.50412e+07 1.20498e+07 0 
1.20498e+07 -1.18436e+07 0 
0 0 0 
-6.27752e+06 1.5525e+07 0 
1.5525e+07 -2.36813e+06 0 
0 0 0 
-2.41999e+07 1.71391e+07 0 
1.71391e+07 -1.25164e+07 0 
0 0 0 
2.02251e+07 2.78492e+06 0 
2.78492e+06 -990632 0 
0 0 0 
1.01833e+07 1.87642e+06 0 
1.87642e+06 -2.05675e+07 0 
0 0 0 
-1.49043e+07 -167120 0 
-167120 -2.6933e+07 0 
0 0 0 
-2.7057e+07 2.49726e+06 0 
2.49726e+06 -2.76039e+07 0 
0 0 0 
-1.91269e+07 4.53998e+06 0 
4.53998e+06 -3.65938e+07 0 
0 0 0 
-9.76355e+06 -3.41264e+06 0 
-3.41264e+06 -1.85749e+07 0 
0 0 0 
-1.37886e+07 -3.72026e+06 0 
-3.72026e+06 -1.50715e+07 0 
0 0 0 
3.33242e+07 -464707 0 
-464707 6.0322e+06 0 
0 0 0 
-1.0283e+07 9.08181e+06 0 
9.08181e+06 1.13967e+07 0 
0 0 0 
6.50102e+06 1.46927e+07 0 
1.46927e+07 2.29075e+07 0 
0 0 0 
-2.01299e+07 5.5267e+06 0 
5.5267e+06 4.53219e+06 0 
0 0 0 
3.90422e+07 1.46032e+07 0 
1.46032e+07 2.05428e+07 0 
0 0 0 
1.97186e+07 1.62364e+06 0 
1.62364e+06 2.79845e+07 0 
0 0 0 
4.21551e+07 2.27612e+06 0 
2.27612e+06 3.75252e+07 0 
0 0 0 
1.46175e+07 3.39567e+06 0 
3.39567e+06 2.51772e+07 0 
0 0 0 
361828 -1.73923e+06 0 
-1.73923e+06 2.19371e+07 0 
0 0 0 
-1.35819e+07 1.51829e+06 0 
1.51829e+06 1.81166e+07 0 
0 0 0 
-9.07952e+06 -2.97932e+06 0 
-2.97932e+06 6.33676e+06 0 
0 0 0 
-1.07982e+07 -4.61253e+06 0 
-4.61253e+06 -3.2195e+06 0 
0 0 0 
-1.46913e+07 -1.38341e+06 0 
-1.38341e+06 -1.5915e+07 0 
0 0 0 
-2.44872e+07 5.93144e+06 0 
5.93144e+06 -3.55503e+07 0 
0 0 0 
-3.02202e+07 -5.13059e+06 0 
-5.13059e+06 -3.34904e+07 0 
0 0 0 
2.64668e+07 -3.66327e+06 0 
-3.66327e+06 -1.14382e+07 0 
0 0 0 
-1.33361e+07 -7.56756e+06 0 
-7.56756e+06 -6.41491e+06 0 
0 0 0 
3.65772e+07 1.12127e+07 0 
1.12127e+07 8.61581e+06 0 
0 0 0 
-1.791e+07 1.2043e+07 0 
1.2043e+07 2.39554e+07 0 
0 0 0 
463197 1.57913e+07 0 
1.57913e+07 3.43977e+06 0 
0 0 0 
0 0 0 
0 0 0 
0 0 0 
3.11427e+07 2.99642e+06 0 
2.99642e+06 4.77089e+07 0 
0 0 0 
4.93391e+07 -3.75074e+06 0 
-3.75074e+06 8.61716e+07 0 
0 0 0 
4.23239e+07 -155209 0 
-155209 1.02727e+08 0 
0 0 0 
2.81782e+07 1.41222e+07 0 
1.41222e+07 7.14199e+07 0 
0 0 0 
-9.24382e+06 2.62207e+07 0 
2.62207e+07 5.72614e+06 0 
0 0 0 
-7.62728e+06 -2.13257e+06 0 
-2.13257e+06 3.36794e+07 0 
0 0 0 
-4.12165e+06 -9.9615e+06 0 
-9.9615e+06 8.59517e+07 0 
0 0 0 
-1.26607e+07 -8.06829e+06 0 
-8.06829e+06 5.60653e+07 0 
0 0 0 
-2.13666e+07 -1.07844e+07 0 
-1.07844e+07 -1.24676e+07 0 
0 0 0 
4.83412e+06 -4.4605e+06 0 
-4.4605e+06 6.37238e+06 0 
0 0 0 
5.16042e+07 1.90766e+06 0 
1.90766e+06 8.48193e+07 0 
0 0 0 
3.30611e+07 6.81757e+06 0 
6.81757e+06 4.07643e+07 0 
0 0 0 
1.74483e+07 7.93772e+06 0 
7.93772e+06 1.49402e+07 0 
0 0 0 
-7.25646e+06 -4.966e+06 0 
-4.966e+06 -3.18184e+07 0 
0 0 0 
9.64952e+06 -3.25895e+06 0 
-3.25895e+06 4.46121e+07 0 
0 0 0 
2.84948e+06 -8.29116e+06 0 
-8.29116e+06 3.27019e+07 0 
0 0 0 
-3.86825e+07 -1.09577e+07 0 
-1.09577e+07 -1.58991e+07 0 
0 0 0 
-5.34643e+07 5.9965e+06 0 
5.9965e+06 -1.25281e+08 0 
0 0 0 
-2.64928e+07 2.50209e+06 0 
2.50209e+06 -6.61962e+07 0 
0 0 0 
-3.71524e+07 3.02405e+07 0 
3.02405e+07 2.79564e+06 0 
0 0 0 
-7.87349e+07 3.10316e+07 0 
3.10316e+07 5.27187e+06 0 
0 0 0 
2.63381e+07 1.38254e+07 0 
1.38254e+07 -5.16209e+07 0 
0 0 0 
1.89369e+07 1.48034e+07 0 
1.48034e+07 -6.53833e+07 0 
0 0 0 
-1.95394e+07 -9.0621e+06 0 
-9.0621e+06 -4.4197e+07 0 
0 0 0 
1.47118e+07 -1.37872e+07 0 
-1.37872e+07 -4.22663e+07 0 
0 0 0 
1.61094e+06 -1.44089e+07 0 
-1.44089e+07 -5.37795e+07 0 
0 0 0 
800281 -1.85473e+07 0 
-1.85473e+07 -7.43956e+07 0 
0 0 0 
4.79644e+06 -2.61357e+07 0 
-2.61357e+07 -4.54597e+07 0 
0 0 0 
-1.37215e+07 -1.91967e+07 0 
-1.91967e+07 -8.51346e+06 0 
0 0 0 
-7.10003e+07 -1.60644e+07 0 
-1.60644e+07 -4.45841e+07 0 
0 0 0 
-8.10753e+07 -7.20833e+06 0 
-7.20833e+06 -3.2208e+07 0 
0 0 0 
-9.82425e+07 -4.81702e+06 0 
-4.81702e+06 -1.05507e+08 0 
0 0 0 
-6.6079e+07 -1.24351e+07 0 
-1.24351e+07 -4.97176e+07 0 
0 0 0 
-4.33199e+07 -1.74011e+07 0 
-1.74011e+07 -4.33863e+06 0 
0 0 0 
1.61056e+07 -9.08615e+06 0 
-9.08615e+06 6.78219e+07 0 
0 0 0 
-2.75416e+07 -4.34304e+06 0 
-4.34304e+06 -2.47796e+07 0 
0 0 0 
2.69416e+06 -1.77397e+07 0 
-1.77397e+07 2.55343e+07 0 
0 0 0 
1.9484e+07 -2.21426e+07 0 
-2.21426e+07 1.26202e+07 0 
0 0 0 
5.05281e+07 -1.57506e+07 0 
-1.57506e+07 1.07243e+08 0 
0 0 0 
2.43382e+07 7.32845e+06 0 
7.32845e+06 4.55842e+07 0 
0 0 0 
4.16397e+07 1.12899e+07 0 
1.12899e+07 1.37351e+08 0 
0 0 0 
3.15306e+07 8.89375e+06 0 
8.89375e+06 9.24911e+07 0 
0 0 0 
1.66361e+07 2.78456e+07 0 
2.78456e+07 4.11326e+07 0 
0 0 0 
2.27004e+07 2.86387e+07 0 
2.86387e+07 5.58314e+07 0 
0 0 0 
2.83314e+07 2.23525e+07 0 
2.23525e+07 9.41467e+07 0 
0 0 0 
3.13694e+06 5.9886e+06 0 
5.9886e+06 8.60269e+07 0 
0 0 0 
-2.6196e+07 2.52441e+07 0 
2.52441e+07 -3.99734e+07 0 
0 0 0 
-1.29279e+07 3.23177e+07 0 
3.23177e+07 -1.33105e+07 0 
0 0 0 
-1.4391e+07 3.72306e+07 0 
3.72306e+07 741672 0 
0 0 0 
5.12459e+06 2.16963e+07 0 
2.16963e+07 4.35252e+07 0 
0 0 0 
3.52653e+06 2.46793e+07 0 
2.46793e+07 3.36154e+07 0 
0 0 0 
-2.49136e+06 2.27036e+07 0 
2.27036e+07 2.97203e+06 0 
0 0 0 
2.56408e+07 1.36542e+07 0 
1.36542e+07 4.21821e+07 0 
0 0 0 
2.75589e+07 7.1084e+06 0 
7.1084e+06 1.97254e+06 0 
0 0 0 
3.51312e+07 -944821 0 
-944821 1.99267e+06 0 
0 0 0 
4.47347e+07 -3.53419e+06 0 
-3.53419e+06 3.44036e+07 0 
0 0 0 
2.11741e+07 2.67085e+06 0 
2.67085e+06 2.03451e+07 0 
0 0 0 
-1.32053e+06 -6.4051e+06 0 
-6.4051e+06 2.92356e+07 0 
0 0 0 
-3.02279e+07 -7.97292e+06 0 
-7.97292e+06 -1.72485e+07 0 
0 0 0 
-9.17545e+06 -7.37763e+06 0 
-7.37763e+06 -3.00888e+07 0 
0 0 0 
1.22079e+07 -1.17143e+07 0 
-1.17143e+07 -3.28894e+07 0 
0 0 0 
7.39227e+06 -5.89268e+06 0 
-5.89268e+06 -2.22893e+07 0 
0 0 0 
9.01677e+06 6.09801e+06 0 
6.09801e+06 2.71434e+07 0 
0 0 0 
1.45054e+07 9.33405e+06 0 
9.33405e+06 2.40116e+06 0 
0 0 0 
1.67885e+07 9.45963e+06 0 
9.45963e+06 1.57073e+07 0 
0 0 0 
4.46508e+06 -3.25031e+06 0 
-3.25031e+06 3.0164e+07 0 
0 0 0 
-2.20402e+07 -9.03271e+06 0 
-9.03271e+06 -3.13748e+07 0 
0 0 0 
2.20999e+07 1.59428e+06 0 
1.59428e+06 2.94915e+07 0 
0 0 0 
7.79446e+06 -7.34297e+06 0 
-7.34297e+06 -4.32596e+07 0 
0 0 0 
2.85677e+07 -1.08928e+07 0 
-1.08928e+07 6.56148e+06 0 
0 0 0 
2.93183e+07 -3.15684e+06 0 
-3.15684e+06 2.67529e+07 0 
0 0 0 
1.15354e+07 7.25167e+06 0 
7.25167e+06 -2.52284e+06 0 
0 0 0 
4.08425e+07 -1.98088e+06 0 
-1.98088e+06 6.99126e+07 0 
0 0 0 
2.52941e+07 1.44124e+07 0 
1.44124e+07 4.4913e+07 0 
0 0 0 
0 0 0 
0 0 0 
0 0 0 
7.21634e+06 2.73124e+06 0 
2.73124e+06 -6.15107e+06 0 
0 0 0 
1.75179e+06 6.94846e+06 0 
6.94846e+06 -1.15772e+07 0 
0 0 0 
1.57239e+06 -2.69557e+06 0 
-2.69557e+06 -8.15314e+06 0 
0 0 0 
-1.18271e+07 -891675 0 
-891675 -4.37952e+06 0 
0 0 0 
1.20031e+07 -5.05544e+06 0 
-5.05544e+06 8.99251e+06 0 
0 0 0 
-1.06769e+07 -603037 0 
-603037 -2.25326e+06 0 
0 0 0 
7.80906e+06 5.3012e+06 0 
5.3012e+06 5.39028e+06 0 
0 0 0 
-1.28027e+07 -5.601e+06 0 
-5.601e+06 -1.09678e+07 0 
0 0 0 
-1.26078e+07 -2.40167e+06 0 
-2.40167e+06 -1.23247e+07 0 
0 0 0 
-3.33264e+06 -2.81401e+06 0 
-2.81401e+06 -8.16872e+06 0 
0 0 0 
-1.34685e+07 2.49189e+06 0 
2.49189e+06 -2.13662e+07 0 
0 0 0 
-2.07479e+06 7.0617e+06 0 
7.0617e+06 -2.13473e+07 0 
0 0 0 
-4.99652e+07 6.61375e+06 0 
6.61375e+06 -4.81411e+07 0 
0 0 0 
2.5011e+06 3.92326e+06 0 
3.92326e+06 -2.7939e+07 0 
0 0 0 
-2.70513e+07 6.7699e+06 0 
6.7699e+06 -3.23756e+07 0 
0 0 0 
3.0028e+07 3.08653e+06 0 
3.08653e+06 -6.67384e+06 0 
0 0 0 
-8.30732e+06 -4.92192e+06 0 
-4.92192e+06 -9.28246e+06 0 
0 0 0 
1.43993e+06 -1.40247e+06 0 
-1.40247e+06 -9.24492e+06 0 
0 0 0 
9.89663e+06 1.9214e+06 0 
1.9214e+06 43342.3 0 
0 0 0 
-1.26362e+06 1.29036e+07 0 
1.29036e+07 -1.34173e+06 0 
0 0 0 
-6.19011e+06 5.08203e+06 0 
5.08203e+06 1.0834e+07 0 
0 0 0 
-1.8046e+07 -5.58364e+06 0 
-5.58364e+06 3.41549e+06 0 
0 0 0 
-8.87798e+06 -5.71701e+06 0 
-5.71701e+06 1.06601e+07 0 
0 0 0 
640951 -5.59527e+06 0 
-5.59527e+06 1.06683e+07 0 
0 0 0 
4.2568e+07 -1.13987e+07 0 
-1.13987e+07 2.3628e+07 0 
0 0 0 
3.16189e+07 -4.90604e+06 0 
-4.90604e+06 1.40934e+07 0 
0 0 0 
1.09673e+06 2.21086e+06 0 
2.21086e+06 -1.28716e+07 0 
0 0 0 
-5.96573e+07 768520 0 
768520 -3.82661e+07 0 
0 0 0 
-3.44152e+07 -653993 0 
-653993 -4.53947e+07 0 
0 0 0 
-5.54679e+07 -4.11661e+06 0 
-4.11661e+06 -4.58314e+07 0 
0 0 0 
1.86498e+07 -960738 0 
-960738 -2.50869e+07 0 
0 0 0 
8.01932e+06 -4.71131e+06 0 
-4.71131e+06 -2.29037e+07 0 
0 0 0 
7.22547e+06 2.50303e+06 0 
2.50303e+06 -1.7965e+07 0 
0 0 0 
-1.0429e+07 5.0952e+06 0 
5.0952e+06 -2.04447e+07 0 
0 0 0 
2.53719e+06 -6.08862e+06 0 
-6.08862e+06 -7.58051e+06 0 
0 0 0 
-8.80038e+06 -1.30057e+07 0 
-1.30057e+07 -1.04722e+07 0 
0 0 0 
1.673e+07 -1.4919e+07 0 
-1.4919e+07 -1.02522e+06 0 
0 0 0 
1.45204e+07 -1.7021e+07 0 
-1.7021e+07 -1.754e+07 0 
0 0 0 
-1.87808e+07 -2.35074e+06 0 
-2.35074e+06 -3.2801e+07 0 
0 0 0 
-2.67642e+07 -7.04552e+06 0 
-7.04552e+06 -3.78125e+07 0 
0 0 0 
-4.41966e+07 -231141 0 
-231141 -3.8194e+07 0 
0 0 0 
-2.30115e+06 6.58114e+06 0 
6.58114e+06 -5.1486e+06 0 
0 0 0 
-1.38784e+07 5.63547e+06 0 
5.63547e+06 -3.62904e+06 0 
0 0 0 
1.99333e+07 3.2728e+06 0 
3.2728e+06 1.08517e+07 0 
0 0 0 
1.70833e+07 908206 0 
908206 1.35835e+07 0 
0 0 0 
-2.07137e+07 -714972 0 
-714972 5.84751e+06 0 
0 0 0 
2.09897e+07 8.83833e+06 0 
8.83833e+06 2.19589e+07 0 
0 0 0 
-3.6725e+07 5.77823e+06 0 
5.77823e+06 -5.35644e+06 0 
0 0 0 
1.338e+07 4.0708e+06 0 
4.0708e+06 -1.61333e+06 0 
0 0 0 
8.74282e+06 -8.15658e+06 0 
-8.15658e+06 6.84669e+06 0 
0 0 0 
-7.11112e+06 -3.88561e+06 0 
-3.88561e+06 -7.52955e+06 0 
0 0 0 
-6.16146e+06 -3.82697e+06 0 
-3.82697e+06 -1.04803e+07 0 
0 0 0 
-2.54318e+07 -406982 0 
-406982 -9.61209e+06 0 
0 0 0 
-7.64901e+06 1.86689e+06 0 
1.86689e+06 -5.98382e+06 0 
0 0 0 
5.70934e+06 881285 0 
881285 1.38556e+07 0 
0 0 0 
5.31644e+07 3.90683e+06 0 
3.90683e+06 5.08205e+07 0 
0 0 0 
-2.05099e+06 899873 0 
899873 3.21457e+07 0 
0 0 0 
1.58843e+07 9.90628e+06 0 
9.90628e+06 2.27867e+07 0 
0 0 0 
-1.44391e+07 4.07563e+06 0 
4.07563e+06 4.40943e+06 0 
0 0 0 
2.76796e+07 8.06027e+06 0 
8.06027e+06 2.35511e+07 0 
0 0 0 
4.43927e+06 3.8348e+06 0 
3.8348e+06 2.13306e+07 0 
0 0 0 
4.53093e+07 -93793.8 0 
-93793.8 3.91e+07 0 
0 0 0 
-2.20112e+07 -8.10032e+06 0 
-8.10032e+06 5.404e+06 0 
0 0 0 
107556 -1.06447e+07 0 
-1.06447e+07 -8.54473e+06 0 
0 0 0 
-2.99044e+07 -1.27129e+07 0 
-1.27129e+07 -3.57652e+07 0 
0 0 0 
-1.83084e+07 -8.60777e+06 0 
-8.60777e+06 -3.19408e+07 0 
0 0 0 
-2.82342e+07 -7.99695e+06 0 
-7.99695e+06 -4.55428e+07 0 
0 0 0 
-7.5609e+06 -7.7545e+06 0 
-7.7545e+06 -3.64952e+07 0 
0 0 0 
-2.33426e+07 2.58477e+06 0 
2.58477e+06 -4.25886e+07 0 
0 0 0 
-4.28064e+07 5.43987e+06 0 
5.43987e+06 -5.26597e+07 0 
0 0 0 
1.66144e+07 -676115 0 
-676115 -1.0901e+07 0 
0 0 0 
4.43556e+06 3.97638e+06 0 
3.97638e+06 -3.69272e+06 0 
0 0 0 
3.98509e+07 -6.74455e+06 0 
-6.74455e+06 1.33016e+07 0 
0 0 0 
-4.29391e+06 4.78701e+06 0 
4.78701e+06 -1.66063e+07 0 
0 0 0 
-5.38089e+06 2.36033e+07 0 
2.36033e+07 1.01798e+07 0 
0 0 0 
-1.22007e+07 -3.04438e+06 0 
-3.04438e+06 -3.92347e+07 0 
0 0 0 
0 0 0 
0 0 0 
0 0 0 
3.54277e+06 939571 0 
939571 3.79024e+07 0 
0 0 0 
1.67201e+07 6.61035e+06 0 
6.61035e+06 6.85973e+07 0 
0 0 0 
3.0167e+07 -7.16364e+06 0 
-7.16364e+06 9.90426e+07 0 
0 0 0 
4.22692e+06 -5.18415e+06 0 
-5.18415e+06 7.9377e+07 0 
0 0 0 
-3.33124e+07 6.41555e+06 0 
6.41555e+06 2.8172e+06 0 
0 0 0 
-4.45911e+07 5.28498e+06 0 
5.28498e+06 2.47537e+06 0 
0 0 0 
-8.47398e+06 2.13974e+06 0 
2.13974e+06 7.47306e+07 0 
0 0 0 
-4.63422e+06 -5.30013e+06 0 
-5.30013e+06 5.35167e+07 0 
0 0 0 
-2.71885e+07 -1.38291e+07 0 
-1.38291e+07 -6.13393e+06 0 
0 0 0 
-1.86254e+07 4.1269e+06 0 
4.1269e+06 6.33931e+06 0 
0 0 0 
1.4309e+07 4.26084e+06 0 
4.26084e+06 7.6047e+07 0 
0 0 0 
-499838 -6.84587e+06 0 
-6.84587e+06 2.95816e+07 0 
0 0 0 
-7.78403e+06 -4.65056e+06 0 
-4.65056e+06 8.93061e+06 0 
0 0 0 
-303654 1.01371e+07 0 
1.01371e+07 -4.15047e+07 0 
0 0 0 
2.79824e+07 -1.46711e+07 0 
-1.46711e+07 4.07134e+07 0 
0 0 0 
2.24693e+07 -1.65119e+07 0 
-1.65119e+07 3.32042e+07 0 
0 0 0 
2.50016e+07 -3.36403e+07 0 
-3.36403e+07 -980067 0 
0 0 0 
-3.16777e+07 -5.84939e+06 0 
-5.84939e+06 -9.18581e+07 0 
0 0 0 
-1.14546e+07 1.64829e+06 0 
1.64829e+06 -4.50191e+07 0 
0 0 0 
1.07418e+07 9.43904e+06 0 
9.43904e+06 2.46399e+07 0 
0 0 0 
7.15345e+06 -895789 0 
-895789 2.70638e+07 0 
0 0 0 
3.03266e+07 3.87535e+07 0 
3.87535e+07 -3.65026e+07 0 
0 0 0 
8.31716e+07 2.9821e+07 0 
2.9821e+07 -8.14923e+07 0 
0 0 0 
6.23737e+07 1.83408e+07 0 
1.83408e+07 -5.12008e+07 0 
0 0 0 
1.82404e+07 -1.19377e+07 0 
-1.19377e+07 -6.41627e+07 0 
0 0 0 
3.41137e+07 -1.53002e+07 0 
-1.53002e+07 -2.45725e+07 0 
0 0 0 
-1.2281e+07 -1.77262e+07 0 
-1.77262e+07 -9.78372e+07 0 
0 0 0 
3.47883e+07 -2.56547e+07 0 
-2.56547e+07 -2.64703e+07 0 
0 0 0 
7.10592e+07 -3.23074e+07 0 
-3.23074e+07 1.63949e+07 0 
0 0 0 
9.54101e+07 -1.22598e+07 0 
-1.22598e+07 2.81395e+07 0 
0 0 0 
6.21338e+07 -2.37609e+07 0 
-2.37609e+07 2.28762e+07 0 
0 0 0 
-2.62629e+06 -1.79154e+06 0 
-1.79154e+06 -6.27199e+07 0 
0 0 0 
-1.03309e+07 -1.80867e+07 0 
-1.80867e+07 -5.94152e+07 0 
0 0 0 
-1.38306e+06 954629 0 
954629 2.1005e+07 0 
0 0 0 
-5.07804e+06 -7.76749e+06 0 
-7.76749e+06 7.01878e+07 0 
0 0 0 
-1.65205e+07 -6.16768e+06 0 
-6.16768e+06 -2.27252e+07 0 
0 0 0 
-4.70463e+06 -1.24343e+07 0 
-1.24343e+07 5.94949e+06 0 
0 0 0 
6.64155e+06 -1.95636e+07 0 
-1.95636e+07 2.72944e+07 0 
0 0 0 
6.71514e+07 6.78856e+06 0 
6.78856e+06 1.31395e+08 0 
0 0 0 
5.16417e+07 2.51467e+06 0 
2.51467e+06 5.59423e+07 0 
0 0 0 
7.87348e+07 -6.09542e+06 0 
-6.09542e+06 1.43192e+08 0 
0 0 0 
7.0699e+07 -3.08241e+06 0 
-3.08241e+06 1.12938e+08 0 
0 0 0 
4.32723e+07 5.45882e+06 0 
5.45882e+06 7.31587e+07 0 
0 0 0 
3.44657e+07 1.86175e+07 0 
1.86175e+07 6.85337e+07 0 
0 0 0 
4.5476e+07 2.781e+07 0 
2.781e+07 8.05789e+07 0 
0 0 0 
6.40727e+07 1.9243e+07 0 
1.9243e+07 1.13902e+08 0 
0 0 0 
3.56976e+07 1.7487e+07 0 
1.7487e+07 1.42297e+07 0 
0 0 0 
6.11948e+07 3.45278e+07 0 
3.45278e+07 2.92017e+07 0 
0 0 0 
4.13263e+07 3.67254e+07 0 
3.67254e+07 -4.55948e+06 0 
0 0 0 
3.69806e+07 2.7929e+07 0 
2.7929e+07 4.17649e+07 0 
0 0 0 
3.6573e+07 2.91704e+07 0 
2.91704e+07 4.40991e+07 0 
0 0 0 
6.35524e+06 2.65362e+07 0 
2.65362e+07 6.87697e+06 0 
0 0 0 
-1.7997e+06 2.04058e+07 0 
2.04058e+07 1.12508e+07 0 
0 0 0 
-2.94996e+07 3.51643e+06 0 
3.51643e+06 -3.13542e+07 0 
0 0 0 
-4.27085e+07 -4.25056e+06 0 
-4.25056e+06 -1.84996e+07 0 
0 0 0 
-2.96759e+07 1.44849e+06 0 
1.44849e+06 1.39711e+07 0 
0 0 0 
-4.09063e+07 -2.2927e+06 0 
-2.2927e+06 -7.06768e+06 0 
0 0 0 
-8.12002e+06 -3.14665e+06 0 
-3.14665e+06 2.46617e+07 0 
0 0 0 
1.48521e+07 -4.68284e+06 0 
-4.68284e+06 -1.62675e+07 0 
0 0 0 
2.06426e+06 -7.36964e+06 0 
-7.36964e+06 -2.77174e+07 0 
0 0 0 
-3.95639e+06 -8.17064e+06 0 
-8.17064e+06 -2.44472e+07 0 
0 0 0 
2.97818e+06 -8.42e+06 0 
-8.42e+06 -1.639e+07 0 
0 0 0 
2.13106e+07 -1.4495e+06 0 
-1.4495e+06 3.22335e+07 0 
0 0 0 
-2.50739e+07 -4.4511e+06 0 
-4.4511e+06 -1.0006e+07 0 
0 0 0 
-4.00894e+07 -3.38157e+06 0 
-3.38157e+06 -7.74068e+06 0 
0 0 0 
-2.74623e+07 -2.62393e+06 0 
-2.62393e+06 8.85009e+06 0 
0 0 0 
-2.2425e+07 306095 0 
306095 -2.55132e+07 0 
0 0 0 
-1.41204e+07 4.22086e+06 0 
4.22086e+06 1.36837e+07 0 
0 0 0 
-4.25731e+07 505134 0 
505134 -6.21113e+07 0 
0 0 0 
-3.14312e+07 82943.8 0 
82943.8 -1.47278e+07 0 
0 0 0 
-4.51798e+06 -5.84789e+06 0 
-5.84789e+06 3.90513e+07 0 
0 0 0 
-3.91169e+06 1.21597e+06 0 
1.21597e+06 -1.75344e+07 0 
0 0 0 
2.03214e+07 190773 0 
190773 6.28896e+07 0 
0 0 0 
6.20108e+06 1.56264e+06 0 
1.56264e+06 4.91442e+07 0 
0 0 0 
-6.53021e+06 1.09237e+07 0 
1.09237e+07 1.91906e+07 0 
0 0 0 
0 0 0 
0 0 0 
0 0 0 
7.18217e+06 -7.2426e+06 0 
-7.2426e+06 7.26396e+06 0 
0 0 0 
1.55251e+07 -3.41399e+06 0 
-3.41399e+06 5.21606e+06 0 
0 0 0 
5.79722e+06 -3.1254e+06 0 
-3.1254e+06 -4.18181e+06 0 
0 0 0 
-1.80952e+07 1.05094e+06 0 
1.05094e+06 -1.00042e+07 0 
0 0 0 
-292934 -6.83977e+06 0 
-6.83977e+06 -4.81782e+06 0 
0 0 0 
-8.13779e+06 -4.03384e+06 0 
-4.03384e+06 -1.0632e+07 0 
0 0 0 
-8.07288e+06 -3.66089e+06 0 
-3.66089e+06 -1.44639e+07 0 
0 0 0 
4.43827e+06 -9.98314e+06 0 
-9.98314e+06 188630 0 
0 0 0 
-1.00655e+07 2.55763e+06 0 
2.55763e+06 5.60389e+06 0 
0 0 0 
2.1492e+07 1.85233e+06 0 
1.85233e+06 2.81501e+07 0 
0 0 0 
-1.30658e+07 1.38209e+06 0 
1.38209e+06 2.89849e+07 0 
0 0 0 
3.59488e+07 1.50595e+06 0 
1.50595e+06 3.98184e+07 0 
0 0 0 
-3.95547e+07 1.04213e+07 0 
1.04213e+07 2.08893e+07 0 
0 0 0 
4.24322e+07 8.21283e+06 0 
8.21283e+06 5.24247e+07 0 
0 0 0 
-1.67932e+07 6.96871e+06 0 
6.96871e+06 3.48114e+07 0 
0 0 0 
3.66938e+07 181608 0 
181608 5.01589e+07 0 
0 0 0 
1.84761e+07 -9.5121e+06 0 
-9.5121e+06 3.33671e+07 0 
0 0 0 
6.55109e+06 -7.83245e+06 0 
-7.83245e+06 2.54606e+07 0 
0 0 0 
1.54104e+07 -6.7099e+06 0 
-6.7099e+06 1.59622e+07 0 
0 0 0 
-1.55957e+06 -5.63292e+06 0 
-5.63292e+06 -4.92462e+06 0 
0 0 0 
-2.18704e+07 -2.01026e+06 0 
-2.01026e+06 -3.46388e+07 0 
0 0 0 
-3.47551e+07 -1.68272e+06 0 
-1.68272e+06 -3.27339e+07 0 
0 0 0 
-6.7623e+06 5.42002e+06 0 
5.42002e+06 -2.51515e+07 0 
0 0 0 
-2.1239e+07 1.19392e+07 0 
1.19392e+07 -1.77591e+07 0 
0 0 0 
4.22832e+07 -927516 0 
-927516 6.89684e+06 0 
0 0 0 
8.54388e+06 -9.50716e+06 0 
-9.50716e+06 -9.77958e+06 0 
0 0 0 
-2.66575e+06 -1.75158e+07 0 
-1.75158e+07 -2.10305e+07 0 
0 0 0 
-4.66967e+07 -1.22013e+07 0 
-1.22013e+07 -5.34843e+07 0 
0 0 0 
-3.96837e+07 4.55068e+06 0 
4.55068e+06 -4.25935e+07 0 
0 0 0 
-3.56448e+07 1.02686e+07 0 
1.02686e+07 -3.70552e+07 0 
0 0 0 
1.58555e+07 7.82558e+06 0 
7.82558e+06 1.37991e+06 0 
0 0 0 
2.1366e+07 1.27664e+07 0 
1.27664e+07 7.37534e+06 0 
0 0 0 
6.65384e+06 1.5151e+06 0 
1.5151e+06 -4.14657e+06 0 
0 0 0 
-6.41003e+06 4.64384e+06 0 
4.64384e+06 -6.28929e+06 0 
0 0 0 
-7.94159e+06 -1.15238e+06 0 
-1.15238e+06 -6.62243e+06 0 
0 0 0 
-4.50074e+06 -6.08168e+06 0 
-6.08168e+06 6.48475e+06 0 
0 0 0 
1.48424e+07 -7.83795e+06 0 
-7.83795e+06 1.80076e+07 0 
0 0 0 
3.11457e+07 -1.95794e+07 0 
-1.95794e+07 3.93147e+07 0 
0 0 0 
7.61469e+06 -2.12964e+07 0 
-2.12964e+07 3.75514e+07 0 
0 0 0 
1.32785e+07 -1.11589e+07 0 
-1.11589e+07 3.43755e+07 0 
0 0 0 
-1.16205e+07 3.50831e+06 0 
3.50831e+06 2.77804e+07 0 
0 0 0 
2.52695e+07 9.40419e+06 0 
9.40419e+06 3.53209e+07 0 
0 0 0 
-1.90936e+07 1.53658e+07 0 
1.53658e+07 2.71189e+07 0 
0 0 0 
3.03748e+07 6.86817e+06 0 
6.86817e+06 4.76266e+07 0 
0 0 0 
1.91058e+07 -1.48536e+06 0 
-1.48536e+06 4.72125e+07 0 
0 0 0 
2.23876e+06 4.78899e+06 0 
4.78899e+06 4.26075e+07 0 
0 0 0 
3.09014e+07 7.37258e+06 0 
7.37258e+06 4.09727e+07 0 
0 0 0 
-2.33872e+07 1.78192e+06 0 
1.78192e+06 1.92014e+07 0 
0 0 0 
1.38828e+07 2.22885e+06 0 
2.22885e+06 3.65289e+07 0 
0 0 0 
-1.8937e+06 -5.40463e+06 0 
-5.40463e+06 2.07691e+07 0 
0 0 0 
8.3003e+06 -1.04931e+07 0 
-1.04931e+07 1.64035e+07 0 
0 0 0 
8.04429e+06 2.00394e+06 0 
2.00394e+06 1.54458e+07 0 
0 0 0 
-4.70539e+06 5.53586e+06 0 
5.53586e+06 2.24833e+07 0 
0 0 0 
1.47016e+07 1.59675e+07 0 
1.59675e+07 3.21292e+07 0 
0 0 0 
8.61484e+06 2.24574e+07 0 
2.24574e+07 4.31845e+07 0 
0 0 0 
4.20454e+07 3.75629e+06 0 
3.75629e+06 5.26489e+07 0 
0 0 0 
-6.6722e+06 3.04019e+06 0 
3.04019e+06 3.50372e+07 0 
0 0 0 
3.68206e+07 -9.20406e+06 0 
-9.20406e+06 4.13056e+07 0 
0 0 0 
-4.94696e+06 1.04987e+06 0 
1.04987e+06 2.33856e+07 0 
0 0 0 
2.2231e+07 5.11325e+06 0 
5.11325e+06 2.87693e+07 0 
0 0 0 
-309244 6.11616e+06 0 
6.11616e+06 3.01196e+06 0 
0 0 0 
2.12476e+07 292158 0 
292158 8.31473e+06 0 
0 0 0 
-3.85259e+07 -3.954e+06 0 
-3.954e+06 -7.20615e+06 0 
0 0 0 
1.06564e+07 -6.78501e+06 0 
-6.78501e+06 4.8201e+06 0 
0 0 0 
-3.52652e+07 -7.06281e+06 0 
-7.06281e+06 -2.4732e+07 0 
0 0 0 
5.9349e+06 -1.07672e+06 0 
-1.07672e+06 -2.01212e+07 0 
0 0 0 
-2.32902e+07 569978 0 
569978 -4.9471e+06 0 
0 0 0 
1.92865e+07 3.05662e+06 0 
3.05662e+06 1.49461e+07 0 
0 0 0 
-1.73195e+06 1.10263e+06 0 
1.10263e+06 1.05173e+07 0 
0 0 0 
-1.92469e+07 9.80322e+06 0 
9.80322e+06 1.73785e+07 0 
0 0 0 
3.3096e+07 1.50378e+07 0 
1.50378e+07 3.3079e+07 0 
0 0 0 
-7.4922e+06 2.79613e+06 0 
2.79613e+06 1.77492e+07 0 
0 0 0 
5.65764e+07 -569846 0 
-569846 4.21171e+07 0 
0 0 0 
-2.80949e+06 -1.78481e+06 0 
-1.78481e+06 2.26605e+07 0 
0 0 0 
1.50735e+07 -5.4951e+06 0 
-5.4951e+06 1.04301e+07 0 
0 0 0 
-4.27859e+07 9.02668e+06 0 
9.02668e+06 -6.33062e+07 0 
0 0 0 
-3.68838e+07 -7.93826e+06 0 
-7.93826e+06 -3.72928e+07 0 
0 0 0 
0 0 0 
0 0 0 
0 0 0 
2.82686e+07 1.14484e+07 0 
1.14484e+07 6.16766e+07 0 
0 0 0 
2.25716e+07 7.71358e+06 0 
7.71358e+06 5.90592e+07 0 
0 0 0 
3.02666e+07 519894 0 
519894 8.56176e+07 0 
0 0 0 
2.34051e+07 -1.21561e+07 0 
-1.21561e+07 7.35211e+07 0 
0 0 0 
-2.02937e+07 -154871 0 
-154871 3.44869e+07 0 
0 0 0 
-3.02934e+07 4.22527e+06 0 
4.22527e+06 2.27389e+07 0 
0 0 0 
-3.62529e+07 1.66376e+06 0 
1.66376e+06 2.56936e+07 0 
0 0 0 
-3.57577e+07 -5.06058e+06 0 
-5.06058e+06 4.28127e+07 0 
0 0 0 
-2.94148e+07 -778457 0 
-778457 1.20484e+07 0 
0 0 0 
-1.54224e+07 1.50306e+07 0 
1.50306e+07 1.2389e+07 0 
0 0 0 
-2.56013e+06 1.12205e+07 0 
1.12205e+07 7.55447e+07 0 
0 0 0 
-3.60655e+07 -13175.8 0 
-13175.8 -1.26726e+07 0 
0 0 0 
-1.85116e+07 -1.01187e+06 0 
-1.01187e+06 8.59637e+06 0 
0 0 0 
-4.44887e+07 478718 0 
478718 -3.27308e+07 0 
0 0 0 
-3.64909e+07 -3.8864e+06 0 
-3.8864e+06 -7.44713e+06 0 
0 0 0 
-2.00165e+07 1.85166e+06 0 
1.85166e+06 1.92334e+07 0 
0 0 0 
-3.67722e+07 -2.22776e+07 0 
-2.22776e+07 -6.36801e+07 0 
0 0 0 
5.76225e+06 -4.33257e+06 0 
-4.33257e+06 -2.48686e+07 0 
0 0 0 
-1.84353e+06 446323 0 
446323 -4.14673e+07 0 
0 0 0 
4.99127e+06 -1.96665e+06 0 
-1.96665e+06 1.86522e+07 0 
0 0 0 
1.21141e+07 6.37547e+06 0 
6.37547e+06 1.25486e+07 0 
0 0 0 
1.47107e+07 1.49197e+07 0 
1.49197e+07 9.00466e+06 0 
0 0 0 
6.28718e+07 3.43383e+07 0 
3.43383e+07 -1.43231e+07 0 
0 0 0 
1.00978e+08 3.64417e+07 0 
3.64417e+07 -2.63844e+07 0 
0 0 0 
4.28338e+07 -9.06895e+06 0 
-9.06895e+06 -5.86555e+07 0 
0 0 0 
2.00253e+07 -2.90777e+07 0 
-2.90777e+07 -1.69045e+07 0 
0 0 0 
-1.52815e+07 -1.14897e+07 0 
-1.14897e+07 -1.09784e+08 0 
0 0 0 
9.90718e+06 -4.03538e+06 0 
-4.03538e+06 -1.59659e+07 0 
0 0 0 
3.14464e+07 -9.90665e+06 0 
-9.90665e+06 -2.10419e+07 0 
0 0 0 
5.31775e+07 -2.15219e+07 0 
-2.15219e+07 3.07103e+07 0 
0 0 0 
5.79558e+07 -4.00818e+07 0 
-4.00818e+07 8.37112e+06 0 
0 0 0 
2.91207e+07 -3.19517e+07 0 
-3.19517e+07 -4.2901e+07 0 
0 0 0 
2.69054e+06 -2.12228e+07 0 
-2.12228e+07 -4.1649e+07 0 
0 0 0 
2.78191e+07 -1.36451e+07 0 
-1.36451e+07 4.29998e+07 0 
0 0 0 
1.83688e+07 -6.10916e+06 0 
-6.10916e+06 6.56395e+07 0 
0 0 0 
-2.50329e+07 -1.42005e+06 0 
-1.42005e+06 -1.57274e+07 0 
0 0 0 
-1.55704e+07 -4.11275e+06 0 
-4.11275e+06 -2.73196e+06 0 
0 0 0 
1.89238e+07 2.36483e+06 0 
2.36483e+06 4.69874e+07 0 
0 0 0 
5.26333e+07 -565605 0 
-565605 1.33029e+08 0 
0 0 0 
2.45168e+07 3.11036e+06 0 
3.11036e+06 4.07123e+07 0 
0 0 0 
6.74408e+07 7.76766e+06 0 
7.76766e+06 1.2571e+08 0 
0 0 0 
6.61259e+07 1.25021e+06 0 
1.25021e+06 1.18041e+08 0 
0 0 0 
7.55934e+07 1.21947e+07 0 
1.21947e+07 1.04225e+08 0 
0 0 0 
9.01362e+07 2.84817e+07 0 
2.84817e+07 1.08744e+08 0 
0 0 0 
7.69884e+07 2.21294e+07 0 
2.21294e+07 8.71574e+07 0 
0 0 0 
5.5284e+07 1.9259e+06 0 
1.9259e+06 9.56077e+07 0 
0 0 0 
1.92261e+07 2.48068e+07 0 
2.48068e+07 3.49977e+07 0 
0 0 0 
2.20943e+07 3.13212e+07 0 
3.13212e+07 3.77779e+07 0 
0 0 0 
1.80842e+07 1.92256e+07 0 
1.92256e+07 -2.78999e+07 0 
0 0 0 
3.34732e+07 1.58824e+07 0 
1.58824e+07 2.96334e+07 0 
0 0 0 
5.49481e+06 1.15848e+07 0 
1.15848e+07 2.5982e+07 0 
0 0 0 
-7.42578e+06 1.29526e+07 0 
1.29526e+07 2.40562e+07 0 
0 0 0 
-2.96371e+07 2.39591e+07 0 
2.39591e+07 -2.1697e+07 0 
0 0 0 
-4.49371e+07 2.16565e+06 0 
2.16565e+06 -4.79682e+07 0 
0 0 0 
-2.61565e+07 4.51697e+06 0 
4.51697e+06 -2.88446e+07 0 
0 0 0 
6.89505e+06 -6.93307e+06 0 
-6.93307e+06 4.70077e+07 0 
0 0 0 
-4.91418e+06 -2.26392e+06 0 
-2.26392e+06 -9.52183e+06 0 
0 0 0 
7.16689e+06 7.95679e+06 0 
7.95679e+06 3.64875e+07 0 
0 0 0 
-3.6703e+07 3.3718e+06 0 
3.3718e+06 -4.03872e+07 0 
0 0 0 
-2.77671e+07 2.33627e+06 0 
2.33627e+06 -5.25615e+07 0 
0 0 0 
-2.81476e+06 -8.96349e+06 0 
-8.96349e+06 -1.15989e+07 0 
0 0 0 
1.21851e+07 -5.04862e+06 0 
-5.04862e+06 -8.18781e+06 0 
0 0 0 
1.74465e+07 -9.49358e+06 0 
-9.49358e+06 1.45347e+07 0 
0 0 0 
7.5257e+06 -1.86932e+07 0 
-1.86932e+07 6.74383e+06 0 
0 0 0 
-2.12904e+06 1.53924e+06 0 
1.53924e+06 1.52442e+07 0 
0 0 0 
3.68286e+06 1.80595e+06 0 
1.80595e+06 1.03665e+07 0 
0 0 0 
-1.23403e+06 -1.52812e+06 0 
-1.52812e+06 -1.79076e+07 0 
0 0 0 
2.07822e+07 2.35618e+06 0 
2.35618e+06 2.75617e+07 0 
0 0 0 
-1.49755e+06 3.63105e+06 0 
3.63105e+06 -2.52798e+07 0 
0 0 0 
1.39774e+07 8.43065e+06 0 
8.43065e+06 -2.04128e+07 0 
0 0 0 
4.16221e+07 -5.78638e+06 0 
-5.78638e+06 4.43871e+07 0 
0 0 0 
5.76801e+06 662880 0 
662880 2.46319e+06 0 
0 0 0 
2.54205e+07 -720875 0 
-720875 6.27671e+07 0 
0 0 0 
2.724e+07 210648 0 
210648 4.00359e+07 0 
0 0 0 
1.22743e+07 -2.18566e+06 0 
-2.18566e+06 3.88974e+07 0 
0 0 0 
-3.48881e+07 -1.0199e+07 0 
-1.0199e+07 -5.12476e+07 0 
0 0 0 
0 0 0 
0 0 0 
0 0 0 
-9.46544e+06 -1.94494e+06 0 
-1.94494e+06 -1.10592e+07 0 
0 0 0 
1.62293e+07 -2.41269e+06 0 
-2.41269e+06 -4.88073e+06 0 
0 0 0 
1.11474e+07 -6.59992e+06 0 
-6.59992e+06 4.54751e+06 0 
0 0 0 
21586.1 753361 0 
753361 8.98141e+06 0 
0 0 0 
-1.02483e+07 -3.09419e+06 0 
-3.09419e+06 1.24139e+07 0 
0 0 0 
2.10441e+07 1.71934e+06 0 
1.71934e+06 3.60397e+07 0 
0 0 0 
-1.39745e+07 2.79461e+06 0 
2.79461e+06 2.05149e+07 0 
0 0 0 
2.94167e+07 2.21022e+06 0 
2.21022e+06 3.46284e+07 0 
0 0 0 
-8.45956e+06 -5.47709e+06 0 
-5.47709e+06 2.00396e+07 0 
0 0 0 
9.19702e+06 -3.56206e+06 0 
-3.56206e+06 1.29134e+07 0 
0 0 0 
-1.2818e+07 -8.17609e+06 0 
-8.17609e+06 -7.67377e+06 0 
0 0 0 
2.82446e+07 7.60837e+06 0 
7.60837e+06 176097 0 
0 0 0 
-5.00085e+07 1.07181e+07 0 
1.07181e+07 -3.06796e+07 0 
0 0 0 
1.61485e+07 1.23311e+07 0 
1.23311e+07 -1.03144e+07 0 
0 0 0 
-3.97364e+07 9.21865e+06 0 
9.21865e+06 -1.90977e+07 0 
0 0 0 
5.11467e+06 390893 0 
390893 -1.3018e+07 0 
0 0 0 
-2.0427e+07 -1.23304e+07 0 
-1.23304e+07 -1.76e+07 0 
0 0 0 
1.51051e+07 -2.07161e+07 0 
-2.07161e+07 -2.93585e+06 0 
0 0 0 
-3.34038e+06 -6.73303e+06 0 
-6.73303e+06 -4.15327e+06 0 
0 0 0 
1.01095e+07 -1.04928e+07 0 
-1.04928e+07 -7.33191e+06 0 
0 0 0 
-6.77499e+06 4.2898e+06 0 
4.2898e+06 -1.697e+07 0 
0 0 0 
-2.11157e+07 3.43044e+06 0 
3.43044e+06 -2.98426e+07 0 
0 0 0 
-5.10463e+06 7.46028e+06 0 
7.46028e+06 -1.92955e+07 0 
0 0 0 
-2.42609e+07 9.55938e+06 0 
9.55938e+06 -2.55009e+07 0 
0 0 0 
2.2208e+07 -4.06626e+06 0 
-4.06626e+06 3.64722e+06 0 
0 0 0 
-1.87691e+07 -1.63531e+07 0 
-1.63531e+07 1.20579e+07 0 
0 0 0 
2.33408e+07 -2.49555e+07 0 
-2.49555e+07 2.0819e+07 0 
0 0 0 
-2.61952e+07 -1.73252e+07 0 
-1.73252e+07 -1.78944e+06 0 
0 0 0 
1.95575e+07 -585511 0 
-585511 791201 0 
0 0 0 
-3.15949e+07 1.30092e+07 0 
1.30092e+07 -1.76572e+07 0 
0 0 0 
3.27923e+07 2.51564e+07 0 
2.51564e+07 7.26355e+06 0 
0 0 0 
3.14146e+06 1.27025e+07 0 
1.27025e+07 1.90792e+07 0 
0 0 0 
1.19507e+07 6.11555e+06 0 
6.11555e+06 3.11113e+07 0 
0 0 0 
-2.02123e+07 324084 0 
324084 -5.03692e+06 0 
0 0 0 
1.66466e+06 1.99309e+06 0 
1.99309e+06 -2.97084e+06 0 
0 0 0 
-1.69645e+07 -2.5551e+06 0 
-2.5551e+06 -8.79338e+06 0 
0 0 0 
1.61711e+07 -589229 0 
-589229 1.4255e+07 0 
0 0 0 
-6.50349e+06 -1.01538e+07 0 
-1.01538e+07 1.79445e+07 0 
0 0 0 
8.17506e+06 -1.05403e+07 0 
-1.05403e+07 2.78157e+07 0 
0 0 0 
2.82616e+07 -1.9486e+07 0 
-1.9486e+07 3.76417e+07 0 
0 0 0 
1.64604e+07 1.0746e+06 0 
1.0746e+06 2.70697e+07 0 
0 0 0 
2.34823e+07 7.94853e+06 0 
7.94853e+06 4.42999e+07 0 
0 0 0 
-3.39633e+06 6.18551e+06 0 
6.18551e+06 3.03099e+07 0 
0 0 0 
-3.85749e+06 7.03463e+06 0 
7.03463e+06 1.90855e+07 0 
0 0 0 
-861403 -3.99101e+06 0 
-3.99101e+06 9.82578e+06 0 
0 0 0 
1.54557e+07 -1.56037e+06 0 
-1.56037e+06 -1.26343e+06 0 
0 0 0 
-1.80848e+07 -1.98662e+06 0 
-1.98662e+06 -2.29143e+07 0 
0 0 0 
-2.60529e+07 -4.91317e+06 0 
-4.91317e+06 -2.71319e+07 0 
0 0 0 
-2.8039e+06 -1.95725e+06 0 
-1.95725e+06 -1.79661e+07 0 
0 0 0 
-2.68712e+07 -5.79349e+06 0 
-5.79349e+06 -1.73715e+07 0 
0 0 0 
7.99215e+06 -7.84749e+06 0 
-7.84749e+06 8.93166e+06 0 
0 0 0 
1.5747e+07 -469213 0 
-469213 1.65999e+07 0 
0 0 0 
5.70272e+06 931145 0 
931145 -1.07012e+07 0 
0 0 0 
4.5158e+06 1.22492e+07 0 
1.22492e+07 -7.86321e+06 0 
0 0 0 
-2.20275e+07 7.57518e+06 0 
7.57518e+06 -3.71888e+07 0 
0 0 0 
-1.39537e+07 4.72623e+06 0 
4.72623e+06 -4.39083e+07 0 
0 0 0 
-3.66242e+07 -3.838e+06 0 
-3.838e+06 -5.14605e+07 0 
0 0 0 
6.41612e+06 -9.32855e+06 0 
-9.32855e+06 -4.06434e+07 0 
0 0 0 
-1.00069e+07 311209 0 
311209 -4.3314e+07 0 
0 0 0 
-9.39039e+06 -4.10929e+06 0 
-4.10929e+06 -4.69583e+07 0 
0 0 0 
-1.69023e+07 -2.0367e+06 0 
-2.0367e+06 -4.00675e+07 0 
0 0 0 
-1.24869e+07 -8.48289e+06 0 
-8.48289e+06 -3.94456e+07 0 
0 0 0 
-3.41825e+07 -7.95235e+06 0 
-7.95235e+06 -4.52493e+07 0 
0 0 0 
-4.73486e+06 -9.3215e+06 0 
-9.3215e+06 -2.33293e+07 0 
0 0 0 
-2.61127e+07 -8.06954e+06 0 
-8.06954e+06 -7.17942e+06 0 
0 0 0 
1.63482e+07 -5.39204e+06 0 
-5.39204e+06 1.72598e+07 0 
0 0 0 
-1.16363e+07 5.83179e+06 0 
5.83179e+06 -1.62805e+06 0 
0 0 0 
2.35124e+07 -1.3255e+06 0 
-1.3255e+06 2.82514e+07 0 
0 0 0 
-2.48878e+06 2.84452e+06 0 
2.84452e+06 2.07098e+07 0 
0 0 0 
-5.29259e+06 7.8826e+06 0 
7.8826e+06 -1.14116e+06 0 
0 0 0 
9.91895e+06 9.32368e+06 0 
9.32368e+06 -7.60962e+06 0 
0 0 0 
-2.77929e+07 7.88117e+06 0 
7.88117e+06 -2.45577e+07 0 
0 0 0 
2.49074e+07 1.91686e+06 0 
1.91686e+06 -1.16076e+07 0 
0 0 0 
-7.91419e+06 -1.0673e+06 0 
-1.0673e+06 -1.45247e+07 0 
0 0 0 
1.53687e+06 -1.05123e+07 0 
-1.05123e+07 17443 0 
0 0 0 
-7.55565e+06 -5.18335e+06 0 
-5.18335e+06 1.19967e+07 0 
0 0 0 
-2.52864e+07 8.79913e+06 0 
8.79913e+06 -4.96115e+07 0 
0 0 0 
1.07607e+07 1.5693e+06 0 
1.5693e+06 1.46391e+07 0 
0 0 0 
0 0 0 
0 0 0 
0 0 0 
1.51459e+07 1.45583e+06 0 
1.45583e+06 7.66002e+07 0 
0 0 0 
3.31833e+06 3.97981e+06 0 
3.97981e+06 2.47713e+07 0 
0 0 0 
1.75965e+07 -1.21387e+07 0 
-1.21387e+07 8.76242e+07 0 
0 0 0 
7.00856e+06 -5.3303e+06 0 
-5.3303e+06 6.52175e+07 0 
0 0 0 
2.46303e+07 -1.62683e+06 0 
-1.62683e+06 5.79243e+07 0 
0 0 0 
1.50153e+07 -1.02006e+06 0 
-1.02006e+06 3.63895e+07 0 
0 0 0 
5.00519e+07 9.62598e+06 0 
9.62598e+06 5.43803e+07 0 
0 0 0 
6.92312e+07 580542 0 
580542 5.55373e+07 0 
0 0 0 
7.61171e+07 2.54269e+06 0 
2.54269e+06 8.39421e+07 0 
0 0 0 
4.36017e+07 6.18525e+06 0 
6.18525e+06 1.75774e+07 0 
0 0 0 
4.23216e+07 -1.01457e+07 0 
-1.01457e+07 8.67105e+07 0 
0 0 0 
1.29512e+07 -2.02283e+06 0 
-2.02283e+06 -7.60758e+06 0 
0 0 0 
2.53856e+07 7.71288e+06 0 
7.71288e+06 4.54896e+07 0 
0 0 0 
-7.62807e+06 1.39127e+07 0 
1.39127e+07 -3.63197e+07 0 
0 0 0 
188546 -1.36414e+07 0 
-1.36414e+07 1.80375e+06 0 
0 0 0 
1.71496e+07 -5.68672e+06 0 
-5.68672e+06 9.85123e+06 0 
0 0 0 
2.65885e+07 -8.1851e+06 0 
-8.1851e+06 -3.07585e+07 0 
0 0 0 
3.55358e+07 1.19319e+07 0 
1.19319e+07 -380769 0 
0 0 0 
1.34559e+07 2.88439e+06 0 
2.88439e+06 -2.93871e+07 0 
0 0 0 
3.97516e+07 1.23622e+07 0 
1.23622e+07 1.89046e+07 0 
0 0 0 
1.27695e+07 3.65301e+06 0 
3.65301e+06 5.19245e+06 0 
0 0 0 
1.06537e+07 -446281 0 
-446281 4.05945e+07 0 
0 0 0 
1.93066e+06 2.10735e+07 0 
2.10735e+07 -3.78886e+07 0 
0 0 0 
7.68522e+07 2.06786e+07 0 
2.06786e+07 -7.8808e+06 0 
0 0 0 
3.46798e+07 -5.55187e+06 0 
-5.55187e+06 -4.88239e+07 0 
0 0 0 
-5.30845e+07 -2.37399e+07 0 
-2.37399e+07 -7.43147e+06 0 
0 0 0 
-7.31884e+07 -1.04717e+07 0 
-1.04717e+07 -1.01446e+08 0 
0 0 0 
-5.47772e+07 4.13589e+06 0 
4.13589e+06 -4.2629e+07 0 
0 0 0 
-7.5871e+07 -8.19319e+06 0 
-8.19319e+06 -7.39493e+07 0 
0 0 0 
-5.24396e+07 -5.35941e+06 0 
-5.35941e+06 -1.32952e+07 0 
0 0 0 
-2.97973e+07 -1.90856e+07 0 
-1.90856e+07 -2.61163e+07 0 
0 0 0 
-2.9638e+07 -3.09371e+07 0 
-3.09371e+07 -7.22194e+07 0 
0 0 0 
-7.63174e+06 -2.87093e+07 0 
-2.87093e+07 -2.88822e+07 0 
0 0 0 
2.75924e+07 -1.52238e+07 0 
-1.52238e+07 7.04724e+07 0 
0 0 0 
3.11516e+07 -1.43635e+07 0 
-1.43635e+07 6.02517e+07 0 
0 0 0 
9.868e+06 -6.29888e+06 0 
-6.29888e+06 -5.42169e+06 0 
0 0 0 
1.43745e+07 -6.57797e+06 0 
-6.57797e+06 3.87329e+07 0 
0 0 0 
1.72015e+07 9.43348e+06 0 
9.43348e+06 3.44173e+07 0 
0 0 0 
5.02824e+07 472841 0 
472841 1.31531e+08 0 
0 0 0 
1.92474e+07 1.15412e+07 0 
1.15412e+07 4.85239e+07 0 
0 0 0 
4.00894e+07 9.32574e+06 0 
9.32574e+06 1.1953e+08 0 
0 0 0 
3.47678e+07 1.04009e+07 0 
1.04009e+07 9.45501e+07 0 
0 0 0 
5.30209e+07 1.90193e+07 0 
1.90193e+07 1.17105e+08 0 
0 0 0 
5.98865e+07 2.20472e+07 0 
2.20472e+07 1.07237e+08 0 
0 0 0 
3.50128e+07 1.35027e+07 0 
1.35027e+07 6.54124e+07 0 
0 0 0 
4.15719e+07 1.26722e+07 0 
1.26722e+07 9.95241e+07 0 
0 0 0 
2.97708e+07 2.46695e+07 0 
2.46695e+07 5.53255e+07 0 
0 0 0 
1.45076e+07 3.62113e+07 0 
3.62113e+07 3.08532e+07 0 
0 0 0 
-2.68415e+07 1.83164e+07 0 
1.83164e+07 -6.0889e+07 0 
0 0 0 
-5.51787e+06 5.60715e+06 0 
5.60715e+06 2.13259e+07 0 
0 0 0 
-620689 1.71934e+07 0 
1.71934e+07 2.38404e+07 0 
0 0 0 
7.00653e+06 1.77324e+07 0 
1.77324e+07 4.76184e+07 0 
0 0 0 
-3.36318e+07 1.49384e+07 0 
1.49384e+07 -3.66973e+07 0 
0 0 0 
-3.64766e+07 5.19861e+06 0 
5.19861e+06 -6.03677e+07 0 
0 0 0 
-2.30768e+07 7.91243e+06 0 
7.91243e+06 -3.51121e+07 0 
0 0 0 
1.31054e+07 4.38765e+06 0 
4.38765e+06 4.42124e+07 0 
0 0 0 
7.89358e+06 162784 0 
162784 1.16031e+07 0 
0 0 0 
-1.49069e+06 1.27137e+06 0 
1.27137e+06 1.84711e+07 0 
0 0 0 
-1.05246e+07 -4.7536e+06 0 
-4.7536e+06 -3.62966e+07 0 
0 0 0 
-2.92482e+07 -8.98782e+06 0 
-8.98782e+06 -6.64821e+07 0 
0 0 0 
-1.73073e+07 -6.55797e+06 0 
-6.55797e+06 -1.78784e+06 0 
0 0 0 
-1.76259e+07 2.82287e+06 0 
2.82287e+06 -1.20158e+07 0 
0 0 0 
-4.84299e+06 -8.07318e+06 0 
-8.07318e+06 -9.11442e+06 0 
0 0 0 
-3.2447e+06 -1.95645e+07 0 
-1.95645e+07 -5.02884e+06 0 
0 0 0 
3.11811e+07 -6.74705e+06 0 
-6.74705e+06 5.33667e+07 0 
0 0 0 
9.66586e+06 7.33343e+06 0 
7.33343e+06 1.15847e+07 0 
0 0 0 
-378418 1.25087e+07 0 
1.25087e+07 -1.9746e+07 0 
0 0 0 
3.97192e+06 4.6738e+06 0 
4.6738e+06 2.09541e+07 0 
0 0 0 
-1.27362e+07 -1.6582e+06 0 
-1.6582e+06 -1.65206e+07 0 
0 0 0 
-3.61096e+07 6.19566e+06 0 
6.19566e+06 -4.48354e+07 0 
0 0 0 
-1.68388e+07 4.58911e+06 0 
4.58911e+06 2.48849e+07 0 
0 0 0 
-9.83062e+06 562466 0 
562466 -1.248e+07 0 
0 0 0 
2.00376e+07 -2.24778e+06 0 
-2.24778e+06 5.88391e+07 0 
0 0 0 
7.68421e+06 -5.02804e+06 0 
-5.02804e+06 2.32642e+07 0 
0 0 0 
3.15011e+06 -8.88508e+06 0 
-8.88508e+06 4.15351e+07 0 
0 0 0 
-1.87389e+07 2.9371e+06 0 
2.9371e+06 -2.37069e+07 0 
0 0 0 
-4.59685e+07 -688363 0 
-688363 -6.48627e+07 0 
0 0 0 
0 0 0 
0 0 0 
0 0 0 
-8.63473e+06 -7.93866e+06 0 
-7.93866e+06 -2.82167e+06 0 
0 0 0 
1.30979e+07 1.33695e+06 0 
1.33695e+06 9.03708e+06 0 
0 0 0 
3.2121e+06 -3.52526e+06 0 
-3.52526e+06 1.48039e+07 0 
0 0 0 
1.99962e+07 -8.26117e+06 0 
-8.26117e+06 2.6419e+07 0 
0 0 0 
-1.47296e+07 -9.73212e+06 0 
-9.73212e+06 1.89684e+07 0 
0 0 0 
2.37828e+07 -9.42544e+06 0 
-9.42544e+06 2.0126e+07 0 
0 0 0 
-1.63698e+07 -9.90693e+06 0 
-9.90693e+06 2.77028e+06 0 
0 0 0 
1.62752e+07 -575194 0 
-575194 9.09523e+06 0 
0 0 0 
-2.76514e+07 -1.10246e+07 0 
-1.10246e+07 -1.44621e+06 0 
0 0 0 
2.77033e+07 -209415 0 
-209415 2.28156e+07 0 
0 0 0 
-5.66131e+06 -1.79197e+06 0 
-1.79197e+06 2.46185e+07 0 
0 0 0 
6.30387e+07 -2.3743e+06 0 
-2.3743e+06 5.44018e+07 0 
0 0 0 
-3.0558e+07 7.26046e+06 0 
7.26046e+06 1.08028e+07 0 
0 0 0 
2.10018e+07 1.15351e+07 0 
1.15351e+07 1.62815e+07 0 
0 0 0 
-4.92596e+07 5.82001e+06 0 
5.82001e+06 -3.7909e+07 0 
0 0 0 
-1.47542e+07 -667557 0 
-667557 -2.84497e+07 0 
0 0 0 
-4.30578e+07 -2.48101e+06 0 
-2.48101e+06 -3.23447e+07 0 
0 0 0 
1.8665e+07 -7.13069e+06 0 
-7.13069e+06 4.52918e+06 0 
0 0 0 
-5.31023e+06 -1.34044e+07 0 
-1.34044e+07 2.75325e+06 0 
0 0 0 
4.07872e+07 -1.4116e+07 0 
-1.4116e+07 1.9516e+07 0 
0 0 0 
-1.64605e+06 -6.03442e+06 0 
-6.03442e+06 -2.89438e+06 0 
0 0 0 
4.46592e+06 -570744 0 
-570744 1.06887e+06 0 
0 0 0 
1.2336e+07 1.47762e+07 0 
1.47762e+07 2.07418e+07 0 
0 0 0 
-2.78786e+07 7.61857e+06 0 
7.61857e+06 8.70669e+06 0 
0 0 0 
1.38352e+07 5.00285e+06 0 
5.00285e+06 1.20518e+07 0 
0 0 0 
-4.46905e+07 -4.01323e+06 0 
-4.01323e+06 -1.94296e+07 0 
0 0 0 
2.70044e+07 -8.96939e+06 0 
-8.96939e+06 1.62897e+07 0 
0 0 0 
-1.53847e+07 -7.31301e+06 0 
-7.31301e+06 2.07258e+07 0 
0 0 0 
6.2485e+07 4.07474e+06 0 
4.07474e+06 5.29932e+07 0 
0 0 0 
-6.06766e+06 8.94146e+06 0 
8.94146e+06 2.80587e+07 0 
0 0 0 
3.67902e+07 9.40667e+06 0 
9.40667e+06 3.04247e+07 0 
0 0 0 
-2.3217e+07 9.04982e+06 0 
9.04982e+06 -5.68175e+06 0 
0 0 0 
4.68866e+06 -5.87634e+06 0 
-5.87634e+06 351495 0 
0 0 0 
-3.63958e+07 -7.08935e+06 0 
-7.08935e+06 4.2465e+06 0 
0 0 0 
9.96552e+06 -6.95104e+06 0 
-6.95104e+06 5.43394e+06 0 
0 0 0 
-1.77533e+07 -8.20614e+06 0 
-8.20614e+06 -1.22922e+07 0 
0 0 0 
8.39311e+06 -564880 0 
-564880 -2.76158e+06 0 
0 0 0 
-2.11227e+07 -8.92002e+06 0 
-8.92002e+06 -9.86236e+06 0 
0 0 0 
1.24499e+07 521559 0 
521559 1.47391e+07 0 
0 0 0 
2.23819e+07 2.48664e+06 0 
2.48664e+06 3.92909e+07 0 
0 0 0 
5.70825e+07 5.55649e+06 0 
5.55649e+06 6.84254e+07 0 
0 0 0 
-4.23787e+06 7.26799e+06 0 
7.26799e+06 2.64869e+07 0 
0 0 0 
7.01154e+06 -4.56518e+06 0 
-4.56518e+06 1.26084e+07 0 
0 0 0 
-2.36006e+07 606189 0 
606189 -1.50538e+07 0 
0 0 0 
-1.00286e+07 -2.36788e+06 0 
-2.36788e+06 -2.36037e+07 0 
0 0 0 
80479.2 -1.93183e+06 0 
-1.93183e+06 -1.65624e+07 0 
0 0 0 
-7.97936e+06 -2.60672e+06 0 
-2.60672e+06 -4.81848e+06 0 
0 0 0 
-1.59219e+07 6.05073e+06 0 
6.05073e+06 -6.08073e+06 0 
0 0 0 
1.12827e+06 1.94378e+06 0 
1.94378e+06 2.61562e+06 0 
0 0 0 
-1.48708e+07 -1.51618e+06 0 
-1.51618e+06 1.32095e+06 0 
0 0 0 
2.71063e+06 2.66102e+06 0 
2.66102e+06 5.084e+06 0 
0 0 0 
9.73225e+06 -4.14274e+06 0 
-4.14274e+06 -1.14247e+07 0 
0 0 0 
1.73464e+07 1.65634e+06 0 
1.65634e+06 538464 0 
0 0 0 
-7.46655e+06 3.2612e+06 0 
3.2612e+06 -2.05118e+07 0 
0 0 0 
-2.8483e+07 -8.69372e+06 0 
-8.69372e+06 -3.89683e+07 0 
0 0 0 
-2.77734e+07 -7.16364e+06 0 
-7.16364e+06 -5.2743e+07 0 
0 0 0 
-3.51195e+07 -9.74316e+06 0 
-9.74316e+06 -7.31515e+07 0 
0 0 0 
-725088 -3.14755e+06 0 
-3.14755e+06 -5.37379e+07 0 
0 0 0 
-5.29958e+06 -5.97688e+06 0 
-5.97688e+06 -4.89655e+07 0 
0 0 0 
-1.05802e+07 2.37711e+06 0 
2.37711e+06 -3.66881e+07 0 
0 0 0 
-2.06007e+07 -4.08196e+06 0 
-4.08196e+06 -3.69622e+07 0 
0 0 0 
-1.34092e+07 -1.72384e+06 0 
-1.72384e+06 -3.96413e+07 0 
0 0 0 
-2.92697e+07 -1.26871e+06 0 
-1.26871e+06 -4.68195e+07 0 
0 0 0 
-3.1417e+07 -8.11443e+06 0 
-8.11443e+06 -4.16415e+07 0 
0 0 0 
-1.27207e+07 -9.47536e+06 0 
-9.47536e+06 -3.46444e+07 0 
0 0 0 
5.29453e+06 1.39332e+06 0 
1.39332e+06 -2.96728e+07 0 
0 0 0 
-2.01225e+07 4.77298e+06 0 
4.77298e+06 -4.17545e+07 0 
0 0 0 
-1.76522e+06 1.46446e+07 0 
1.46446e+07 -4.50089e+07 0 
0 0 0 
-1.72841e+07 -973044 0 
-973044 -4.00907e+07 0 
0 0 0 
-1.4017e+07 6.87542e+06 0 
6.87542e+06 -3.42667e+07 0 
0 0 0 
1.23653e+06 8.48729e+06 0 
8.48729e+06 -2.02556e+07 0 
0 0 0 
-2.66509e+07 1.09498e+06 0 
1.09498e+06 -3.36042e+07 0 
0 0 0 
-966377 3.16537e+06 0 
3.16537e+06 -2.66041e+07 0 
0 0 0 
-5.53788e+06 3.60903e+06 0 
3.60903e+06 -3.02538e+07 0 
0 0 0 
-3.08523e+06 814533 0 
814533 -1.89282e+07 0 
0 0 0 
-2.00333e+06 6.92356e+06 0 
6.92356e+06 2.9793e+06 0 
0 0 0 
1.04222e+07 -3.78234e+06 0 
-3.78234e+06 1.08653e+07 0 
0 0 0 
-5.59306e+07 475107 0 
475107 -2.75548e+07 0 
0 0 0 
-5.02551e+07 417202 0 
417202 -3.34905e+06 0 
0 0 0 
0 0 0 
0 0 0 
0 0 0 
3.17884e+07 1.96671e+06 0 
1.96671e+06 8.31111e+07 0 
0 0 0 
3.0976e+06 8.76144e+06 0 
8.76144e+06 3.37633e+07 0 
0 0 0 
2.5908e+07 2.31997e+06 0 
2.31997e+06 6.70093e+07 0 
0 0 0 
6.80385e+07 -3.89508e+06 0 
-3.89508e+06 1.00428e+08 0 
0 0 0 
6.87474e+07 591812 0 
591812 7.50562e+07 0 
0 0 0 
8.16416e+07 1.3455e+07 0 
1.3455e+07 6.7975e+07 0 
0 0 0 
5.17834e+07 1.34737e+07 0 
1.34737e+07 4.46829e+07 0 
0 0 0 
3.9877e+07 5.69314e+06 0 
5.69314e+06 4.62726e+07 0 
0 0 0 
4.8683e+07 5.04576e+06 0 
5.04576e+06 6.9762e+07 0 
0 0 0 
1.19952e+07 -6.95788e+06 0 
-6.95788e+06 2.70174e+06 0 
0 0 0 
2.94725e+07 -1.27908e+07 0 
-1.27908e+07 5.64399e+07 0 
0 0 0 
7.19692e+06 -3.96276e+06 0 
-3.96276e+06 1.43577e+07 0 
0 0 0 
2.4903e+07 -6.24974e+06 0 
-6.24974e+06 5.75452e+07 0 
0 0 0 
-1.16689e+07 -7.6938e+06 0 
-7.6938e+06 -5.06862e+07 0 
0 0 0 
4.3755e+06 -8.92106e+06 0 
-8.92106e+06 -1.19412e+07 0 
0 0 0 
-3.41702e+06 4.70501e+06 0 
4.70501e+06 4.15939e+06 0 
0 0 0 
-2.19061e+07 -3.29241e+06 0 
-3.29241e+06 -3.31051e+07 0 
0 0 0 
-6.86798e+06 5.67796e+06 0 
5.67796e+06 1.78325e+07 0 
0 0 0 
-2.47212e+07 3.41347e+06 0 
3.41347e+06 -6.94898e+07 0 
0 0 0 
-2.81264e+06 644046 0 
644046 5.33521e+06 0 
0 0 0 
-1.69848e+06 -5.65837e+06 0 
-5.65837e+06 1.84224e+06 0 
0 0 0 
-4.61799e+07 -9.66931e+06 0 
-9.66931e+06 -2.07523e+07 0 
0 0 0 
-5.30749e+07 -1.27324e+06 0 
-1.27324e+06 -1.44431e+07 0 
0 0 0 
3.06078e+07 1.76701e+07 0 
1.76701e+07 1.19014e+06 0 
0 0 0 
7.09463e+07 1.44823e+07 0 
1.44823e+07 -3.18984e+07 0 
0 0 0 
7.41445e+07 -2.4384e+06 0 
-2.4384e+06 3.17499e+07 0 
0 0 0 
1.80152e+07 -1.20973e+07 0 
-1.20973e+07 -4.70504e+07 0 
0 0 0 
4.86407e+07 -9.8331e+06 0 
-9.8331e+06 87240.3 0 
0 0 0 
2.35765e+07 -5.30271e+06 0 
-5.30271e+06 -5.84756e+07 0 
0 0 0 
3.70596e+07 -1.72331e+07 0 
-1.72331e+07 1.41794e+07 0 
0 0 0 
8.60424e+06 -8.53202e+06 0 
-8.53202e+06 -5.1555e+06 0 
0 0 0 
1.52177e+07 -1.62033e+07 0 
-1.62033e+07 -7.41468e+07 0 
0 0 0 
3.56988e+07 -2.21266e+07 0 
-2.21266e+07 -2.77722e+07 0 
0 0 0 
6.10973e+07 -3.25242e+07 0 
-3.25242e+07 8.87876e+07 0 
0 0 0 
5.27615e+07 -2.07358e+07 0 
-2.07358e+07 9.24977e+07 0 
0 0 0 
1.69858e+07 -2.58861e+06 0 
-2.58861e+06 279310 0 
0 0 0 
3.46394e+07 -8.48952e+06 0 
-8.48952e+06 5.45947e+07 0 
0 0 0 
1.95813e+07 3.25467e+06 0 
3.25467e+06 3.5578e+07 0 
0 0 0 
4.44093e+07 -1.07195e+07 0 
-1.07195e+07 1.26768e+08 0 
0 0 0 
1.07038e+07 310931 0 
310931 5.36731e+07 0 
0 0 0 
2.29764e+07 4.3209e+06 0 
4.3209e+06 1.25617e+08 0 
0 0 0 
1.63469e+07 1.54937e+07 0 
1.54937e+07 9.17173e+07 0 
0 0 0 
2.50615e+07 2.71533e+07 0 
2.71533e+07 1.08718e+08 0 
0 0 0 
9.68128e+06 2.71536e+07 0 
2.71536e+07 9.41543e+07 0 
0 0 0 
1.955e+07 1.88575e+07 0 
1.88575e+07 6.28395e+07 0 
0 0 0 
4.46308e+07 -716685 0 
-716685 1.01177e+08 0 
0 0 0 
2.5869e+07 2.22064e+07 0 
2.22064e+07 7.50783e+07 0 
0 0 0 
-7.10298e+06 2.55235e+07 0 
2.55235e+07 1.5181e+07 0 
0 0 0 
-3.46523e+07 2.78662e+07 0 
2.78662e+07 -6.74378e+07 0 
0 0 0 
2.18089e+07 2.16802e+07 0 
2.16802e+07 2.54896e+07 0 
0 0 0 
3.14077e+07 7.37526e+06 0 
7.37526e+06 2.47544e+07 0 
0 0 0 
5.11031e+07 7.00083e+06 0 
7.00083e+06 8.01084e+07 0 
0 0 0 
1.28333e+07 6.26201e+06 0 
6.26201e+06 -4.03387e+07 0 
0 0 0 
-1.26121e+06 5.28015e+06 0 
5.28015e+06 -5.13166e+07 0 
0 0 0 
9.02102e+06 9.33541e+06 0 
9.33541e+06 -2.12148e+07 0 
0 0 0 
1.88894e+07 5.16704e+06 0 
5.16704e+06 3.30215e+07 0 
0 0 0 
3.30393e+06 -1.02356e+07 0 
-1.02356e+07 7.58809e+06 0 
0 0 0 
1.36071e+07 -896029 0 
-896029 3.58189e+07 0 
0 0 0 
-2.81172e+07 8.78424e+06 0 
8.78424e+06 -6.33691e+07 0 
0 0 0 
-1.98549e+07 1.42818e+06 0 
1.42818e+06 -6.45156e+07 0 
0 0 0 
6.58552e+06 -6.00501e+06 0 
-6.00501e+06 1.83201e+07 0 
0 0 0 
-3.06086e+06 5.07605e+06 0 
5.07605e+06 -4.86277e+06 0 
0 0 0 
-3.96073e+06 -7.06677e+06 0 
-7.06677e+06 -2.45871e+07 0 
0 0 0 
1.35499e+07 -1.97995e+07 0 
-1.97995e+07 -1.56371e+07 0 
0 0 0 
2.82702e+07 -3.13823e+06 0 
-3.13823e+06 8.49708e+07 0 
0 0 0 
1.48753e+07 9.37498e+06 0 
9.37498e+06 3.90379e+07 0 
0 0 0 
-1.50334e+07 1.2841e+07 0 
1.2841e+07 -4.21483e+07 0 
0 0 0 
-3.42396e+06 -3.06094e+06 0 
-3.06094e+06 4.09414e+06 0 
0 0 0 
-4.18019e+06 880402 0 
880402 -9.16349e+06 0 
0 0 0 
5.2828e+06 3.44382e+06 0 
3.44382e+06 -1.81611e+07 0 
0 0 0 
1.87381e+07 -2.25425e+06 0 
-2.25425e+06 1.58737e+07 0 
0 0 0 
1.08644e+07 1.26574e+06 0 
1.26574e+06 8.89146e+06 0 
0 0 0 
1.31496e+07 8.36212e+06 0 
8.36212e+06 5.11123e+07 0 
0 0 0 
-1.29132e+07 4.33416e+06 0 
4.33416e+06 -218074 0 
0 0 0 
1.22585e+07 -1.14415e+07 0 
-1.14415e+07 4.07169e+07 0 
0 0 0 
-2.71951e+06 -1.42576e+07 0 
-1.42576e+07 5.27959e+06 0 
0 0 0 
-1.76655e+07 3.87354e+06 0 
3.87354e+06 -5.40791e+07 0 
0 0 0 
6.31145e+06 6.44798e+06 0 
6.44798e+06 -2.26158e+07 0 
0 0 0 
0 0 0 
0 0 0 
0 0 0 
-8.8942e+06 -1.36921e+06 0 
-1.36921e+06 7.99322e+06 0 
0 0 0 
2.5422e+07 6.84549e+06 0 
6.84549e+06 3.00708e+07 0 
0 0 0 
-9.57649e+06 4.44851e+06 0 
4.44851e+06 1.19623e+07 0 
0 0 0 
2.10095e+07 7.50958e+06 0 
7.50958e+06 1.52758e+07 0 
0 0 0 
-2.67541e+07 2.51296e+06 0 
2.51296e+06 3.2429e+06 0 
0 0 0 
2.38907e+07 -5.65772e+06 0 
-5.65772e+06 3.18662e+07 0 
0 0 0 
-4.75237e+06 -5.94242e+06 0 
-5.94242e+06 1.87605e+07 0 
0 0 0 
2.32935e+07 -5.71616e+06 0 
-5.71616e+06 1.60747e+07 0 
0 0 0 
-2.73758e+07 6.1845e+06 0 
6.1845e+06 -1.01771e+07 0 
0 0 0 
1.41482e+07 -5.16304e+06 0 
-5.16304e+06 -1.85147e+06 0 
0 0 0 
-1.88655e+07 -507728 0 
-507728 -2.20084e+07 0 
0 0 0 
3.33502e+07 -8.02463e+06 0 
-8.02463e+06 -1.52204e+07 0 
0 0 0 
-2.67987e+07 -6.16099e+06 0 
-6.16099e+06 -4.76621e+07 0 
0 0 0 
-1.09177e+07 978369 0 
978369 -5.60629e+07 0 
0 0 0 
-4.66422e+07 -688660 0 
-688660 -5.51139e+07 0 
0 0 0 
-3.3963e+07 6.53771e+06 0 
6.53771e+06 -5.34103e+07 0 
0 0 0 
-4.9612e+07 7.11432e+06 0 
7.11432e+06 -4.44806e+07 0 
0 0 0 
6.49373e+06 4.8418e+06 0 
4.8418e+06 -5.65596e+06 0 
0 0 0 
-8.51874e+06 3.37337e+06 0 
3.37337e+06 1.03722e+07 0 
0 0 0 
3.54686e+07 -1.18705e+07 0 
-1.18705e+07 4.43714e+07 0 
0 0 0 
3.16908e+07 -1.63655e+07 0 
-1.63655e+07 5.76171e+07 0 
0 0 0 
3.18895e+07 -2.83244e+06 0 
-2.83244e+06 6.05118e+07 0 
0 0 0 
3.83576e+07 -1.6485e+06 0 
-1.6485e+06 3.88646e+07 0 
0 0 0 
-4.59714e+07 -510398 0 
-510398 -1.37859e+07 0 
0 0 0 
4.43323e+06 -324921 0 
-324921 -1.20713e+07 0 
0 0 0 
-6.02842e+07 -7.3438e+06 0 
-7.3438e+06 -2.85795e+07 0 
0 0 0 
1.90151e+07 -8.85149e+06 0 
-8.85149e+06 1.04196e+07 0 
0 0 0 
226293 -6.25199e+06 0 
-6.25199e+06 1.8223e+07 0 
0 0 0 
6.59185e+07 -1.33762e+06 0 
-1.33762e+06 4.28338e+07 0 
0 0 0 
-7.23304e+06 4.73803e+06 0 
4.73803e+06 5.99771e+06 0 
0 0 0 
3.62988e+07 1.49948e+07 0 
1.49948e+07 1.67472e+07 0 
0 0 0 
-5.46785e+07 6.392e+06 0 
6.392e+06 -2.34009e+07 0 
0 0 0 
-6.35097e+06 -3.04593e+06 0 
-3.04593e+06 -1.04101e+07 0 
0 0 0 
-3.91816e+07 -2.07319e+06 0 
-2.07319e+06 -1.49267e+07 0 
0 0 0 
4.11483e+06 -1.34425e+07 0 
-1.34425e+07 9.65131e+06 0 
0 0 0 
7.05376e+06 905791 0 
905791 2.86089e+06 0 
0 0 0 
3.63943e+06 5.81338e+06 0 
5.81338e+06 -1.69628e+06 0 
0 0 0 
-1.73293e+07 6.08203e+06 0 
6.08203e+06 1.43225e+06 0 
0 0 0 
3.08754e+07 5.31277e+06 0 
5.31277e+06 2.1124e+07 0 
0 0 0 
1.0792e+06 6.78196e+06 0 
6.78196e+06 1.35856e+07 0 
0 0 0 
4.28761e+07 -5.63851e+06 0 
-5.63851e+06 1.24917e+07 0 
0 0 0 
-1.79018e+07 2.9329e+06 0 
2.9329e+06 -1.99876e+07 0 
0 0 0 
-8.212e+06 3.82655e+06 0 
3.82655e+06 -2.55513e+06 0 
0 0 0 
-7.12216e+06 -5.60251e+06 0 
-5.60251e+06 9.27143e+06 0 
0 0 0 
7.80632e+06 1.26786e+06 0 
1.26786e+06 2.8169e+07 0 
0 0 0 
1.55099e+07 2.32929e+06 0 
2.32929e+06 4.09001e+07 0 
0 0 0 
-6.18705e+06 3.44943e+06 0 
3.44943e+06 1.38179e+07 0 
0 0 0 
6.02589e+06 1.10284e+06 0 
1.10284e+06 2.01806e+07 0 
0 0 0 
-1.43338e+07 1.87603e+06 0 
1.87603e+06 6.63682e+06 0 
0 0 0 
-1.58763e+07 -6.99452e+06 0 
-6.99452e+06 -4.50478e+06 0 
0 0 0 
7.9394e+06 -7.07148e+06 0 
-7.07148e+06 5.72505e+06 0 
0 0 0 
2.44749e+07 -8.73377e+06 0 
-8.73377e+06 2.48234e+07 0 
0 0 0 
1.27749e+07 -531825 0 
-531825 8.28048e+06 0 
0 0 0 
-2.48725e+06 -8.85659e+06 0 
-8.85659e+06 -1.93707e+06 0 
0 0 0 
-2.89e+07 -1.95911e+06 0 
-1.95911e+06 -1.14499e+07 0 
0 0 0 
-3.63986e+06 -6.52874e+06 0 
-6.52874e+06 -1.91703e+06 0 
0 0 0 
-1.29121e+07 -541320 0 
-541320 1.00429e+07 0 
0 0 0 
4.63295e+07 497256 0 
497256 4.51712e+07 0 
0 0 0 
2.04296e+07 5.43742e+06 0 
5.43742e+06 4.60376e+07 0 
0 0 0 
1.99938e+07 3.93924e+06 0 
3.93924e+06 4.07007e+07 0 
0 0 0 
5.62091e+06 4.68468e+06 0 
4.68468e+06 3.14596e+07 0 
0 0 0 
-1.48202e+06 -4.64186e+06 0 
-4.64186e+06 2.2349e+07 0 
0 0 0 
-1.62035e+07 -4.846e+06 0 
-4.846e+06 1.04868e+07 0 
0 0 0 
-2.222e+07 260717 0 
260717 7.06726e+06 0 
0 0 0 
2.03843e+07 1.4016e+06 0 
1.4016e+06 3.01184e+07 0 
0 0 0 
1.97514e+07 -1.18081e+07 0 
-1.18081e+07 3.04031e+07 0 
0 0 0 
2.52818e+07 -2.70933e+06 0 
-2.70933e+06 2.05265e+07 0 
0 0 0 
-5.14185e+06 1.44359e+06 0 
1.44359e+06 -8.6833e+06 0 
0 0 0 
-5.62638e+06 -902429 0 
-902429 -3.17187e+07 0 
0 0 0 
-1.35023e+07 4.99593e+06 0 
4.99593e+06 -2.95606e+07 0 
0 0 0 
-1.0413e+07 6.26577e+06 0 
6.26577e+06 -3.40344e+07 0 
0 0 0 
-2.10944e+07 -780326 0 
-780326 -3.03247e+07 0 
0 0 0 
-5.41135e+06 1.72094e+06 0 
1.72094e+06 -3.12903e+07 0 
0 0 0 
-1.53073e+07 956339 0 
956339 -4.78312e+07 0 
0 0 0 
-465015 5.89087e+06 0 
5.89087e+06 -4.45138e+07 0 
0 0 0 
-2.66075e+07 537899 0 
537899 -6.76536e+07 0 
0 0 0 
-1.6406e+07 1.38105e+06 0 
1.38105e+06 -5.06078e+07 0 
0 0 0 
-4.99609e+07 2.37023e+06 0 
2.37023e+06 -3.27651e+07 0 
0 0 0 
1.77751e+07 -1.57291e+06 0 
-1.57291e+06 1.20848e+07 0 
0 0 0 
1.75048e+07 2.63854e+06 0 
2.63854e+06 1.41663e+07 0 
0 0 0 
0 0 0 
0 0 0 
0 0 0 
2.18948e+07 -779077 0 
-779077 8.00504e+07 0 
0 0 0 
1.54678e+07 -1.5519e+06 0 
-1.5519e+06 3.96339e+07 0 
0 0 0 
2.71712e+07 70528.9 0 
70528.9 6.55386e+07 0 
0 0 0 
2.79703e+07 8.41203e+06 0 
8.41203e+06 8.40673e+07 0 
0 0 0 
3.8974e+07 9.10605e+06 0 
9.10605e+06 7.78191e+07 0 
0 0 0 
3.37018e+07 -765845 0 
-765845 3.64146e+07 0 
0 0 0 
5.2119e+07 1.21869e+06 0 
1.21869e+06 6.47493e+07 0 
0 0 0 
4.91945e+07 1.22113e+07 0 
1.22113e+07 3.67756e+07 0 
0 0 0 
6.0085e+07 -5.16517e+06 0 
-5.16517e+06 6.22166e+07 0 
0 0 0 
4.85811e+07 -6.80235e+06 0 
-6.80235e+06 -177586 0 
0 0 0 
9.50345e+07 -2.07561e+06 0 
-2.07561e+06 1.01969e+08 0 
0 0 0 
8.08803e+07 7.67568e+06 0 
7.67568e+06 2.35453e+07 0 
0 0 0 
9.75563e+07 793072 0 
793072 7.80062e+07 0 
0 0 0 
6.56528e+07 -4.04585e+06 0 
-4.04585e+06 -3.97746e+07 0 
0 0 0 
1.00017e+08 -9.86139e+06 0 
-9.86139e+06 4.1175e+07 0 
0 0 0 
9.07175e+07 -1.35267e+07 0 
-1.35267e+07 1.22603e+07 0 
0 0 0 
6.75531e+07 -4.83405e+06 0 
-4.83405e+06 2.67439e+07 0 
0 0 0 
5.78378e+07 -3.71654e+06 0 
-3.71654e+06 4.44237e+07 0 
0 0 0 
1.1778e+07 8.30775e+06 0 
8.30775e+06 -6.09153e+07 0 
0 0 0 
1.09629e+07 -7.12192e+06 0 
-7.12192e+06 -1.22485e+07 0 
0 0 0 
-1.20968e+07 -1.36527e+07 0 
-1.36527e+07 -1.14189e+07 0 
0 0 0 
-8.97602e+06 -3.76423e+07 0 
-3.76423e+07 -4.33668e+06 0 
0 0 0 
-4.95249e+07 -3.51678e+07 0 
-3.51678e+07 -4.69572e+07 0 
0 0 0 
9.27625e+06 1.66371e+07 0 
1.66371e+07 4.00023e+07 0 
0 0 0 
4.28834e+07 2.58489e+07 0 
2.58489e+07 4.43318e+06 0 
0 0 0 
9.6689e+07 3.62862e+07 0 
3.62862e+07 2.50569e+07 0 
0 0 0 
4.01406e+07 1.16173e+07 0 
1.16173e+07 -1.15806e+07 0 
0 0 0 
-1.81848e+07 -2.29887e+07 0 
-2.29887e+07 -4.37717e+07 0 
0 0 0 
-4.24644e+07 -1.4076e+07 0 
-1.4076e+07 -7.35848e+07 0 
0 0 0 
-1.30724e+07 -1.42457e+07 0 
-1.42457e+07 6.05917e+06 0 
0 0 0 
2.00714e+06 -2.86847e+06 0 
-2.86847e+06 -744015 0 
0 0 0 
-3.69015e+07 -5.70432e+06 0 
-5.70432e+06 -9.02802e+07 0 
0 0 0 
-2.23501e+07 -1.59988e+07 0 
-1.59988e+07 -6.13384e+07 0 
0 0 0 
1.99915e+07 -1.06763e+07 0 
-1.06763e+07 5.584e+07 0 
0 0 0 
5.43467e+07 -1.5516e+07 0 
-1.5516e+07 1.12221e+08 0 
0 0 0 
2.80799e+07 -1.38071e+07 0 
-1.38071e+07 2.37524e+07 0 
0 0 0 
4.6782e+07 8563.72 0 
8563.72 5.59216e+07 0 
0 0 0 
6.17729e+07 2.80362e+06 0 
2.80362e+06 5.66293e+07 0 
0 0 0 
8.26512e+07 815816 0 
815816 1.33595e+08 0 
0 0 0 
5.23716e+07 -3.89593e+06 0 
-3.89593e+06 6.63367e+07 0 
0 0 0 
6.41371e+07 -1.61757e+06 0 
-1.61757e+06 1.53479e+08 0 
0 0 0 
4.39771e+07 1.6063e+07 0 
1.6063e+07 1.20053e+08 0 
0 0 0 
3.90568e+07 3.01872e+07 0 
3.01872e+07 1.38409e+08 0 
0 0 0 
1.48074e+07 3.35088e+07 0 
3.35088e+07 7.32688e+07 0 
0 0 0 
3.5251e+06 2.25647e+07 0 
2.25647e+07 4.13814e+07 0 
0 0 0 
3.57294e+07 3.76067e+06 0 
3.76067e+06 1.05147e+08 0 
0 0 0 
2.68023e+07 1.23897e+07 0 
1.23897e+07 1.03054e+08 0 
0 0 0 
-1.99412e+07 2.40673e+07 0 
2.40673e+07 -7.18344e+06 0 
0 0 0 
-2.28001e+07 2.48449e+07 0 
2.48449e+07 -4.65759e+07 0 
0 0 0 
-1.15288e+07 1.72622e+07 0 
1.72622e+07 84147.3 0 
0 0 0 
-1.38729e+07 1.42384e+07 0 
1.42384e+07 -9.04849e+06 0 
0 0 0 
3.17696e+07 1.22028e+07 0 
1.22028e+07 7.90567e+07 0 
0 0 0 
4.64674e+06 -3.16615e+06 0 
-3.16615e+06 -5.51821e+07 0 
0 0 0 
1.52529e+07 -2.08824e+06 0 
-2.08824e+06 -3.44607e+07 0 
0 0 0 
1.08994e+07 6.67842e+06 0 
6.67842e+06 -1.1506e+07 0 
0 0 0 
2.4568e+07 6.99464e+06 0 
6.99464e+06 2.01882e+07 0 
0 0 0 
1.28086e+07 -7.83899e+06 0 
-7.83899e+06 -2.47195e+06 0 
0 0 0 
1.61854e+07 -6.7773e+06 0 
-6.7773e+06 5.6639e+07 0 
0 0 0 
-2.88315e+07 2.34475e+06 0 
2.34475e+06 -6.06353e+07 0 
0 0 0 
-4.716e+07 7.58816e+06 0 
7.58816e+06 -7.66057e+07 0 
0 0 0 
-1.3928e+07 -289720 0 
-289720 -2.36931e+06 0 
0 0 0 
-1.1127e+07 2.4549e+06 0 
2.4549e+06 1.33434e+06 0 
0 0 0 
-1.00615e+07 6.84856e+06 0 
6.84856e+06 -4.23477e+07 0 
0 0 0 
1.0584e+07 -1.12088e+07 0 
-1.12088e+07 -2.1055e+07 0 
0 0 0 
6.65363e+07 -1.0076e+07 0 
-1.0076e+07 1.11828e+08 0 
0 0 0 
4.45165e+07 3.84811e+06 0 
3.84811e+06 7.14049e+07 0 
0 0 0 
-7.78486e+06 904194 0 
904194 -5.01288e+07 0 
0 0 0 
-1.39367e+07 -58989.9 0 
-58989.9 -1.0134e+07 0 
0 0 0 
-2.96577e+07 1.08201e+06 0 
1.08201e+06 -1.38366e+07 0 
0 0 0 
-3.68099e+07 6.6972e+06 0 
6.6972e+06 -2.68304e+07 0 
0 0 0 
-1.76061e+07 7.32275e+06 0 
7.32275e+06 -4.97094e+06 0 
0 0 0 
-1.17232e+07 4.77754e+06 0 
4.77754e+06 1.45237e+07 0 
0 0 0 
1.53327e+07 4.66285e+06 0 
4.66285e+06 6.13646e+07 0 
0 0 0 
-3.97445e+06 1.11363e+06 0 
1.11363e+06 -3.61495e+07 0 
0 0 0 
9.43602e+06 -1.1112e+07 0 
-1.1112e+07 3.04737e+07 0 
0 0 0 
5.71682e+06 -1.10193e+07 0 
-1.10193e+07 2.47078e+07 0 
0 0 0 
-2.05249e+07 -2.55021e+06 0 
-2.55021e+06 -2.90655e+07 0 
0 0 0 
-4.18377e+07 3.13137e+06 0 
3.13137e+06 -6.02744e+07 0 
0 0 0 
-2.1339e+07 7.67693e+06 0 
7.67693e+06 -813229 0 
0 0 0 
0 0 0 
0 0 0 
0 0 0 
-2.95798e+06 2.52308e+06 0 
2.52308e+06 -1.19338e+07 0 
0 0 0 
3.02672e+06 1.35159e+07 0 
1.35159e+07 -1.25661e+07 0 
0 0 0 
-1.7748e+07 679847 0 
679847 -6.6292e+06 0 
0 0 0 
9.42671e+06 -2.53145e+06 0 
-2.53145e+06 1.04781e+07 0 
0 0 0 
-3.80259e+07 -1.01092e+07 0 
-1.01092e+07 -7.98111e+06 0 
0 0 0 
2.1499e+07 -6.44124e+06 0 
-6.44124e+06 7.56053e+06 0 
0 0 0 
-1.52169e+07 -1.37489e+07 0 
-1.37489e+07 -2.91828e+06 0 
0 0 0 
3.07344e+07 -5.70289e+06 0 
-5.70289e+06 1.50419e+07 0 
0 0 0 
-1.65428e+07 -7.80945e+06 0 
-7.80945e+06 1.08002e+07 0 
0 0 0 
2.3466e+07 1.95519e+06 0 
1.95519e+06 3.75365e+07 0 
0 0 0 
-7.80401e+06 -5.15327e+06 0 
-5.15327e+06 2.66608e+07 0 
0 0 0 
4.36221e+07 -9.28228e+06 0 
-9.28228e+06 4.20781e+07 0 
0 0 0 
9.38269e+06 -1.37776e+07 0 
-1.37776e+07 3.08599e+07 0 
0 0 0 
2.32468e+07 -3.57382e+06 0 
-3.57382e+06 2.83673e+07 0 
0 0 0 
-2.80084e+07 -3.08636e+06 0 
-3.08636e+06 -5.38322e+06 0 
0 0 0 
2.08217e+06 2.15011e+06 0 
2.15011e+06 6.76593e+06 0 
0 0 0 
-4.87866e+07 1.7223e+07 0 
1.7223e+07 -1.35309e+07 0 
0 0 0 
8.1551e+06 1.27121e+07 0 
1.27121e+07 2.6621e+06 0 
0 0 0 
-1.66647e+07 9.02549e+06 0 
9.02549e+06 -1.35317e+06 0 
0 0 0 
667785 2.73955e+06 0 
2.73955e+06 7.01707e+06 0 
0 0 0 
2.89576e+07 3.49968e+06 0 
3.49968e+06 2.76849e+07 0 
0 0 0 
1.67569e+07 -5.75731e+06 0 
-5.75731e+06 2.14919e+07 0 
0 0 0 
2.93857e+07 -1.17011e+07 0 
-1.17011e+07 1.20568e+07 0 
0 0 0 
-3.24099e+07 -1.14941e+07 0 
-1.14941e+07 -1.5133e+07 0 
0 0 0 
-7.61987e+06 -1.04437e+07 0 
-1.04437e+07 -9.65802e+06 0 
0 0 0 
-5.35326e+07 -2.13172e+06 0 
-2.13172e+06 -3.19289e+07 0 
0 0 0 
5.24732e+06 6.36772e+06 0 
6.36772e+06 -4.62653e+06 0 
0 0 0 
1.86484e+07 6.78822e+06 0 
6.78822e+06 1.28414e+07 0 
0 0 0 
4.5059e+07 -2.73784e+06 0 
-2.73784e+06 2.67324e+07 0 
0 0 0 
9.64019e+06 -7.19959e+06 0 
-7.19959e+06 9.97474e+06 0 
0 0 0 
2.50014e+07 -5.78064e+06 0 
-5.78064e+06 -1.24654e+07 0 
0 0 0 
-7.9387e+07 -3.74972e+06 0 
-3.74972e+06 -5.78635e+07 0 
0 0 0 
-1.19881e+07 5.62605e+06 0 
5.62605e+06 -3.03498e+07 0 
0 0 0 
-5.31636e+07 4.18661e+06 0 
4.18661e+06 -3.12523e+07 0 
0 0 0 
1.93674e+07 -2.5591e+06 0 
-2.5591e+06 -173281 0 
0 0 0 
-1.39194e+07 -7.74783e+06 0 
-7.74783e+06 -1.58749e+06 0 
0 0 0 
4.7361e+07 2.05752e+06 0 
2.05752e+06 1.41068e+07 0 
0 0 0 
-4.28735e+07 1.14404e+07 0 
1.14404e+07 -2.70668e+07 0 
0 0 0 
3.85524e+07 1.26348e+07 0 
1.26348e+07 9.81977e+06 0 
0 0 0 
-2.59788e+07 7.67382e+06 0 
7.67382e+06 -1.71786e+07 0 
0 0 0 
3.17146e+07 -1.20287e+06 0 
-1.20287e+06 1.0605e+07 0 
0 0 0 
1.44711e+06 -7.33088e+06 0 
-7.33088e+06 2.10996e+07 0 
0 0 0 
1.57752e+06 3.03816e+06 0 
3.03816e+06 1.60542e+07 0 
0 0 0 
4.5497e+06 1.47729e+06 0 
1.47729e+06 2.91138e+07 0 
0 0 0 
6.47935e+06 4.65063e+06 0 
4.65063e+06 2.27208e+07 0 
0 0 0 
5.73371e+06 -447271 0 
-447271 9.03571e+06 0 
0 0 0 
-1.1249e+07 -290192 0 
-290192 2.28119e+07 0 
0 0 0 
-2.71738e+06 -1.43795e+06 0 
-1.43795e+06 1.06252e+07 0 
0 0 0 
-1.80895e+07 -7.49879e+06 0 
-7.49879e+06 2.43888e+06 0 
0 0 0 
-1.85696e+07 -6.5411e+06 0 
-6.5411e+06 1.35412e+07 0 
0 0 0 
3.3364e+07 1.26191e+06 0 
1.26191e+06 3.9547e+07 0 
0 0 0 
2.37592e+07 -8.68142e+06 0 
-8.68142e+06 4.03402e+07 0 
0 0 0 
2.29346e+07 -7.37337e+06 0 
-7.37337e+06 5.38588e+07 0 
0 0 0 
1.83772e+07 -8.90918e+06 0 
-8.90918e+06 5.43392e+07 0 
0 0 0 
-7.99412e+06 -8.5694e+06 0 
-8.5694e+06 3.80991e+07 0 
0 0 0 
1.13471e+07 -6.16936e+06 0 
-6.16936e+06 4.67333e+07 0 
0 0 0 
1.41157e+07 4.89369e+06 0 
4.89369e+06 4.8583e+07 0 
0 0 0 
4.0864e+07 1.12349e+07 0 
1.12349e+07 6.21288e+07 0 
0 0 0 
3.14691e+07 -2.51218e+06 0 
-2.51218e+06 7.01703e+07 0 
0 0 0 
3.08856e+07 653363 0 
653363 7.24893e+07 0 
0 0 0 
1.71455e+07 -8.31641e+06 0 
-8.31641e+06 6.51244e+07 0 
0 0 0 
9.44012e+06 -9.13486e+06 0 
-9.13486e+06 6.27621e+07 0 
0 0 0 
-935468 1.80014e+06 0 
1.80014e+06 6.34196e+07 0 
0 0 0 
1.86112e+07 9.13865e+06 0 
9.13865e+06 8.49128e+07 0 
0 0 0 
3.11153e+07 7.02198e+06 0 
7.02198e+06 1.00198e+08 0 
0 0 0 
2.78598e+07 -5.95199e+06 0 
-5.95199e+06 9.81287e+07 0 
0 0 0 
5.31651e+07 -1.34313e+07 0 
-1.34313e+07 1.06157e+08 0 
0 0 0 
2.35024e+07 -2.16995e+07 0 
-2.16995e+07 8.62253e+07 0 
0 0 0 
5.19193e+07 -1.11493e+07 0 
-1.11493e+07 8.56809e+07 0 
0 0 0 
1.3241e+07 -469165 0 
-469165 5.86796e+07 0 
0 0 0 
2.41339e+07 -822582 0 
-822582 4.44073e+07 0 
0 0 0 
-1.92892e+07 4.41534e+06 0 
4.41534e+06 1.66607e+07 0 
0 0 0 
2.6915e+07 -9.66075e+06 0 
-9.66075e+06 4.38416e+07 0 
0 0 0 
-1.73173e+06 -6.93371e+06 0 
-6.93371e+06 2.89366e+07 0 
0 0 0 
4.04271e+07 -1.14606e+06 0 
-1.14606e+06 3.05031e+07 0 
0 0 0 
-1.20589e+07 -6.29033e+06 0 
-6.29033e+06 1.84216e+07 0 
0 0 0 
1.41314e+07 1.69088e+06 0 
1.69088e+06 1.98247e+07 0 
0 0 0 
-3.38443e+07 3.97858e+06 0 
3.97858e+06 -1.84089e+06 0 
0 0 0 
2.03685e+07 1.33606e+06 0 
1.33606e+06 1.56594e+07 0 
0 0 0 
-9.72639e+06 9.03364e+06 0 
9.03364e+06 1.80131e+07 0 
0 0 0 
-1.05127e+07 3.97728e+06 0 
3.97728e+06 -727339 0 
0 0 0 
0 0 0 
0 0 0 
0 0 0 
2.74106e+07 -3.30721e+06 0 
-3.30721e+06 6.61417e+07 0 
0 0 0 
3.65028e+07 1.13524e+07 0 
1.13524e+07 8.11608e+07 0 
0 0 0 
2.15755e+07 1.48048e+07 0 
1.48048e+07 5.34939e+07 0 
0 0 0 
3.04034e+07 5.25238e+06 0 
5.25238e+06 7.22477e+07 0 
0 0 0 
2.39499e+07 -2.38602e+06 0 
-2.38602e+06 6.1577e+07 0 
0 0 0 
-1.36664e+07 -923523 0 
-923523 2.63127e+07 0 
0 0 0 
-2.86634e+07 1.80857e+06 0 
1.80857e+06 4.94741e+07 0 
0 0 0 
-6.13704e+07 183656 0 
183656 -2.88921e+06 0 
0 0 0 
-7.0383e+07 -1.81085e+06 0 
-1.81085e+06 -987819 0 
0 0 0 
-8.01375e+07 -2.58355e+06 0 
-2.58355e+06 -3.02827e+07 0 
0 0 0 
-4.66845e+07 -485287 0 
-485287 6.1855e+07 0 
0 0 0 
-5.74949e+07 8.47109e+06 0 
8.47109e+06 -5.48108e+06 0 
0 0 0 
-6.53156e+07 -1.98662e+06 0 
-1.98662e+06 -1.76594e+07 0 
0 0 0 
-1.09173e+08 -4.68407e+06 0 
-4.68407e+06 -8.7024e+07 0 
0 0 0 
-9.19829e+07 -2.83368e+06 0 
-2.83368e+06 -3.12224e+07 0 
0 0 0 
-9.2876e+07 -8.59561e+06 0 
-8.59561e+06 -5.02236e+07 0 
0 0 0 
-6.90823e+07 -1.9196e+07 0 
-1.9196e+07 -1.08483e+07 0 
0 0 0 
-6.60031e+07 -1.15984e+07 0 
-1.15984e+07 7.67849e+06 0 
0 0 0 
-1.06467e+08 -1.02616e+07 0 
-1.02616e+07 -8.6177e+07 0 
0 0 0 
-9.22236e+07 -7.86847e+06 0 
-7.86847e+06 -7.6e+07 0 
0 0 0 
-8.31245e+07 -3.04988e+07 0 
-3.04988e+07 -6.05995e+07 0 
0 0 0 
-6.22064e+07 -2.64383e+07 0 
-2.64383e+07 -6.92388e+06 0 
0 0 0 
-7.6465e+07 -3.40729e+07 0 
-3.40729e+07 -1.02294e+08 0 
0 0 0 
-2.60184e+07 -3.09236e+07 0 
-3.09236e+07 8.64132e+06 0 
0 0 0 
-6.62094e+06 2.39817e+07 0 
2.39817e+07 3.41906e+07 0 
0 0 0 
2.60606e+07 2.42094e+07 0 
2.42094e+07 3.32984e+07 0 
0 0 0 
-8.64793e+06 2.03026e+07 0 
2.03026e+07 -3.52323e+07 0 
0 0 0 
-4.26694e+07 -1.24792e+07 0 
-1.24792e+07 -3.11614e+07 0 
0 0 0 
-7.25872e+07 -2.09766e+07 0 
-2.09766e+07 -8.25677e+07 0 
0 0 0 
-6.43832e+07 -959286 0 
-959286 -7.6257e+06 0 
0 0 0 
-6.09466e+07 -1.74909e+07 0 
-1.74909e+07 -2.03879e+07 0 
0 0 0 
-8.77933e+07 -1.11584e+07 0 
-1.11584e+07 -1.14076e+08 0 
0 0 0 
-4.55535e+07 -1.71357e+07 0 
-1.71357e+07 -4.42857e+07 0 
0 0 0 
-4.65555e+06 -9.43688e+06 0 
-9.43688e+06 2.88569e+07 0 
0 0 0 
9.18267e+06 -1.21676e+07 0 
-1.21676e+07 7.9919e+07 0 
0 0 0 
-1.97587e+07 -2.06267e+07 0 
-2.06267e+07 2.3513e+07 0 
0 0 0 
-1.84834e+07 -669740 0 
-669740 6.11205e+07 0 
0 0 0 
-3.73244e+07 9.50577e+06 0 
9.50577e+06 3.56543e+07 0 
0 0 0 
1.01668e+07 9.13908e+06 0 
9.13908e+06 9.37132e+07 0 
0 0 0 
4.01492e+07 589896 0 
589896 6.06896e+07 0 
0 0 0 
9.80041e+07 2.38438e+06 0 
2.38438e+06 1.72094e+08 0 
0 0 0 
1.06673e+08 2.04665e+07 0 
2.04665e+07 1.66732e+08 0 
0 0 0 
1.02716e+08 1.4284e+07 0 
1.4284e+07 1.697e+08 0 
0 0 0 
5.10646e+07 2.36213e+07 0 
2.36213e+07 7.88768e+07 0 
0 0 0 
2.60801e+07 2.9293e+07 0 
2.9293e+07 3.25428e+07 0 
0 0 0 
4.67314e+07 7.45567e+06 0 
7.45567e+06 1.12208e+08 0 
0 0 0 
7.08536e+07 1.21173e+07 0 
1.21173e+07 1.38696e+08 0 
0 0 0 
3.06099e+07 2.37186e+07 0 
2.37186e+07 -1.65453e+06 0 
0 0 0 
2.69804e+06 2.96754e+07 0 
2.96754e+07 -2.33192e+07 0 
0 0 0 
-4.32628e+06 2.56637e+07 0 
2.56637e+07 -4.77995e+06 0 
0 0 0 
-1.00596e+07 2.09822e+07 0 
2.09822e+07 -7.62026e+06 0 
0 0 0 
2.56384e+06 2.47374e+07 0 
2.47374e+07 4.41755e+07 0 
0 0 0 
-3.4562e+07 1.17615e+07 0 
1.17615e+07 -6.43966e+07 0 
0 0 0 
-3.14625e+07 2.34451e+06 0 
2.34451e+06 -5.53187e+07 0 
0 0 0 
-3.07694e+06 7.3685e+06 0 
7.3685e+06 2.18023e+06 0 
0 0 0 
-1.90676e+07 290874 0 
290874 -1.75843e+07 0 
0 0 0 
-2.67902e+07 -1.97882e+07 0 
-1.97882e+07 -3.32138e+07 0 
0 0 0 
1.57757e+07 -1.53499e+07 0 
-1.53499e+07 7.38257e+07 0 
0 0 0 
-2.8144e+07 -588571 0 
-588571 -4.33494e+07 0 
0 0 0 
-1.34608e+07 8.80255e+06 0 
8.80255e+06 -6.72452e+07 0 
0 0 0 
2.78612e+07 3.32543e+06 0 
3.32543e+06 1.27002e+06 0 
0 0 0 
3.82854e+07 3.9521e+06 0 
3.9521e+06 2.74761e+07 0 
0 0 0 
-1.51724e+07 8.54388e+06 0 
8.54388e+06 -5.68113e+07 0 
0 0 0 
2.03128e+06 -4.351e+06 0 
-4.351e+06 -2.90547e+07 0 
0 0 0 
5.73853e+07 -4.69251e+06 0 
-4.69251e+06 1.11415e+08 0 
0 0 0 
2.78661e+07 -5.84673e+06 0 
-5.84673e+06 7.93291e+07 0 
0 0 0 
-5.65857e+07 -1.03826e+07 0 
-1.03826e+07 -8.12069e+07 0 
0 0 0 
-3.50336e+07 -1.35996e+07 0 
-1.35996e+07 -1.23648e+07 0 
0 0 0 
-2.46491e+07 -2.13583e+06 0 
-2.13583e+06 -7.03014e+06 0 
0 0 0 
-2.49339e+07 1.16655e+07 0 
1.16655e+07 -1.02658e+07 0 
0 0 0 
-2.83203e+07 7.65525e+06 0 
7.65525e+06 -1.62198e+07 0 
0 0 0 
-5.84213e+06 -1.13976e+06 0 
-1.13976e+06 9.83362e+06 0 
0 0 0 
-4.20769e+06 -2.99766e+06 0 
-2.99766e+06 5.57159e+07 0 
0 0 0 
-5.08169e+07 3.94444e+06 0 
3.94444e+06 -5.56209e+07 0 
0 0 0 
-1.53458e+07 -3.22146e+06 0 
-3.22146e+06 -210758 0 
0 0 0 
9.2817e+06 -1.34296e+07 0 
-1.34296e+07 4.69301e+07 0 
0 0 0 
-5.27642e+06 690979 0 
690979 -1.47959e+07 0 
0 0 0 
-1.16883e+07 5.71989e+06 0 
5.71989e+06 -5.15389e+07 0 
0 0 0 
3.28019e+07 1.67664e+07 0 
1.67664e+07 2.55577e+07 0 
0 0 0 
4.40346e+07 8.20973e+06 0 
8.20973e+06 2.96442e+07 0 
0 0 0 
0 0 0 
0 0 0 
0 0 0 
1.32377e+07 -3.85756e+06 0 
-3.85756e+06 1.2447e+07 0 
0 0 0 
7.46533e+06 5.90251e+06 0 
5.90251e+06 -2.25057e+06 0 
0 0 0 
-3.89966e+07 8.53828e+06 0 
8.53828e+06 -2.7486e+07 0 
0 0 0 
-626671 1.49101e+06 0 
1.49101e+06 -2.42392e+07 0 
0 0 0 
-5.80811e+07 5.66883e+06 0 
5.66883e+06 -5.83513e+07 0 
0 0 0 
1.90955e+06 -1.85605e+06 0 
-1.85605e+06 -4.46759e+07 0 
0 0 0 
-2.94421e+07 -2.95996e+06 0 
-2.95996e+06 -4.95493e+07 0 
0 0 0 
1.55111e+07 -3.22488e+06 0 
-3.22488e+06 -1.28801e+07 0 
0 0 0 
-2.28533e+07 309740 0 
309740 -2.42906e+07 0 
0 0 0 
1.69129e+07 -1.37677e+06 0 
-1.37677e+06 -2.0369e+07 0 
0 0 0 
-4.02848e+07 -3.45329e+06 0 
-3.45329e+06 -3.54484e+07 0 
0 0 0 
1.48974e+07 -6.47319e+06 0 
-6.47319e+06 -1.82954e+07 0 
0 0 0 
-5.65968e+06 -1.31879e+07 0 
-1.31879e+07 -2.16544e+07 0 
0 0 0 
1.85534e+07 -8.7741e+06 0 
-8.7741e+06 -1.01585e+07 0 
0 0 0 
-1.38442e+07 2.97857e+06 0 
2.97857e+06 -1.53048e+06 0 
0 0 0 
6.98289e+06 5.28861e+06 0 
5.28861e+06 1.48684e+07 0 
0 0 0 
-3.10569e+07 9.07337e+06 0 
9.07337e+06 -5.21226e+06 0 
0 0 0 
-1.21839e+07 1.56102e+07 0 
1.56102e+07 1.66403e+06 0 
0 0 0 
-1.44667e+07 5.89582e+06 0 
5.89582e+06 -4.28345e+06 0 
0 0 0 
8.87211e+06 9.96717e+06 0 
9.96717e+06 5.54248e+06 0 
0 0 0 
6.47228e+06 8.10433e+06 0 
8.10433e+06 5.6647e+06 0 
0 0 0 
2.44674e+06 -2.71791e+06 0 
-2.71791e+06 6.9975e+06 0 
0 0 0 
1.64299e+07 -1.35724e+07 0 
-1.35724e+07 1.84633e+07 0 
0 0 0 
-3.02878e+07 -1.93107e+07 0 
-1.93107e+07 1.81812e+06 0 
0 0 0 
1.68206e+07 -1.33897e+07 0 
-1.33897e+07 1.76968e+07 0 
0 0 0 
-2.33191e+07 -3.43576e+06 0 
-3.43576e+06 3.87845e+06 0 
0 0 0 
1.71899e+07 1.4362e+07 0 
1.4362e+07 7.87922e+06 0 
0 0 0 
1.76751e+07 1.42513e+07 0 
1.42513e+07 7.43419e+06 0 
0 0 0 
1.78453e+07 4.55798e+06 0 
4.55798e+06 1.82288e+07 0 
0 0 0 
1.3983e+07 -7.48153e+06 0 
-7.48153e+06 3.13869e+07 0 
0 0 0 
3.65269e+07 -1.38111e+07 0 
-1.38111e+07 4.81397e+07 0 
0 0 0 
-4.17054e+07 -6.13869e+06 0 
-6.13869e+06 6.38876e+06 0 
0 0 0 
1.26533e+07 9.78673e+06 0 
9.78673e+06 2.03025e+07 0 
0 0 0 
-4.0951e+07 1.3e+07 0 
1.3e+07 -1.04392e+07 0 
0 0 0 
1.03336e+07 4.18682e+06 0 
4.18682e+06 9.47314e+06 0 
0 0 0 
-1.28694e+07 5.29913e+06 0 
5.29913e+06 2.59325e+07 0 
0 0 0 
6.86205e+07 -7.84098e+06 0 
-7.84098e+06 5.59826e+07 0 
0 0 0 
-9.33132e+06 3.31881e+06 0 
3.31881e+06 3.55782e+07 0 
0 0 0 
5.74503e+07 6.03567e+06 0 
6.03567e+06 4.15087e+07 0 
0 0 0 
-2.96276e+07 6.94235e+06 0 
6.94235e+06 1.04413e+07 0 
0 0 0 
1.66863e+07 -1.09269e+06 0 
-1.09269e+06 2.53226e+07 0 
0 0 0 
-9.50993e+06 -208862 0 
-208862 9.31736e+06 0 
0 0 0 
1.09251e+07 -7.85404e+06 0 
-7.85404e+06 2.1377e+07 0 
0 0 0 
8.26681e+06 -4.76014e+06 0 
-4.76014e+06 1.30269e+06 0 
0 0 0 
1.19647e+07 -3.31313e+06 0 
-3.31313e+06 8.07374e+06 0 
0 0 0 
-1.72281e+07 -2.36909e+06 0 
-2.36909e+06 1.17063e+06 0 
0 0 0 
-2.4006e+06 1.15656e+06 0 
1.15656e+06 -1.7778e+07 0 
0 0 0 
-3.20064e+07 -3.68342e+06 0 
-3.68342e+06 -3.63853e+07 0 
0 0 0 
-5.55319e+07 1.00931e+06 0 
1.00931e+06 -6.5054e+07 0 
0 0 0 
-8.47784e+06 8.84799e+06 0 
8.84799e+06 -4.48524e+07 0 
0 0 0 
-1.68749e+07 5.00884e+06 0 
5.00884e+06 -4.40112e+07 0 
0 0 0 
7.11182e+06 4.21301e+06 0 
4.21301e+06 -1.38636e+07 0 
0 0 0 
-3.38752e+06 -721914 0 
-721914 8.45316e+06 0 
0 0 0 
7.5927e+06 -1.29167e+07 0 
-1.29167e+07 1.38917e+07 0 
0 0 0 
1.62882e+06 -2.93749e+06 0 
-2.93749e+06 2.12387e+07 0 
0 0 0 
7.80583e+06 6.40582e+06 0 
6.40582e+06 3.25875e+07 0 
0 0 0 
4.73266e+07 1.40126e+07 0 
1.40126e+07 5.28382e+07 0 
0 0 0 
-4.08279e+06 1.53155e+07 0 
1.53155e+07 2.54521e+07 0 
0 0 0 
2.06653e+07 1.49356e+07 0 
1.49356e+07 2.90473e+07 0 
0 0 0 
2.5508e+06 -5.73082e+06 0 
-5.73082e+06 1.84371e+07 0 
0 0 0 
-1.88203e+07 -7.1759e+06 0 
-7.1759e+06 -4.40142e+06 0 
0 0 0 
1.86983e+07 -7.80813e+06 0 
-7.80813e+06 1.62114e+07 0 
0 0 0 
-1.46136e+07 1.94052e+06 0 
1.94052e+06 6.81164e+06 0 
0 0 0 
-3.49548e+06 1.47162e+07 0 
1.47162e+07 -476471 0 
0 0 0 
-5.53877e+06 1.09624e+07 0 
1.09624e+07 -7.73264e+06 0 
0 0 0 
-1.93884e+07 1.4576e+06 0 
1.4576e+06 -4.669e+06 0 
0 0 0 
-1.25834e+06 667435 0 
667435 1.14131e+07 0 
0 0 0 
5.40679e+06 -1.24335e+07 0 
-1.24335e+07 1.44223e+07 0 
0 0 0 
3.1848e+07 -6.22275e+06 0 
-6.22275e+06 3.1976e+07 0 
0 0 0 
1.28089e+07 -1.30743e+07 0 
-1.30743e+07 2.56182e+07 0 
0 0 0 
2.89063e+07 -4.3677e+06 0 
-4.3677e+06 2.81952e+07 0 
0 0 0 
-3.44016e+07 -3.90515e+06 0 
-3.90515e+06 4.54732e+06 0 
0 0 0 
2.34289e+07 2.59068e+06 0 
2.59068e+06 6.36684e+06 0 
0 0 0 
4.00746e+06 5.96925e+06 0 
5.96925e+06 2.12671e+07 0 
0 0 0 
3.43349e+07 7.4658e+06 0 
7.4658e+06 4.16577e+07 0 
0 0 0 
-1.30089e+07 3.1723e+06 0 
3.1723e+06 3.05205e+07 0 
0 0 0 
2.22551e+07 -1.84654e+06 0 
-1.84654e+06 4.59575e+07 0 
0 0 0 
-2.5292e+07 1.05833e+06 0 
1.05833e+06 1.53551e+07 0 
0 0 0 
1.44629e+07 -2.35858e+06 0 
-2.35858e+06 2.85786e+07 0 
0 0 0 
1.07366e+07 -1.23892e+07 0 
-1.23892e+07 1.34335e+07 0 
0 0 0 
3.01103e+07 712696 0 
712696 -5.82102e+06 0 
0 0 0 
3.6383e+07 -4.00167e+06 0 
-4.00167e+06 2.47239e+07 0 
0 0 0 
0 0 0 
0 0 0 
0 0 0 
1.60003e+07 4.6458e+06 0 
4.6458e+06 5.62364e+07 0 
0 0 0 
2.9788e+07 6.7265e+06 0 
6.7265e+06 1.06564e+08 0 
0 0 0 
9.15543e+06 -6.51655e+06 0 
-6.51655e+06 2.69094e+07 0 
0 0 0 
2.06721e+07 5.10572e+06 0 
5.10572e+06 5.18692e+07 0 
0 0 0 
2.70748e+07 7.19984e+06 0 
7.19984e+06 8.7641e+07 0 
0 0 0 
2.68167e+06 -5.80309e+06 0 
-5.80309e+06 1.05393e+07 0 
0 0 0 
1.21875e+07 -1.1179e+07 0 
-1.1179e+07 6.52484e+07 0 
0 0 0 
-8.37012e+06 -2.2378e+06 0 
-2.2378e+06 1.52707e+07 0 
0 0 0 
3.83619e+06 -1.06267e+06 0 
-1.06267e+06 2.98283e+07 0 
0 0 0 
-9.43811e+06 2.61613e+06 0 
2.61613e+06 -1.4008e+06 0 
0 0 0 
2.14671e+07 9.44116e+06 0 
9.44116e+06 8.59049e+07 0 
0 0 0 
-1.45842e+07 3.08452e+06 0 
3.08452e+06 1.70093e+06 0 
0 0 0 
-2.43934e+07 -1.27523e+07 0 
-1.27523e+07 -2.38038e+07 0 
0 0 0 
-1.51133e+07 -1.55587e+06 0 
-1.55587e+06 -3.91837e+07 0 
0 0 0 
-1.38647e+07 -4.8674e+06 0 
-4.8674e+06 -2.00132e+07 0 
0 0 0 
-2.51439e+07 -1.3895e+07 0 
-1.3895e+07 -3.41228e+07 0 
0 0 0 
-1.45111e+06 -7.68322e+06 0 
-7.68322e+06 1.60254e+07 0 
0 0 0 
-9.12672e+06 -1.90332e+07 0 
-1.90332e+07 3.56848e+07 0 
0 0 0 
-5.55792e+07 -500039 0 
-500039 -7.02762e+07 0 
0 0 0 
-6.50532e+07 -1.17938e+07 0 
-1.17938e+07 -8.33187e+07 0 
0 0 0 
-4.34536e+07 -1.22136e+07 0 
-1.22136e+07 -5.85202e+07 0 
0 0 0 
-1.90151e+07 -2.53997e+07 0 
-2.53997e+07 1.26752e+07 0 
0 0 0 
-5.04529e+07 -1.76357e+07 0 
-1.76357e+07 -9.32345e+07 0 
0 0 0 
-3.39363e+07 -1.32896e+07 0 
-1.32896e+07 -2.40772e+07 0 
0 0 0 
-2.93054e+07 -1.55333e+07 0 
-1.55333e+07 -5.24432e+07 0 
0 0 0 
-4.09125e+07 1.74417e+07 0 
1.74417e+07 -5.55961e+06 0 
0 0 0 
-6.01924e+07 1.54806e+07 0 
1.54806e+07 -3.14714e+07 0 
0 0 0 
-4.70165e+07 3.44541e+06 0 
3.44541e+06 2.71735e+07 0 
0 0 0 
-8.28725e+07 -2.28867e+06 0 
-2.28867e+06 -6.92553e+07 0 
0 0 0 
-3.98743e+07 -3.15429e+06 0 
-3.15429e+06 2.29073e+06 0 
0 0 0 
-5.14271e+07 6.99067e+06 0 
6.99067e+06 -2.486e+07 0 
0 0 0 
-4.46645e+07 4.30518e+06 0 
4.30518e+06 -8.6056e+07 0 
0 0 0 
-3.09277e+07 2.958e+06 0 
2.958e+06 -4.23053e+07 0 
0 0 0 
5.86198e+06 -4.64056e+06 0 
-4.64056e+06 2.91125e+07 0 
0 0 0 
8.02793e+06 -1.52114e+07 0 
-1.52114e+07 5.89329e+07 0 
0 0 0 
1.75587e+07 -8.79331e+06 0 
-8.79331e+06 4.81398e+07 0 
0 0 0 
4.27221e+07 -5.38138e+06 0 
-5.38138e+06 1.07984e+08 0 
0 0 0 
3.41597e+07 1.12154e+07 0 
1.12154e+07 8.08442e+07 0 
0 0 0 
5.1436e+07 3.33392e+07 0 
3.33392e+07 1.07204e+08 0 
0 0 0 
5.52485e+07 2.64714e+07 0 
2.64714e+07 4.33836e+07 0 
0 0 0 
1.33426e+08 4.3089e+06 0 
4.3089e+06 1.88056e+08 0 
0 0 0 
1.22327e+08 1.38485e+07 0 
1.38485e+07 1.89522e+08 0 
0 0 0 
1.22492e+08 2.01744e+07 0 
2.01744e+07 1.75353e+08 0 
0 0 0 
1.02601e+08 1.54127e+07 0 
1.54127e+07 9.9403e+07 0 
0 0 0 
6.58113e+07 2.28299e+07 0 
2.28299e+07 4.58555e+07 0 
0 0 0 
9.62015e+07 1.39511e+07 0 
1.39511e+07 1.19985e+08 0 
0 0 0 
1.0143e+08 6.95988e+06 0 
6.95988e+06 1.51296e+08 0 
0 0 0 
5.24656e+07 1.43009e+07 0 
1.43009e+07 8.35092e+06 0 
0 0 0 
5.12152e+07 1.45949e+07 0 
1.45949e+07 2.23526e+07 0 
0 0 0 
1.19992e+07 1.18129e+07 0 
1.18129e+07 -1.71597e+07 0 
0 0 0 
1.07433e+07 1.8052e+07 0 
1.8052e+07 5.6524e+06 0 
0 0 0 
1.3014e+06 1.66323e+07 0 
1.66323e+07 3.90506e+07 0 
0 0 0 
-6.98257e+07 9.87568e+06 0 
9.87568e+06 -9.5025e+07 0 
0 0 0 
-5.23712e+07 6.00813e+06 0 
6.00813e+06 -5.28442e+07 0 
0 0 0 
-3.78628e+07 1.29174e+07 0 
1.29174e+07 -1.68327e+07 0 
0 0 0 
-3.27956e+07 -1.10621e+06 0 
-1.10621e+06 -4.01788e+07 0 
0 0 0 
-2.55506e+07 -5.12666e+06 0 
-5.12666e+06 -4.74288e+07 0 
0 0 0 
3.12871e+07 -9.1411e+06 0 
-9.1411e+06 9.16844e+07 0 
0 0 0 
9.40644e+06 -2.57161e+06 0 
-2.57161e+06 -1.56694e+07 0 
0 0 0 
-1.85765e+07 1.53538e+07 0 
1.53538e+07 -5.45037e+07 0 
0 0 0 
-2.72738e+07 9.94321e+06 0 
9.94321e+06 -2.86893e+07 0 
0 0 0 
-1.6344e+07 2.675e+06 0 
2.675e+06 1.52121e+07 0 
0 0 0 
-3.53991e+07 2.42141e+06 0 
2.42141e+06 -7.93552e+07 0 
0 0 0 
-1.957e+07 1.12667e+07 0 
1.12667e+07 -2.23778e+07 0 
0 0 0 
3.05013e+07 -2.57616e+06 0 
-2.57616e+06 8.50208e+07 0 
0 0 0 
1.76464e+07 -3.01168e+07 0 
-3.01168e+07 5.40561e+07 0 
0 0 0 
-9.91975e+06 -2.06432e+07 0 
-2.06432e+07 -4.8768e+07 0 
0 0 0 
5.53296e+06 -8.32094e+06 0 
-8.32094e+06 -173745 0 
0 0 0 
8.00825e+06 36729 0 
36729 2.37018e+07 0 
0 0 0 
5.21393e+06 3.70177e+06 0 
3.70177e+06 -4.94738e+06 0 
0 0 0 
-2.03309e+06 915332 0 
915332 -5.59962e+06 0 
0 0 0 
1.33995e+06 1.10968e+07 0 
1.10968e+07 3.72875e+06 0 
0 0 0 
4.34312e+07 -8.45569e+06 0 
-8.45569e+06 7.29935e+07 0 
0 0 0 
-3.26103e+06 1.89384e+06 0 
1.89384e+06 -3.63544e+07 0 
0 0 0 
8.41724e+06 4.14831e+06 0 
4.14831e+06 3.53933e+06 0 
0 0 0 
3.96501e+07 1.07686e+06 0 
1.07686e+06 5.93952e+07 0 
0 0 0 
1.41007e+07 -7.51846e+06 0 
-7.51846e+06 -3.38011e+06 0 
0 0 0 
4.69093e+06 1.06333e+07 0 
1.06333e+07 -3.62157e+07 0 
0 0 0 
1.59852e+07 1.69195e+07 0 
1.69195e+07 1.75164e+07 0 
0 0 0 
954137 5.49837e+06 0 
5.49837e+06 1.18662e+07 0 
0 0 0 
-4.0374e+07 1.18048e+06 0 
1.18048e+06 -3.69105e+07 0 
0 0 0 
0 0 0 
0 0 0 
0 0 0 
4.29804e+06 -322759 0 
-322759 1.62141e+06 0 
0 0 0 
8.9957e+06 -7.61798e+06 0 
-7.61798e+06 9.98166e+06 0 
0 0 0 
-2.28008e+07 -1.94402e+06 0 
-1.94402e+06 -2.09538e+07 0 
0 0 0 
972452 1.6868e+06 0 
1.6868e+06 -1.08287e+07 0 
0 0 0 
-3.68672e+07 -3.00327e+06 0 
-3.00327e+06 1.89016e+06 0 
0 0 0 
2.94022e+07 3.0267e+06 0 
3.0267e+06 3.95312e+07 0 
0 0 0 
-8.53631e+06 3.19156e+06 0 
3.19156e+06 4.24393e+07 0 
0 0 0 
4.91457e+07 8.19371e+06 0 
8.19371e+06 5.86581e+07 0 
0 0 0 
-1.02143e+06 4.03238e+06 0 
4.03238e+06 4.48213e+07 0 
0 0 0 
2.53581e+07 -1.61892e+06 0 
-1.61892e+06 5.43744e+07 0 
0 0 0 
-5.3525e+06 -6.20279e+06 0 
-6.20279e+06 4.17071e+07 0 
0 0 0 
2.17705e+07 -1.14275e+07 0 
-1.14275e+07 5.93433e+07 0 
0 0 0 
2.52637e+07 -1.26842e+07 0 
-1.26842e+07 6.25464e+07 0 
0 0 0 
7.15581e+07 -3.98001e+06 0 
-3.98001e+06 8.7508e+07 0 
0 0 0 
4.75134e+06 3.55505e+06 0 
3.55505e+06 5.56438e+07 0 
0 0 0 
1.98829e+07 -7.06919e+06 0 
-7.06919e+06 3.87198e+07 0 
0 0 0 
-2.6462e+07 1.34335e+06 0 
1.34335e+06 1.56616e+06 0 
0 0 0 
-2.99352e+07 3.62327e+06 0 
3.62327e+06 -2.75851e+07 0 
0 0 0 
-1.60665e+07 771056 0 
771056 -4.56561e+07 0 
0 0 0 
-1.13638e+07 9.85456e+06 0 
9.85456e+06 -5.86653e+07 0 
0 0 0 
-2.56172e+07 1.73378e+06 0 
1.73378e+06 -6.66986e+07 0 
0 0 0 
-4.02602e+07 -2.19802e+06 0 
-2.19802e+06 -7.36173e+07 0 
0 0 0 
-1.59078e+07 -6.29447e+06 0 
-6.29447e+06 -4.27559e+07 0 
0 0 0 
-3.49365e+07 -9.52032e+06 0 
-9.52032e+06 -2.7907e+07 0 
0 0 0 
1.40649e+07 -6.66979e+06 0 
-6.66979e+06 -1.37413e+07 0 
0 0 0 
-6.89395e+06 1.10221e+06 0 
1.10221e+06 -8.51939e+06 0 
0 0 0 
2.74116e+07 6.5293e+06 0 
6.5293e+06 9.99006e+06 0 
0 0 0 
8.08664e+06 1.61533e+07 0 
1.61533e+07 1.05303e+07 0 
0 0 0 
1.12884e+07 780664 0 
780664 1.59503e+07 0 
0 0 0 
-1.06913e+07 5.99354e+06 0 
5.99354e+06 1.88176e+07 0 
0 0 0 
3.41398e+07 -2.00206e+07 0 
-2.00206e+07 3.58775e+07 0 
0 0 0 
-3.14448e+07 -7.35155e+06 0 
-7.35155e+06 1.14746e+07 0 
0 0 0 
2.9347e+07 4.42457e+06 0 
4.42457e+06 2.01379e+07 0 
0 0 0 
-3.93493e+07 -92975.2 0 
-92975.2 -1.22151e+07 0 
0 0 0 
1.13635e+07 1.94053e+07 0 
1.94053e+07 1.75614e+07 0 
0 0 0 
-2.58989e+07 5.27082e+06 0 
5.27082e+06 -2.89892e+06 0 
0 0 0 
3.97413e+07 4.94829e+06 0 
4.94829e+06 2.10685e+07 0 
0 0 0 
-1.86528e+07 -898164 0 
-898164 -8.49383e+06 0 
0 0 0 
5.08174e+07 -6.24223e+06 0 
-6.24223e+06 1.38311e+07 0 
0 0 0 
-4.47478e+07 -8.64612e+06 0 
-8.64612e+06 -3.22061e+07 0 
0 0 0 
-4.54894e+06 3.68627e+06 0 
3.68627e+06 -2.11175e+07 0 
0 0 0 
-1.03815e+07 2.76036e+06 0 
2.76036e+06 -3.46004e+06 0 
0 0 0 
-5.30412e+06 3.59828e+06 0 
3.59828e+06 -1.61822e+07 0 
0 0 0 
5.04825e+06 -881582 0 
-881582 -485574 0 
0 0 0 
1.10643e+07 -6.60811e+06 0 
-6.60811e+06 4.80507e+06 0 
0 0 0 
-1.53608e+07 -1.35141e+07 0 
-1.35141e+07 -4.52114e+06 0 
0 0 0 
4.30268e+06 -1.13135e+07 0 
-1.13135e+07 9.58935e+06 0 
0 0 0 
-5.44032e+06 -1.76784e+07 0 
-1.76784e+07 1.0412e+07 0 
0 0 0 
-2.29579e+07 -3.41136e+06 0 
-3.41136e+06 1.51074e+07 0 
0 0 0 
2.27079e+07 1.05314e+07 0 
1.05314e+07 1.48991e+07 0 
0 0 0 
-3.01508e+06 1.48076e+07 0 
1.48076e+07 1.88914e+07 0 
0 0 0 
1.8832e+07 2.23301e+07 0 
2.23301e+07 3.62963e+07 0 
0 0 0 
-1.59446e+07 5.89795e+06 0 
5.89795e+06 1.85901e+07 0 
0 0 0 
1.20083e+07 -5.23199e+06 0 
-5.23199e+06 2.50904e+07 0 
0 0 0 
9.57503e+06 -1.37221e+06 0 
-1.37221e+06 1.21234e+07 0 
0 0 0 
5.04777e+06 -1.22079e+06 0 
-1.22079e+06 -7.02767e+06 0 
0 0 0 
3.45067e+07 5.70793e+06 0 
5.70793e+06 -2.0254e+07 0 
0 0 0 
-4.28239e+07 6.96762e+06 0 
6.96762e+06 -4.78364e+07 0 
0 0 0 
-1.3359e+07 3.61979e+06 0 
3.61979e+06 -4.95671e+07 0 
0 0 0 
-2.27976e+07 1.99311e+06 0 
1.99311e+06 -4.19252e+07 0 
0 0 0 
-2.78094e+07 -5.5201e+06 0 
-5.5201e+06 -2.3634e+07 0 
0 0 0 
1.34529e+07 6.52877e+06 0 
6.52877e+06 -6.2579e+06 0 
0 0 0 
-1.30268e+06 -5.71515e+06 0 
-5.71515e+06 -3.32523e+06 0 
0 0 0 
4.44273e+06 1.54707e+07 0 
1.54707e+07 -9.45557e+06 0 
0 0 0 
-2.27678e+07 6.77358e+06 0 
6.77358e+06 -2.23043e+07 0 
0 0 0 
-2.22012e+07 8.0989e+06 0 
8.0989e+06 -1.82974e+07 0 
0 0 0 
-2.20002e+07 267852 0 
267852 -1.10908e+07 0 
0 0 0 
3.24656e+06 -646770 0 
-646770 2.93168e+07 0 
0 0 0 
3.05667e+07 -5.06263e+06 0 
-5.06263e+06 5.77038e+07 0 
0 0 0 
2.05954e+07 -8.45387e+06 0 
-8.45387e+06 6.25416e+07 0 
0 0 0 
5.49182e+07 -1.46068e+07 0 
-1.46068e+07 7.66488e+07 0 
0 0 0 
-1.38444e+07 -4.45259e+06 0 
-4.45259e+06 4.72891e+07 0 
0 0 0 
5.59664e+07 -8.40129e+06 0 
-8.40129e+06 6.978e+07 0 
0 0 0 
1.24734e+07 5.41142e+06 0 
5.41142e+06 3.2492e+07 0 
0 0 0 
2.27647e+07 -7.18242e+06 0 
-7.18242e+06 2.15449e+07 0 
0 0 0 
-4.3606e+07 6.08632e+06 0 
6.08632e+06 -1.64406e+07 0 
0 0 0 
2.72107e+07 -3.03301e+06 0 
-3.03301e+06 3.55767e+06 0 
0 0 0 
-4.35998e+07 1.40385e+07 0 
1.40385e+07 -9.3619e+06 0 
0 0 0 
1.48477e+07 9.38615e+06 0 
9.38615e+06 7.21901e+06 0 
0 0 0 
-6.25236e+06 1.41737e+06 0 
1.41737e+06 6.86117e+06 0 
0 0 0 
4.04925e+07 1.80884e+06 0 
1.80884e+06 2.75775e+07 0 
0 0 0 
-3.12054e+07 650204 0 
650204 -6.38325e+06 0 
0 0 0 
-2.38364e+07 -1.18204e+07 0 
-1.18204e+07 1.24411e+07 0 
0 0 0 
0 0 0 
0 0 0 
0 0 0 
1.68546e+07 -776344 0 
-776344 5.80315e+07 0 
0 0 0 
3.24883e+07 8.59485e+06 0 
8.59485e+06 1.13227e+08 0 
0 0 0 
-2.16706e+07 624795 0 
624795 -9.83102e+06 0 
0 0 0 
-3.49754e+07 -2.51682e+06 0 
-2.51682e+06 4.85488e+07 0 
0 0 0 
-5.87028e+07 -1.3062e+07 0 
-1.3062e+07 4.56882e+07 0 
0 0 0 
-9.48148e+07 -1.78814e+07 0 
-1.78814e+07 -2.00724e+07 0 
0 0 0 
-7.66634e+07 -3.51223e+06 0 
-3.51223e+06 5.09948e+07 0 
0 0 0 
-1.0569e+08 4.88182e+06 0 
4.88182e+06 -2.26353e+07 0 
0 0 0 
-1.10904e+08 -751623 0 
-751623 -7.72515e+06 0 
0 0 0 
-1.05869e+08 -3.32292e+06 0 
-3.32292e+06 -3.72497e+07 0 
0 0 0 
-5.59174e+07 373732 0 
373732 7.97539e+07 0 
0 0 0 
-1.15527e+08 -7.64498e+06 0 
-7.64498e+06 -7.0306e+07 0 
0 0 0 
-1.32522e+08 -1.57271e+07 0 
-1.57271e+07 -5.68155e+07 0 
0 0 0 
-1.50621e+08 -1.02297e+07 0 
-1.02297e+07 -7.38199e+07 0 
0 0 0 
-1.47367e+08 -9.0406e+06 0 
-9.0406e+06 -6.2586e+07 0 
0 0 0 
-1.39095e+08 5.05464e+06 0 
5.05464e+06 -6.5857e+07 0 
0 0 0 
-1.30271e+08 -8.58252e+06 0 
-8.58252e+06 -4.43191e+07 0 
0 0 0 
-8.75414e+07 -2.84617e+07 0 
-2.84617e+07 -88577.2 0 
0 0 0 
-7.80059e+07 -1.06551e+07 0 
-1.06551e+07 -3.76815e+07 0 
0 0 0 
-9.32022e+07 5.48457e+06 0 
5.48457e+06 -1.10205e+08 0 
0 0 0 
-1.0536e+08 -2.02026e+07 0 
-2.02026e+07 -1.14558e+08 0 
0 0 0 
-6.23412e+07 -3.44617e+07 0 
-3.44617e+07 8.0434e+06 0 
0 0 0 
-8.47833e+07 -1.59825e+07 0 
-1.59825e+07 -9.17759e+07 0 
0 0 0 
-3.44751e+07 -1.84443e+07 0 
-1.84443e+07 -2.09787e+07 0 
0 0 0 
-5.53845e+07 -1.9708e+07 0 
-1.9708e+07 -9.34668e+07 0 
0 0 0 
-3.28836e+07 -5.24991e+06 0 
-5.24991e+06 -4.13516e+07 0 
0 0 0 
-3.37223e+07 1.51461e+07 0 
1.51461e+07 -4.86582e+07 0 
0 0 0 
-8.62539e+06 1.51048e+07 0 
1.51048e+07 2.50496e+07 0 
0 0 0 
158959 2.98918e+07 0 
2.98918e+07 -2.82595e+07 0 
0 0 0 
-3.4032e+07 1.80912e+07 0 
1.80912e+07 1.53873e+07 0 
0 0 0 
-4.97317e+07 1.8387e+07 0 
1.8387e+07 -1.4926e+07 0 
0 0 0 
-1.09728e+08 1.27211e+07 0 
1.27211e+07 -1.15282e+08 0 
0 0 0 
-7.29506e+07 7.90196e+06 0 
7.90196e+06 -6.98163e+07 0 
0 0 0 
-3.61013e+07 3.29992e+06 0 
3.29992e+06 1.23002e+07 0 
0 0 0 
3.46274e+06 -5.01099e+06 0 
-5.01099e+06 4.35355e+07 0 
0 0 0 
2.84272e+07 1.45704e+06 0 
1.45704e+06 4.84408e+07 0 
0 0 0 
7.76908e+07 -1.8074e+07 0 
-1.8074e+07 1.22658e+08 0 
0 0 0 
7.2685e+07 -2.2608e+06 0 
-2.2608e+06 1.31579e+08 0 
0 0 0 
6.52014e+07 2.68038e+07 0 
2.68038e+07 1.46193e+08 0 
0 0 0 
1.99789e+07 3.79738e+07 0 
3.79738e+07 -5.84225e+06 0 
0 0 0 
8.7656e+07 1.77592e+07 0 
1.77592e+07 1.71553e+08 0 
0 0 0 
1.18575e+08 1.56565e+07 0 
1.56565e+07 1.96492e+08 0 
0 0 0 
1.04003e+08 1.91866e+07 0 
1.91866e+07 1.68831e+08 0 
0 0 0 
7.9597e+07 1.46498e+07 0 
1.46498e+07 1.02533e+08 0 
0 0 0 
5.83565e+07 2.50853e+07 0 
2.50853e+07 3.57406e+07 0 
0 0 0 
6.89054e+07 1.26026e+07 0 
1.26026e+07 1.07438e+08 0 
0 0 0 
9.66182e+07 1.49652e+07 0 
1.49652e+07 1.38733e+08 0 
0 0 0 
4.40943e+07 1.30017e+07 0 
1.30017e+07 1.54232e+07 0 
0 0 0 
2.22497e+07 6.76633e+06 0 
6.76633e+06 1.88963e+07 0 
0 0 0 
8.86194e+06 -1.13145e+06 0 
-1.13145e+06 -3.08199e+07 0 
0 0 0 
1.19364e+07 8.67316e+06 0 
8.67316e+06 3.24173e+07 0 
0 0 0 
7.51522e+06 8.32656e+06 0 
8.32656e+06 2.67355e+07 0 
0 0 0 
-3.45869e+07 -319717 0 
-319717 -9.28092e+07 0 
0 0 0 
-2.95593e+07 9.53463e+06 0 
9.53463e+06 -3.36792e+07 0 
0 0 0 
-2.06069e+07 1.16097e+07 0 
1.16097e+07 -1.63871e+07 0 
0 0 0 
-3.10923e+07 1.19246e+07 0 
1.19246e+07 -5.18625e+07 0 
0 0 0 
-1.56627e+07 -3.24282e+06 0 
-3.24282e+06 -5.75495e+07 0 
0 0 0 
6.26077e+07 3.49513e+06 0 
3.49513e+06 1.04946e+08 0 
0 0 0 
2.91787e+07 -3.26335e+06 0 
-3.26335e+06 5.00367e+06 0 
0 0 0 
5.86176e+06 9.59068e+06 0 
9.59068e+06 -2.71052e+07 0 
0 0 0 
-1.58457e+06 4.10506e+06 0 
4.10506e+06 -2.7267e+07 0 
0 0 0 
-2947.75 3.4262e+06 0 
3.4262e+06 -1.9884e+06 0 
0 0 0 
-2.85318e+07 667763 0 
667763 -6.83718e+07 0 
0 0 0 
-5.75214e+06 7.08852e+06 0 
7.08852e+06 -5.12474e+06 0 
0 0 0 
5.04794e+06 1.07698e+06 0 
1.07698e+06 4.50356e+07 0 
0 0 0 
1.19947e+07 -2.36023e+07 0 
-2.36023e+07 2.54824e+07 0 
0 0 0 
-1.95387e+07 -2.07207e+07 0 
-2.07207e+07 -3.48667e+07 0 
0 0 0 
1.34103e+06 -1.35635e+07 0 
-1.35635e+07 1.84536e+07 0 
0 0 0 
1.42762e+07 2.02398e+06 0 
2.02398e+06 3.94234e+07 0 
0 0 0 
-2.74111e+07 8.86949e+06 0 
8.86949e+06 -2.60514e+07 0 
0 0 0 
-2.09731e+07 2.28185e+06 0 
2.28185e+06 -7.7772e+06 0 
0 0 0 
-3.14717e+07 4.21162e+06 0 
4.21162e+06 -1.20083e+07 0 
0 0 0 
-2.17895e+07 -2.03881e+06 0 
-2.03881e+06 5.29893e+07 0 
0 0 0 
-4.32534e+07 -2.94397e+06 0 
-2.94397e+06 -4.83217e+07 0 
0 0 0 
-3.03037e+07 9.96034e+06 0 
9.96034e+06 -8.83098e+06 0 
0 0 0 
-6.54601e+06 -6.43421e+06 0 
-6.43421e+06 5.25096e+07 0 
0 0 0 
-1.2198e+07 6.23472e+06 0 
6.23472e+06 -1.92726e+07 0 
0 0 0 
-844248 1.07113e+07 0 
1.07113e+07 -2.18037e+07 0 
0 0 0 
2.27206e+07 2.22975e+07 0 
2.22975e+07 2.29588e+07 0 
0 0 0 
1.48923e+07 3.03431e+06 0 
3.03431e+06 582996 0 
0 0 0 
1.19039e+07 -1.21644e+07 0 
-1.21644e+07 -2.81944e+07 0 
0 0 0 
1.5939e+07 -341934 0 
-341934 4.33605e+06 0 
0 0 0 
0 0 0 
0 0 0 
0 0 0 
-6.39761e+06 -2.10092e+06 0 
-2.10092e+06 -2.39333e+06 0 
0 0 0 
8.10593e+06 1.37492e+06 0 
1.37492e+06 159920 0 
0 0 0 
-8.72726e+06 -6.53846e+06 0 
-6.53846e+06 2.12319e+06 0 
0 0 0 
-4.48676e+06 2.50396e+06 0 
2.50396e+06 -4.8328e+06 0 
0 0 0 
-3.18299e+07 2.31487e+06 0 
2.31487e+06 -2.79062e+07 0 
0 0 0 
1.55246e+07 1.10026e+07 0 
1.10026e+07 -9.7531e+06 0 
0 0 0 
-2.20252e+07 1.13952e+07 0 
1.13952e+07 -1.74161e+07 0 
0 0 0 
2.23082e+07 6.51395e+06 0 
6.51395e+06 -3.24524e+06 0 
0 0 0 
-2.53563e+07 2.31743e+06 0 
2.31743e+06 -2.34551e+07 0 
0 0 0 
1.57965e+06 3.94611e+06 0 
3.94611e+06 -1.13162e+07 0 
0 0 0 
-4.33782e+07 2.6682e+06 0 
2.6682e+06 -1.85956e+07 0 
0 0 0 
2.66025e+06 -4.98018e+06 0 
-4.98018e+06 -742715 0 
0 0 0 
1.77716e+07 -647482 0 
-647482 1.83856e+07 0 
0 0 0 
5.48561e+07 -5.18712e+06 0 
-5.18712e+06 2.48154e+07 0 
0 0 0 
-2.35496e+07 -8.03662e+06 0 
-8.03662e+06 -9.67552e+06 0 
0 0 0 
1.57945e+07 -1.08565e+07 0 
-1.08565e+07 2.44304e+06 0 
0 0 0 
-3.32156e+07 -8.90919e+06 0 
-8.90919e+06 -1.00943e+07 0 
0 0 0 
-1.01849e+07 1.24401e+06 0 
1.24401e+06 -853729 0 
0 0 0 
2.2314e+06 -3.22188e+06 0 
-3.22188e+06 153147 0 
0 0 0 
6.18729e+06 2.64107e+06 0 
2.64107e+06 -7.00993e+06 0 
0 0 0 
-1.48177e+07 3.25688e+06 0 
3.25688e+06 -2.7742e+07 0 
0 0 0 
-3.06859e+07 7.31107e+06 0 
7.31107e+06 -2.71798e+07 0 
0 0 0 
-1.60522e+07 1.4439e+07 0 
1.4439e+07 -1.2449e+07 0 
0 0 0 
-1.70843e+07 -3.23262e+06 0 
-3.23262e+06 9.80823e+06 0 
0 0 0 
2.69811e+07 -5.08676e+06 0 
-5.08676e+06 5.40471e+07 0 
0 0 0 
2.49577e+07 -6.10322e+06 0 
-6.10322e+06 4.65302e+07 0 
0 0 0 
4.4042e+07 2.43652e+06 0 
2.43652e+06 4.64583e+07 0 
0 0 0 
1.11043e+07 6.62934e+06 0 
6.62934e+06 1.04665e+07 0 
0 0 0 
-9.98767e+06 4.97128e+06 0 
4.97128e+06 -1.10099e+07 0 
0 0 0 
-3.37295e+07 -2.84974e+06 0 
-2.84974e+06 -3.00641e+07 0 
0 0 0 
1.63461e+06 -1.46464e+07 0 
-1.46464e+07 -1.51535e+07 0 
0 0 0 
-1.86964e+07 -1.49183e+07 0 
-1.49183e+07 -9.19039e+06 0 
0 0 0 
2.07178e+07 -7.65395e+06 0 
-7.65395e+06 -1.24319e+07 0 
0 0 0 
-3.56219e+07 1.93597e+06 0 
1.93597e+06 -4.02059e+07 0 
0 0 0 
-3.31707e+06 1.06823e+07 0 
1.06823e+07 -5.45598e+07 0 
0 0 0 
-5.26295e+07 9.59519e+06 0 
9.59519e+06 -6.23289e+07 0 
0 0 0 
2.02068e+07 7.69115e+06 0 
7.69115e+06 -2.11599e+07 0 
0 0 0 
-2.72269e+07 5.27248e+06 0 
5.27248e+06 -9.38918e+06 0 
0 0 0 
3.62515e+07 -1.23979e+06 0 
-1.23979e+06 1.24512e+07 0 
0 0 0 
-3.31164e+07 -1.01141e+07 0 
-1.01141e+07 -2.9974e+06 0 
0 0 0 
1.21814e+07 -1.81549e+06 0 
-1.81549e+06 6.33292e+06 0 
0 0 0 
-2.25461e+07 -2.96272e+06 0 
-2.96272e+06 -3.48534e+07 0 
0 0 0 
-3.33345e+06 -1.29785e+07 0 
-1.29785e+07 -2.88848e+07 0 
0 0 0 
-1.86708e+07 1.25918e+06 0 
1.25918e+06 -4.99593e+07 0 
0 0 0 
-2.45643e+07 -7.46986e+06 0 
-7.46986e+06 -5.79987e+07 0 
0 0 0 
-1.45351e+07 -4.32653e+06 0 
-4.32653e+06 -4.67239e+07 0 
0 0 0 
-1.87816e+07 -2.09713e+06 0 
-2.09713e+06 -2.40636e+07 0 
0 0 0 
4.49571e+06 -4.31697e+06 0 
-4.31697e+06 1.39251e+07 0 
0 0 0 
2.31749e+07 199556 0 
199556 3.84883e+07 0 
0 0 0 
3.69193e+07 1.6083e+07 0 
1.6083e+07 5.79169e+07 0 
0 0 0 
1.27991e+07 2.49342e+07 0 
2.49342e+07 4.12494e+07 0 
0 0 0 
-7.19706e+06 1.35503e+07 0 
1.35503e+07 1.13719e+07 0 
0 0 0 
-3.8397e+07 7.46898e+06 0 
7.46898e+06 -1.89442e+07 0 
0 0 0 
-9.34296e+06 -4.3935e+06 0 
-4.3935e+06 294822 0 
0 0 0 
1.90198e+07 -7.63986e+06 0 
-7.63986e+06 2.44428e+07 0 
0 0 0 
2.9419e+07 133773 0 
133773 4.18818e+07 0 
0 0 0 
4.91411e+07 -8.85624e+06 0 
-8.85624e+06 5.83657e+07 0 
0 0 0 
-1.32856e+07 -1.63046e+06 0 
-1.63046e+06 2.11748e+07 0 
0 0 0 
2.20467e+06 -735923 0 
-735923 2.20448e+07 0 
0 0 0 
-6.17595e+06 -2.08409e+06 0 
-2.08409e+06 -5.06987e+06 0 
0 0 0 
-3.36718e+06 5.21568e+06 0 
5.21568e+06 207168 0 
0 0 0 
540316 4.99277e+06 0 
4.99277e+06 1.17413e+07 0 
0 0 0 
2.40239e+07 3.02553e+06 0 
3.02553e+06 1.91483e+07 0 
0 0 0 
-1.1232e+06 -6.21315e+06 0 
-6.21315e+06 3.01588e+06 0 
0 0 0 
-1.53585e+07 4.17132e+06 0 
4.17132e+06 -2.4711e+07 0 
0 0 0 
-3.14581e+07 -112284 0 
-112284 -5.26298e+07 0 
0 0 0 
-4.76509e+07 1.23855e+07 0 
1.23855e+07 -6.81298e+07 0 
0 0 0 
-2.46478e+07 1.20889e+07 0 
1.20889e+07 -6.52375e+07 0 
0 0 0 
-2.50727e+07 1.04239e+07 0 
1.04239e+07 -5.76576e+07 0 
0 0 0 
-8.28335e+06 2.47259e+06 0 
2.47259e+06 -4.0197e+07 0 
0 0 0 
-8.89612e+06 -6.3175e+06 0 
-6.3175e+06 -3.93982e+07 0 
0 0 0 
-2.25284e+07 -1.18202e+07 0 
-1.18202e+07 -3.73602e+07 0 
0 0 0 
3.09855e+07 -7.0162e+06 0 
-7.0162e+06 -1.18038e+07 0 
0 0 0 
-1.85082e+07 -1.57264e+07 0 
-1.57264e+07 -2.91474e+07 0 
0 0 0 
1.87712e+07 -9.95466e+06 0 
-9.95466e+06 -2.13807e+07 0 
0 0 0 
-6.1694e+07 -1.11809e+07 0 
-1.11809e+07 -4.42987e+07 0 
0 0 0 
4.44617e+07 1.58871e+06 0 
1.58871e+06 -3.57267e+06 0 
0 0 0 
-4.20098e+07 737639 0 
737639 -2.13535e+07 0 
0 0 0 
3.16553e+07 1.18236e+07 0 
1.18236e+07 1.34179e+07 0 
0 0 0 
-1.02208e+07 7.95796e+06 0 
7.95796e+06 2.4895e+07 0 
0 0 0 
2.34605e+07 5.946e+06 0 
5.946e+06 4.48817e+07 0 
0 0 0 
-2.67153e+07 -1.0299e+07 0 
-1.0299e+07 1.67935e+07 0 
0 0 0 
1.89615e+07 -7.5191e+06 0 
-7.5191e+06 2.10194e+07 0 
0 0 0 
3.14558e+07 -5.61547e+06 0 
-5.61547e+06 2.83723e+07 0 
0 0 0 
0 0 0 
0 0 0 
0 0 0 
2.67856e+07 6.59759e+06 0 
6.59759e+06 7.095e+07 0 
0 0 0 
2.10496e+07 -208952 0 
-208952 9.82351e+07 0 
0 0 0 
-3.28213e+07 -1.23382e+07 0 
-1.23382e+07 -2.07317e+07 0 
0 0 0 
6.71311e+06 -3.9162e+06 0 
-3.9162e+06 6.50812e+07 0 
0 0 0 
2.66481e+07 8.62333e+06 0 
8.62333e+06 6.61538e+07 0 
0 0 0 
2.03378e+07 -1.17618e+07 0 
-1.17618e+07 1.5465e+07 0 
0 0 0 
4.90465e+07 -1.23495e+07 0 
-1.23495e+07 1.06253e+08 0 
0 0 0 
1.52528e+07 -9.9514e+06 0 
-9.9514e+06 1.20957e+07 0 
0 0 0 
3.78726e+07 7.50506e+06 0 
7.50506e+06 5.6818e+07 0 
0 0 0 
9.1045e+06 1.24948e+07 0 
1.24948e+07 -1.32623e+07 0 
0 0 0 
1.27663e+07 -8.65755e+06 0 
-8.65755e+06 8.04098e+07 0 
0 0 0 
-5.41696e+07 -2.72794e+07 0 
-2.72794e+07 -5.43641e+07 0 
0 0 0 
-3.96153e+07 -1.88596e+07 0 
-1.88596e+07 -3.03451e+07 0 
0 0 0 
-3.02575e+07 -9.68209e+06 0 
-9.68209e+06 -1.83732e+07 0 
0 0 0 
-4.30073e+07 -1.17378e+07 0 
-1.17378e+07 -2.26983e+07 0 
0 0 0 
-3.68418e+07 -1.75799e+06 0 
-1.75799e+06 -2.28749e+07 0 
0 0 0 
-2.36198e+07 -5.34595e+06 0 
-5.34595e+06 -1.49337e+07 0 
0 0 0 
-3.47108e+07 1.6256e+06 0 
1.6256e+06 1.34977e+06 0 
0 0 0 
-3.76098e+07 -2.17806e+06 0 
-2.17806e+06 3.24099e+06 0 
0 0 0 
-7.82674e+07 -1.14874e+07 0 
-1.14874e+07 -1.36102e+08 0 
0 0 0 
-5.86473e+07 -2.71506e+07 0 
-2.71506e+07 -1.20661e+08 0 
0 0 0 
-2.17747e+06 -2.04341e+07 0 
-2.04341e+07 3.33077e+07 0 
0 0 0 
-4.37964e+06 -1.17293e+07 0 
-1.17293e+07 -3.44137e+07 0 
0 0 0 
-1.81348e+07 -9.66687e+06 0 
-9.66687e+06 -3.97822e+07 0 
0 0 0 
-3.36501e+07 -1.39048e+07 0 
-1.39048e+07 -6.8128e+07 0 
0 0 0 
-3.4982e+07 -1.58914e+07 0 
-1.58914e+07 -5.33411e+07 0 
0 0 0 
-5.04475e+07 -5.69978e+06 0 
-5.69978e+06 -1.29489e+08 0 
0 0 0 
-5.29704e+07 4.8449e+06 0 
4.8449e+06 -8.97559e+07 0 
0 0 0 
-2.41014e+07 2.06501e+07 0 
2.06501e+07 -2.68781e+07 0 
0 0 0 
-5.28199e+07 1.27727e+07 0 
1.27727e+07 -1.14703e+07 0 
0 0 0 
-4.91963e+07 1.12116e+07 0 
1.12116e+07 1.58991e+07 0 
0 0 0 
-9.75937e+07 1.25705e+07 0 
1.25705e+07 -1.34458e+08 0 
0 0 0 
-6.96884e+07 1.75145e+07 0 
1.75145e+07 -4.20416e+07 0 
0 0 0 
-4.23294e+07 2.33143e+07 0 
2.33143e+07 -1.8561e+07 0 
0 0 0 
1.19176e+07 1.14718e+07 0 
1.14718e+07 4.57954e+07 0 
0 0 0 
4.00973e+07 1.70393e+07 0 
1.70393e+07 3.7212e+07 0 
0 0 0 
8.38729e+07 1.06365e+07 0 
1.06365e+07 1.35202e+08 0 
0 0 0 
1.22622e+08 1.43797e+07 0 
1.43797e+07 1.79853e+08 0 
0 0 0 
1.27192e+08 3.0815e+07 0 
3.0815e+07 1.71712e+08 0 
0 0 0 
4.93289e+07 2.69011e+07 0 
2.69011e+07 -77415.7 0 
0 0 0 
9.38545e+07 2.29075e+07 0 
2.29075e+07 1.65127e+08 0 
0 0 0 
1.17867e+08 2.67313e+07 0 
2.67313e+07 2.11192e+08 0 
0 0 0 
1.02993e+08 1.9778e+07 0 
1.9778e+07 1.47563e+08 0 
0 0 0 
9.1917e+07 1.5588e+07 0 
1.5588e+07 1.09356e+08 0 
0 0 0 
6.56118e+07 9.15888e+06 0 
9.15888e+06 5.63392e+07 0 
0 0 0 
7.28708e+07 2.83758e+07 0 
2.83758e+07 9.64646e+07 0 
0 0 0 
7.76263e+07 1.58328e+07 0 
1.58328e+07 1.15101e+08 0 
0 0 0 
3.64589e+07 -5.23085e+06 0 
-5.23085e+06 9.4386e+06 0 
0 0 0 
3.92775e+07 2.8572e+06 0 
2.8572e+06 3.0447e+07 0 
0 0 0 
685940 -1.54104e+06 0 
-1.54104e+06 -3.39849e+07 0 
0 0 0 
2.66004e+07 4.44906e+06 0 
4.44906e+06 3.92221e+07 0 
0 0 0 
1.33912e+07 -5.25461e+06 0 
-5.25461e+06 1.5983e+07 0 
0 0 0 
-1.18297e+07 468688 0 
468688 -6.2955e+07 0 
0 0 0 
1.18338e+07 1.18622e+07 0 
1.18622e+07 -1.46547e+07 0 
0 0 0 
1.00064e+07 1.77443e+07 0 
1.77443e+07 -1.88191e+07 0 
0 0 0 
4.48763e+06 4.63469e+06 0 
4.63469e+06 -4.08958e+07 0 
0 0 0 
-2.25895e+07 1.26103e+07 0 
1.26103e+07 -6.2155e+07 0 
0 0 0 
9.19543e+06 1.11897e+07 0 
1.11897e+07 7.35033e+07 0 
0 0 0 
-1.97974e+07 -1.07468e+07 0 
-1.07468e+07 -7.02223e+06 0 
0 0 0 
-4.46925e+07 -8.36342e+06 0 
-8.36342e+06 -4.14014e+07 0 
0 0 0 
-5.18259e+07 -4.00709e+06 0 
-4.00709e+06 -3.50692e+07 0 
0 0 0 
-4.29646e+07 -1.5444e+06 0 
-1.5444e+06 -3.54407e+07 0 
0 0 0 
-4.90721e+07 1.91798e+06 0 
1.91798e+06 -6.41571e+07 0 
0 0 0 
-2.89234e+07 1.09664e+07 0 
1.09664e+07 4.88481e+06 0 
0 0 0 
-1.92846e+07 8.50156e+06 0 
8.50156e+06 9.82119e+06 0 
0 0 0 
-2.45036e+07 -1.84564e+07 0 
-1.84564e+07 -8.25715e+06 0 
0 0 0 
-2.82936e+06 -1.34349e+07 0 
-1.34349e+07 -2.10996e+07 0 
0 0 0 
2.40158e+07 -4.24985e+06 0 
-4.24985e+06 3.31319e+07 0 
0 0 0 
4.08967e+07 -4.1299e+06 0 
-4.1299e+06 6.96944e+07 0 
0 0 0 
2.48301e+07 -3.59119e+06 0 
-3.59119e+06 -2.06983e+07 0 
0 0 0 
2.32837e+07 -674500 0 
-674500 1.26242e+07 0 
0 0 0 
1.69147e+07 6.02091e+06 0 
6.02091e+06 6.76588e+06 0 
0 0 0 
3.14887e+07 -4.65843e+06 0 
-4.65843e+06 5.24068e+07 0 
0 0 0 
1.70858e+07 -255786 0 
-255786 -1.1372e+07 0 
0 0 0 
2.19292e+07 2.59136e+06 0 
2.59136e+06 5.76272e+06 0 
0 0 0 
3.21422e+07 6.71047e+06 0 
6.71047e+06 7.57429e+07 0 
0 0 0 
-7.39671e+06 921619 0 
921619 -1.28762e+07 0 
0 0 0 
-1.44544e+07 2.25333e+07 0 
2.25333e+07 -1.9352e+07 0 
0 0 0 
-2.52702e+07 5.5928e+06 0 
5.5928e+06 -1.35684e+07 0 
0 0 0 
-4.51461e+07 -1.2974e+07 0 
-1.2974e+07 -3.12585e+07 0 
0 0 0 
-5.83593e+07 -1.08211e+07 0 
-1.08211e+07 -5.70276e+07 0 
0 0 0 
-3.75637e+07 -2.18053e+06 0 
-2.18053e+06 1.26934e+07 0 
0 0 0 
-3.48134e+07 6.37075e+06 0 
6.37075e+06 -7.8273e+06 0 
0 0 0 
0 0 0 
0 0 0 
0 0 0 
-1.27601e+07 1.85108e+06 0 
1.85108e+06 -1.11977e+06 0 
0 0 0 
2.39452e+07 -1.87603e+06 0 
-1.87603e+06 1.04972e+07 0 
0 0 0 
-1.4856e+07 3.44445e+06 0 
3.44445e+06 4.38421e+06 0 
0 0 0 
2.06172e+07 6.94517e+06 0 
6.94517e+06 2.41895e+07 0 
0 0 0 
-3.6929e+06 1.93732e+07 0 
1.93732e+07 3.22329e+07 0 
0 0 0 
1.98772e+07 1.02231e+07 0 
1.02231e+07 4.37286e+07 0 
0 0 0 
-1.94669e+07 121946 0 
121946 1.5224e+07 0 
0 0 0 
4.72942e+07 -593146 0 
-593146 3.47537e+07 0 
0 0 0 
-3.39973e+07 -1.05341e+06 0 
-1.05341e+06 -7.96728e+06 0 
0 0 0 
2.91683e+06 -2.61614e+06 0 
-2.61614e+06 1.78381e+06 0 
0 0 0 
-2.49073e+07 3.18264e+06 0 
3.18264e+06 1.04424e+07 0 
0 0 0 
1.42243e+07 8.42927e+06 0 
8.42927e+06 4.6497e+07 0 
0 0 0 
2.25851e+07 -6.78206e+06 0 
-6.78206e+06 3.89153e+07 0 
0 0 0 
3.85432e+07 -1.15746e+07 0 
-1.15746e+07 4.12066e+07 0 
0 0 0 
-5.96053e+06 -1.84346e+07 0 
-1.84346e+07 1.86792e+07 0 
0 0 0 
2.24997e+07 -1.54708e+07 0 
-1.54708e+07 1.61484e+07 0 
0 0 0 
-2.905e+07 -9.82307e+06 0 
-9.82307e+06 138304 0 
0 0 0 
1.33913e+07 -8.23338e+06 0 
-8.23338e+06 3.51164e+06 0 
0 0 0 
-9.2091e+06 -5.4088e+06 0 
-5.4088e+06 -1.20068e+07 0 
0 0 0 
1.54089e+07 -657590 0 
-657590 -3.03203e+06 0 
0 0 0 
-1.27995e+07 -3.4827e+06 0 
-3.4827e+06 -1.24679e+07 0 
0 0 0 
-7.15429e+06 1.26922e+07 0 
1.26922e+07 -1.33342e+07 0 
0 0 0 
-3.34175e+07 1.83673e+07 0 
1.83673e+07 -2.40381e+07 0 
0 0 0 
-4.2223e+07 1.46956e+07 0 
1.46956e+07 -2.77388e+07 0 
0 0 0 
1.86599e+07 1.28935e+07 0 
1.28935e+07 1.23479e+07 0 
0 0 0 
1.63556e+07 3.27137e+06 0 
3.27137e+06 3.98923e+07 0 
0 0 0 
5.08692e+07 4.6476e+06 0 
4.6476e+06 4.96767e+07 0 
0 0 0 
1.39431e+07 -4.94265e+06 0 
-4.94265e+06 3.92724e+07 0 
0 0 0 
-4.01324e+06 -5.57034e+06 0 
-5.57034e+06 1.17159e+07 0 
0 0 0 
-3.35779e+07 -3.31797e+06 0 
-3.31797e+06 -1.53482e+07 0 
0 0 0 
-7.78217e+06 -4.97299e+06 0 
-4.97299e+06 -7.56561e+06 0 
0 0 0 
-1.2669e+07 -1.32147e+07 0 
-1.32147e+07 -1.12163e+07 0 
0 0 0 
2.94576e+07 -1.19529e+07 0 
-1.19529e+07 4.57223e+06 0 
0 0 0 
-1.59776e+07 -8.95831e+06 0 
-8.95831e+06 -2.2779e+07 0 
0 0 0 
9.11882e+06 1.62739e+06 0 
1.62739e+06 -1.31232e+07 0 
0 0 0 
-3.23462e+07 7.83987e+06 0 
7.83987e+06 -4.20251e+07 0 
0 0 0 
-9.5829e+06 7.67413e+06 0 
7.67413e+06 -3.45326e+07 0 
0 0 0 
-2.49556e+07 1.89734e+06 0 
1.89734e+06 -5.19313e+07 0 
0 0 0 
-3.80506e+06 -4.90843e+06 0 
-4.90843e+06 -3.78523e+07 0 
0 0 0 
-4.90791e+07 -5.52192e+06 0 
-5.52192e+06 -4.7037e+07 0 
0 0 0 
9.06069e+06 -9.04908e+06 0 
-9.04908e+06 -3.22184e+07 0 
0 0 0 
-3.12727e+07 -2.12423e+06 0 
-2.12423e+06 -4.00934e+07 0 
0 0 0 
2.55283e+06 -4.00842e+06 0 
-4.00842e+06 -2.5231e+07 0 
0 0 0 
-1.78109e+06 -2.68032e+06 0 
-2.68032e+06 -1.63413e+07 0 
0 0 0 
-4.59054e+06 6.56342e+06 0 
6.56342e+06 -5.40542e+06 0 
0 0 0 
9.83782e+06 9.48015e+06 0 
9.48015e+06 1.55928e+07 0 
0 0 0 
-5.10895e+06 1.73793e+07 0 
1.73793e+07 2.11687e+07 0 
0 0 0 
2.05429e+07 1.27318e+07 0 
1.27318e+07 4.2381e+07 0 
0 0 0 
4.12148e+07 1.0581e+07 0 
1.0581e+07 6.1672e+07 0 
0 0 0 
5.05679e+07 8.06031e+06 0 
8.06031e+06 7.04418e+07 0 
0 0 0 
-1.82858e+06 1.90289e+06 0 
1.90289e+06 3.66388e+07 0 
0 0 0 
-4.18817e+06 1.50644e+06 0 
1.50644e+06 1.5226e+07 0 
0 0 0 
-5.37071e+07 -981162 0 
-981162 -1.98252e+06 0 
0 0 0 
-8.50441e+06 -1.86125e+06 0 
-1.86125e+06 3.462e+06 0 
0 0 0 
2.23822e+07 3.16064e+06 0 
3.16064e+06 1.87123e+07 0 
0 0 0 
2.50373e+07 1.27979e+06 0 
1.27979e+06 2.27472e+07 0 
0 0 0 
2.36159e+07 -2.20264e+06 0 
-2.20264e+06 1.81697e+07 0 
0 0 0 
-7.92039e+06 -1.00868e+06 0 
-1.00868e+06 1.58551e+07 0 
0 0 0 
-2.83697e+06 -863484 0 
-863484 1.40306e+07 0 
0 0 0 
7.65735e+06 -2.47582e+06 0 
-2.47582e+06 3.30292e+07 0 
0 0 0 
1.29052e+07 3.8866e+06 0 
3.8866e+06 3.37665e+07 0 
0 0 0 
9.28791e+06 -3.44928e+06 0 
-3.44928e+06 2.43378e+07 0 
0 0 0 
8.53409e+06 -3.79092e+06 0 
-3.79092e+06 5.63961e+06 0 
0 0 0 
-1.05463e+07 -1.34105e+07 0 
-1.34105e+07 -9.38818e+06 0 
0 0 0 
-8.64741e+06 -1.04e+07 0 
-1.04e+07 -1.8555e+07 0 
0 0 0 
-1.11961e+07 -1.23522e+07 0 
-1.23522e+07 -2.14847e+07 0 
0 0 0 
-2.59346e+07 5.16834e+06 0 
5.16834e+06 -2.58544e+07 0 
0 0 0 
-1.87536e+07 -2.79465e+06 0 
-2.79465e+06 -4.19132e+07 0 
0 0 0 
-3.42275e+07 1.02981e+07 0 
1.02981e+07 -6.37477e+07 0 
0 0 0 
-1.32579e+07 -1.21628e+06 0 
-1.21628e+06 -5.57905e+07 0 
0 0 0 
-3.68218e+07 -3.70954e+06 0 
-3.70954e+06 -4.81125e+07 0 
0 0 0 
1.11423e+06 1.71422e+06 0 
1.71422e+06 -1.82883e+07 0 
0 0 0 
2.88731e+07 167261 0 
167261 6.44586e+06 0 
0 0 0 
-1.28231e+07 -1.07071e+07 0 
-1.07071e+07 7.5905e+06 0 
0 0 0 
3.86587e+07 -2.78052e+06 0 
-2.78052e+06 3.73278e+07 0 
0 0 0 
-4.27383e+07 -1.30999e+07 0 
-1.30999e+07 3.4024e+06 0 
0 0 0 
3.58816e+07 -2.31787e+06 0 
-2.31787e+06 1.48077e+07 0 
0 0 0 
-2.04183e+07 -1.35051e+07 0 
-1.35051e+07 -2.56008e+07 0 
0 0 0 
1.80911e+07 -1.44527e+06 0 
-1.44527e+06 -4.34142e+07 0 
0 0 0 
-3.62577e+07 329656 0 
329656 -7.59427e+07 0 
0 0 0 
-3.08911e+07 -6.7245e+06 0 
-6.7245e+06 -8.29022e+07 0 
0 0 0 
-6.81472e+07 -7.41842e+06 0 
-7.41842e+06 -8.13854e+07 0 
0 0 0 
1.66649e+07 -1.68041e+07 0 
-1.68041e+07 -3.32486e+07 0 
0 0 0 
-3.77593e+07 -3.75678e+06 0 
-3.75678e+06 -2.10595e+06 0 
0 0 0 
-5.4562e+07 -3.04774e+06 0 
-3.04774e+06 -6.01117e+07 0 
0 0 0 
0 0 0 
0 0 0 
0 0 0 
2.79166e+07 3.09517e+06 0 
3.09517e+06 8.69258e+07 0 
0 0 0 
2.93715e+07 -3.71146e+06 0 
-3.71146e+06 7.39127e+07 0 
0 0 0 
6.4894e+06 -9.04824e+06 0 
-9.04824e+06 -1.38817e+07 0 
0 0 0 
4.55246e+07 -5.34469e+06 0 
-5.34469e+06 8.99308e+07 0 
0 0 0 
3.36468e+07 -5.20161e+06 0 
-5.20161e+06 7.31522e+07 0 
0 0 0 
1.68937e+07 -6.4782e+06 0 
-6.4782e+06 1.72473e+07 0 
0 0 0 
3.90809e+07 -6.95814e+06 0 
-6.95814e+06 7.73981e+07 0 
0 0 0 
1.5144e+06 -1.35104e+07 0 
-1.35104e+07 2.14039e+07 0 
0 0 0 
1.03246e+06 2.11779e+06 0 
2.11779e+06 5.53463e+07 0 
0 0 0 
-2.67773e+07 -1.05645e+07 0 
-1.05645e+07 -2.86116e+07 0 
0 0 0 
-1.412e+07 -1.7401e+07 0 
-1.7401e+07 3.34881e+07 0 
0 0 0 
-5.65037e+07 -2.89092e+07 0 
-2.89092e+07 -6.07376e+07 0 
0 0 0 
-5.00264e+07 -1.28898e+07 0 
-1.28898e+07 -1.0406e+07 0 
0 0 0 
-6.1896e+07 -1.1788e+07 0 
-1.1788e+07 -2.80887e+07 0 
0 0 0 
-5.0476e+07 -1.10309e+07 0 
-1.10309e+07 -2.97331e+07 0 
0 0 0 
-5.3593e+07 4.8793e+06 0 
4.8793e+06 -1.49185e+06 0 
0 0 0 
-6.67444e+07 3.50327e+06 0 
3.50327e+06 -3.35557e+07 0 
0 0 0 
-5.18864e+07 -2.73454e+07 0 
-2.73454e+07 -2.38191e+07 0 
0 0 0 
-5.16921e+07 -1.06566e+07 0 
-1.06566e+07 -3.18026e+06 0 
0 0 0 
-1.22901e+08 -1.20767e+07 0 
-1.20767e+07 -1.64774e+08 0 
0 0 0 
-1.19689e+08 368533 0 
368533 -1.21692e+08 0 
0 0 0 
-4.04462e+07 -7.79028e+06 0 
-7.79028e+06 -3.53893e+06 0 
0 0 0 
-3.59363e+07 -2.75243e+06 0 
-2.75243e+06 -2.27064e+07 0 
0 0 0 
-3.24367e+07 -2.2048e+07 0 
-2.2048e+07 -6.26732e+07 0 
0 0 0 
-1.39868e+07 -1.52019e+07 0 
-1.52019e+07 -5.47448e+07 0 
0 0 0 
-1.0693e+07 -2.28533e+07 0 
-2.28533e+07 -7.01882e+07 0 
0 0 0 
-9.31715e+06 -2.87018e+06 0 
-2.87018e+06 -8.28389e+07 0 
0 0 0 
-1.88996e+07 182756 0 
182756 -1.10487e+08 0 
0 0 0 
1.58677e+07 1.51279e+07 0 
1.51279e+07 -3.71263e+07 0 
0 0 0 
-1.00345e+07 2.3565e+07 0 
2.3565e+07 -6.21351e+07 0 
0 0 0 
-2.03624e+06 1.86928e+07 0 
1.86928e+07 -1.53495e+07 0 
0 0 0 
-3.79532e+07 1.67236e+07 0 
1.67236e+07 -9.22727e+07 0 
0 0 0 
-8.95083e+06 2.13044e+07 0 
2.13044e+07 -1.02487e+07 0 
0 0 0 
-3.2542e+06 3.40102e+07 0 
3.40102e+07 -1.91644e+07 0 
0 0 0 
3.1397e+07 2.8934e+07 0 
2.8934e+07 3.63092e+07 0 
0 0 0 
7.71933e+06 1.30476e+07 0 
1.30476e+07 2.08862e+07 0 
0 0 0 
5.49025e+07 1.66132e+07 0 
1.66132e+07 1.4639e+08 0 
0 0 0 
9.29842e+07 1.59038e+07 0 
1.59038e+07 1.66313e+08 0 
0 0 0 
9.62839e+07 1.56454e+07 0 
1.56454e+07 1.65296e+08 0 
0 0 0 
2.42839e+07 2.29197e+07 0 
2.29197e+07 -6.59963e+06 0 
0 0 0 
7.18148e+07 2.5077e+07 0 
2.5077e+07 1.52185e+08 0 
0 0 0 
9.30759e+07 2.25535e+07 0 
2.25535e+07 2.01651e+08 0 
0 0 0 
8.83756e+07 1.66622e+07 0 
1.66622e+07 1.42606e+08 0 
0 0 0 
6.19393e+07 1.70584e+07 0 
1.70584e+07 9.08178e+07 0 
0 0 0 
6.32894e+07 2.31819e+07 0 
2.31819e+07 7.57514e+07 0 
0 0 0 
8.58863e+07 1.44747e+07 0 
1.44747e+07 8.74252e+07 0 
0 0 0 
6.63189e+07 1.33418e+07 0 
1.33418e+07 9.28293e+07 0 
0 0 0 
3.63252e+07 5.72178e+06 0 
5.72178e+06 -1.89768e+06 0 
0 0 0 
4.80294e+07 -6.40789e+06 0 
-6.40789e+06 3.03149e+07 0 
0 0 0 
4.51889e+07 -8.61198e+06 0 
-8.61198e+06 712130 0 
0 0 0 
6.16354e+07 1.18694e+07 0 
1.18694e+07 5.64809e+07 0 
0 0 0 
3.85397e+07 6.22817e+06 0 
6.22817e+06 -733516 0 
0 0 0 
2.76194e+07 2.39216e+06 0 
2.39216e+06 -2.07085e+07 0 
0 0 0 
2.66326e+07 3.61783e+06 0 
3.61783e+06 -2.19141e+07 0 
0 0 0 
1.50469e+07 4.85124e+06 0 
4.85124e+06 -1.28842e+07 0 
0 0 0 
-2.26028e+07 6.47954e+06 0 
6.47954e+06 -6.0349e+07 0 
0 0 0 
-1.99628e+07 -1.05645e+07 0 
-1.05645e+07 -5.92901e+07 0 
0 0 0 
1.28285e+07 -29790.6 0 
-29790.6 5.13633e+07 0 
0 0 0 
-1.29362e+07 -2.20321e+07 0 
-2.20321e+07 -1.04182e+07 0 
0 0 0 
-1.51265e+07 -1.14063e+07 0 
-1.14063e+07 -1.66475e+07 0 
0 0 0 
-9.82766e+06 -3.51531e+06 0 
-3.51531e+06 -1.84394e+07 0 
0 0 0 
-1.79644e+07 534753 0 
534753 -2.41144e+07 0 
0 0 0 
-2.19007e+07 8.80212e+06 0 
8.80212e+06 -3.68538e+07 0 
0 0 0 
2.23452e+06 1.53895e+07 0 
1.53895e+07 2.38633e+07 0 
0 0 0 
-1.92175e+07 8.2113e+06 0 
8.2113e+06 -6.42045e+06 0 
0 0 0 
-1.46137e+07 -2.54188e+06 0 
-2.54188e+06 -3.53162e+07 0 
0 0 0 
1.13257e+07 -4.17676e+06 0 
-4.17676e+06 -3.82714e+06 0 
0 0 0 
3.17477e+07 -3.72388e+06 0 
-3.72388e+06 4.21537e+07 0 
0 0 0 
3.69197e+07 5.23998e+06 0 
5.23998e+06 6.36794e+07 0 
0 0 0 
3.55616e+06 1.63032e+06 0 
1.63032e+06 -2.00756e+07 0 
0 0 0 
2.06982e+07 1.79651e+06 0 
1.79651e+06 1.64117e+07 0 
0 0 0 
1.6523e+07 3.58515e+06 0 
3.58515e+06 1.04773e+07 0 
0 0 0 
1.31308e+07 -3.73037e+06 0 
-3.73037e+06 2.40444e+07 0 
0 0 0 
-5.30018e+06 8.60602e+06 0 
8.60602e+06 4.2615e+06 0 
0 0 0 
-1.02594e+07 1.9983e+06 0 
1.9983e+06 -1.87211e+07 0 
0 0 0 
9.63039e+06 -1.66606e+07 0 
-1.66606e+07 7.14515e+07 0 
0 0 0 
-1.97949e+07 110000 0 
110000 -6.86121e+06 0 
0 0 0 
-1.7942e+07 7.4526e+06 0 
7.4526e+06 -8.23825e+06 0 
0 0 0 
-2.68982e+07 1.36755e+07 0 
1.36755e+07 -3.60544e+07 0 
0 0 0 
-1.65205e+07 -764932 0 
-764932 -3.63994e+07 0 
0 0 0 
-1.50657e+07 -1.12142e+07 0 
-1.12142e+07 -3.23096e+07 0 
0 0 0 
2.78364e+07 4.60746e+06 0 
4.60746e+06 4.51832e+07 0 
0 0 0 
2.11421e+07 -2.98395e+06 0 
-2.98395e+06 8.19685e+06 0 
0 0 0 
4.00133e+07 -3.69588e+06 0 
-3.69588e+06 9.78392e+06 0 
0 0 0 
0 0 0 
0 0 0 
0 0 0 
-1.71232e+07 2.68931e+06 0 
2.68931e+06 -1.96179e+06 0 
0 0 0 
3.29982e+07 -1.34262e+06 0 
-1.34262e+06 2.01369e+07 0 
0 0 0 
-2.25758e+07 -4.06691e+06 0 
-4.06691e+06 -1.89854e+07 0 
0 0 0 
2.2943e+07 2.31741e+06 0 
2.31741e+06 -9.30102e+06 0 
0 0 0 
-2.53145e+07 3.92034e+06 0 
3.92034e+06 -3.82317e+07 0 
0 0 0 
-2.10695e+07 5.04166e+06 0 
5.04166e+06 -4.13146e+07 0 
0 0 0 
-3.94813e+07 3.20696e+06 0 
3.20696e+06 -4.18662e+07 0 
0 0 0 
2.3118e+07 -102993 0 
-102993 -3.99666e+07 0 
0 0 0 
-4.74544e+07 -5.93708e+06 0 
-5.93708e+06 -4.73453e+07 0 
0 0 0 
-6.49684e+06 1.10403e+07 0 
1.10403e+07 -3.62426e+07 0 
0 0 0 
-2.79753e+07 2.51282e+07 0 
2.51282e+07 -3.97066e+07 0 
0 0 0 
-1.19413e+07 1.16971e+07 0 
1.16971e+07 -2.88397e+07 0 
0 0 0 
-1.55375e+07 3.22776e+06 0 
3.22776e+06 -7.78563e+06 0 
0 0 0 
1.25924e+07 -8.19889e+06 0 
-8.19889e+06 8.71743e+06 0 
0 0 0 
-2.43024e+07 -2.50599e+07 0 
-2.50599e+07 -1.68498e+07 0 
0 0 0 
3.04964e+07 -1.54951e+07 0 
-1.54951e+07 -5.91932e+06 0 
0 0 0 
-3.36398e+07 -6.35484e+06 0 
-6.35484e+06 -2.68542e+07 0 
0 0 0 
2.02354e+07 -8.40306e+06 0 
-8.40306e+06 -3.55372e+06 0 
0 0 0 
-1.43129e+07 -5.58069e+06 0 
-5.58069e+06 2.4161e+06 0 
0 0 0 
2.81176e+07 -1.60806e+07 0 
-1.60806e+07 1.6843e+07 0 
0 0 0 
-9.5348e+06 -6.69758e+06 0 
-6.69758e+06 -6.2105e+06 0 
0 0 0 
7.57426e+06 -5.6202e+06 0 
-5.6202e+06 -1.13721e+07 0 
0 0 0 
-2.83616e+07 1.04141e+07 0 
1.04141e+07 -4.24716e+07 0 
0 0 0 
-3.45006e+07 2.50547e+07 0 
2.50547e+07 -3.61612e+07 0 
0 0 0 
-9.61806e+06 2.56379e+07 0 
2.56379e+07 -2.5333e+07 0 
0 0 0 
7.69343e+06 1.64098e+07 0 
1.64098e+07 -6.24113e+06 0 
0 0 0 
3.55399e+06 2.14421e+06 0 
2.14421e+06 1.98113e+07 0 
0 0 0 
1.70624e+07 -1.00258e+07 0 
-1.00258e+07 1.40423e+07 0 
0 0 0 
-2.78669e+07 -1.71915e+07 0 
-1.71915e+07 -1.07226e+07 0 
0 0 0 
-1.34237e+07 -9.37839e+06 0 
-9.37839e+06 -1.27733e+07 0 
0 0 0 
-2.78845e+07 -7.0943e+06 0 
-7.0943e+06 -2.2814e+07 0 
0 0 0 
61709.8 -4.10104e+06 0 
-4.10104e+06 404809 0 
0 0 0 
2.83105e+07 -8.78517e+06 0 
-8.78517e+06 3.37541e+07 0 
0 0 0 
1.71102e+07 -7.45508e+06 0 
-7.45508e+06 5.39678e+07 0 
0 0 0 
4.9002e+07 -172190 0 
-172190 6.03018e+07 0 
0 0 0 
-1.03851e+07 3.98793e+06 0 
3.98793e+06 3.6399e+07 0 
0 0 0 
1.26284e+07 9.21046e+06 0 
9.21046e+06 2.26297e+07 0 
0 0 0 
-1.04928e+07 9.00853e+06 0 
9.00853e+06 1.80251e+07 0 
0 0 0 
3.36157e+06 1.48477e+06 0 
1.48477e+06 3.0311e+07 0 
0 0 0 
-2.26015e+07 -6.98401e+06 0 
-6.98401e+06 2.981e+07 0 
0 0 0 
4.55324e+07 -5.93825e+06 0 
-5.93825e+06 6.86836e+07 0 
0 0 0 
1.14937e+06 -1.18541e+07 0 
-1.18541e+07 4.17078e+07 0 
0 0 0 
3.64147e+07 3.86102e+06 0 
3.86102e+06 4.82275e+07 0 
0 0 0 
2.21421e+07 4.93197e+06 0 
4.93197e+06 5.67276e+07 0 
0 0 0 
2.42468e+07 5.80124e+06 0 
5.80124e+06 4.47459e+07 0 
0 0 0 
1.9021e+07 1.58458e+07 0 
1.58458e+07 4.1059e+07 0 
0 0 0 
-1.11067e+07 8.35911e+06 0 
8.35911e+06 1.67324e+07 0 
0 0 0 
2.25195e+07 1.54839e+07 0 
1.54839e+07 2.6388e+06 0 
0 0 0 
-796623 8.33971e+06 0 
8.33971e+06 -8.38371e+06 0 
0 0 0 
2.16074e+07 3.96156e+06 0 
3.96156e+06 -1.05738e+07 0 
0 0 0 
-4.12637e+07 -1.46582e+07 0 
-1.46582e+07 -5.1254e+07 0 
0 0 0 
-1.72373e+07 -3.32015e+06 0 
-3.32015e+06 -5.57471e+07 0 
0 0 0 
-8.92155e+07 -3.48962e+06 0 
-3.48962e+06 -9.41405e+07 0 
0 0 0 
-2.16261e+07 7.86873e+06 0 
7.86873e+06 -7.46322e+07 0 
0 0 0 
-1.45721e+07 9.63124e+06 0 
9.63124e+06 -5.94061e+07 0 
0 0 0 
-5.82679e+06 -2.41357e+06 0 
-2.41357e+06 -4.90091e+07 0 
0 0 0 
1.36284e+07 -2.49728e+06 0 
-2.49728e+06 -2.83466e+07 0 
0 0 0 
-3.48718e+07 -6.92042e+06 0 
-6.92042e+06 -4.74386e+07 0 
0 0 0 
-2.07463e+07 -3.24843e+06 0 
-3.24843e+06 -5.86734e+07 0 
0 0 0 
-3.27868e+07 720861 0 
720861 -7.06617e+07 0 
0 0 0 
-1.91462e+07 -1.25562e+06 0 
-1.25562e+06 -6.98284e+07 0 
0 0 0 
-2.27194e+07 -530313 0 
-530313 -6.83414e+07 0 
0 0 0 
-1.12099e+07 -1.03022e+07 0 
-1.03022e+07 -4.19848e+07 0 
0 0 0 
-2.26846e+07 -9.41589e+06 0 
-9.41589e+06 -4.03086e+07 0 
0 0 0 
-6.39009e+06 -9.78545e+06 0 
-9.78545e+06 -2.57562e+07 0 
0 0 0 
-7.35929e+06 -1.39913e+06 0 
-1.39913e+06 -2.53438e+07 0 
0 0 0 
-1.77629e+07 1.12277e+06 0 
1.12277e+06 -3.05401e+07 0 
0 0 0 
-3.49673e+06 3.93526e+06 0 
3.93526e+06 -2.36731e+07 0 
0 0 0 
-4.68997e+07 7.42112e+06 0 
7.42112e+06 -3.99249e+07 0 
0 0 0 
4.06744e+06 5.22344e+06 0 
5.22344e+06 -2.68694e+07 0 
0 0 0 
-3.39328e+07 9.12351e+06 0 
9.12351e+06 -3.90513e+07 0 
0 0 0 
-4.35575e+06 7.06089e+06 0 
7.06089e+06 -3.55382e+07 0 
0 0 0 
-3.64267e+06 491404 0 
491404 -4.27354e+07 0 
0 0 0 
-2.82647e+07 -6.42916e+06 0 
-6.42916e+06 -4.84634e+07 0 
0 0 0 
-1.2763e+07 -1.51064e+07 0 
-1.51064e+07 -5.56201e+07 0 
0 0 0 
-4.26532e+07 -1.06743e+07 0 
-1.06743e+07 -5.26108e+07 0 
0 0 0 
961978 -7.4139e+06 0 
-7.4139e+06 -2.68649e+07 0 
0 0 0 
-1.08839e+07 -1.19488e+07 0 
-1.19488e+07 -3.97008e+07 0 
0 0 0 
2.85944e+07 -7.98532e+06 0 
-7.98532e+06 -1.99111e+07 0 
0 0 0 
-3.84871e+07 -5.87773e+06 0 
-5.87773e+06 -5.42067e+07 0 
0 0 0 
-1.44423e+07 -1.92596e+07 0 
-1.92596e+07 -4.93373e+07 0 
0 0 0 
-5.48766e+07 808838 0 
808838 -5.59231e+07 0 
0 0 0 
1.8421e+07 -8.01307e+06 0 
-8.01307e+06 -1.58726e+07 0 
0 0 0 
-2.33851e+07 -8.33456e+06 0 
-8.33456e+06 -1.62502e+07 0 
0 0 0 
4.24453e+07 -7.36055e+06 0 
-7.36055e+06 -1.55044e+07 0 
0 0 0 
5.68656e+07 3.92659e+06 0 
3.92659e+06 1.15998e+07 0 
0 0 0 
0 0 0 
0 0 0 
0 0 0 
2.69303e+07 5.06628e+06 0 
5.06628e+06 1.02304e+08 0 
0 0 0 
-1.23338e+07 -6.59446e+06 0 
-6.59446e+06 2.7595e+07 0 
0 0 0 
-3.16045e+07 -1.1375e+07 0 
-1.1375e+07 -2.88702e+07 0 
0 0 0 
9.52032e+06 2.49144e+06 0 
2.49144e+06 1.00452e+08 0 
0 0 0 
-4.55783e+06 9.2121e+06 0 
9.2121e+06 4.72667e+07 0 
0 0 0 
-7.0351e+06 -1.24944e+07 0 
-1.24944e+07 709252 0 
0 0 0 
1.09911e+07 -3.2892e+07 0 
-3.2892e+07 4.72486e+07 0 
0 0 0 
-5.04994e+06 -3.35074e+07 0 
-3.35074e+07 3.09494e+07 0 
0 0 0 
-1.85486e+07 -9.02273e+06 0 
-9.02273e+06 5.42843e+07 0 
0 0 0 
-7.16502e+07 -8.83034e+06 0 
-8.83034e+06 -3.75904e+07 0 
0 0 0 
-6.14655e+07 -2.42294e+07 0 
-2.42294e+07 -2.05225e+07 0 
0 0 0 
-5.34631e+07 -3.62783e+07 0 
-3.62783e+07 -5.36271e+07 0 
0 0 0 
-3.18318e+07 -2.35514e+07 0 
-2.35514e+07 1.60946e+07 0 
0 0 0 
-3.81065e+07 -1.01848e+07 0 
-1.01848e+07 -1.58968e+07 0 
0 0 0 
-4.72224e+07 -9.76082e+06 0 
-9.76082e+06 -3.16209e+07 0 
0 0 0 
-3.18671e+07 -1.45543e+07 0 
-1.45543e+07 2.52526e+07 0 
0 0 0 
-7.31635e+07 -1.00931e+07 0 
-1.00931e+07 -6.03165e+07 0 
0 0 0 
-6.65335e+07 -1.80928e+07 0 
-1.80928e+07 -3.18346e+07 0 
0 0 0 
-5.88846e+07 -1.32147e+07 0 
-1.32147e+07 -1.75183e+07 0 
0 0 0 
-1.01228e+08 -2.4618e+07 0 
-2.4618e+07 -1.26939e+08 0 
0 0 0 
-7.55502e+07 4.26678e+06 0 
4.26678e+06 -1.04281e+08 0 
0 0 0 
-4.12844e+07 7.63794e+06 0 
7.63794e+06 -1.39495e+07 0 
0 0 0 
-4.11312e+07 -3.06799e+06 0 
-3.06799e+06 -3.23965e+07 0 
0 0 0 
-6.44643e+07 -6.00213e+06 0 
-6.00213e+06 -7.04638e+07 0 
0 0 0 
-8.42314e+07 -1.06711e+06 0 
-1.06711e+06 -7.75034e+07 0 
0 0 0 
-7.20462e+07 -5.9146e+06 0 
-5.9146e+06 -9.22147e+07 0 
0 0 0 
-4.18458e+07 5.96582e+06 0 
5.96582e+06 -7.86615e+07 0 
0 0 0 
-3.82671e+07 2.01437e+07 0 
2.01437e+07 -9.14708e+07 0 
0 0 0 
-1.57415e+07 2.68463e+07 0 
2.68463e+07 -5.29656e+07 0 
0 0 0 
-9.49068e+06 2.32344e+07 0 
2.32344e+07 -7.70584e+07 0 
0 0 0 
-4.41456e+06 4.06532e+06 0 
4.06532e+06 -2.82484e+07 0 
0 0 0 
-3.48921e+07 8.96276e+06 0 
8.96276e+06 -6.73948e+07 0 
0 0 0 
-1.04796e+07 2.77165e+07 0 
2.77165e+07 5.83893e+06 0 
0 0 0 
-1.76434e+07 3.87922e+07 0 
3.87922e+07 -4.02457e+07 0 
0 0 0 
-6.70293e+06 2.99797e+07 0 
2.99797e+07 1.86256e+07 0 
0 0 0 
1.35444e+07 2.57717e+07 0 
2.57717e+07 2.36145e+07 0 
0 0 0 
5.60301e+07 3.12638e+07 0 
3.12638e+07 1.30684e+08 0 
0 0 0 
6.69984e+07 2.351e+07 0 
2.351e+07 1.61287e+08 0 
0 0 0 
8.06466e+07 1.96594e+07 0 
1.96594e+07 1.54216e+08 0 
0 0 0 
5.21715e+07 1.40149e+07 0 
1.40149e+07 2.24319e+07 0 
0 0 0 
9.66576e+07 2.8787e+07 0 
2.8787e+07 1.5286e+08 0 
0 0 0 
1.14186e+08 3.37428e+07 0 
3.37428e+07 2.06724e+08 0 
0 0 0 
8.42983e+07 2.97789e+07 0 
2.97789e+07 1.39752e+08 0 
0 0 0 
6.46903e+07 5.9755e+06 0 
5.9755e+06 8.25265e+07 0 
0 0 0 
6.55388e+07 2.24137e+07 0 
2.24137e+07 8.13905e+07 0 
0 0 0 
4.67177e+07 1.77832e+07 0 
1.77832e+07 7.8592e+07 0 
0 0 0 
6.05351e+07 2.05773e+07 0 
2.05773e+07 7.05332e+07 0 
0 0 0 
2.87577e+07 -2.75491e+06 0 
-2.75491e+06 -1.70751e+07 0 
0 0 0 
2.43572e+07 -2.11821e+06 0 
-2.11821e+06 6.6048e+06 0 
0 0 0 
3.92572e+07 572283 0 
572283 2.82336e+07 0 
0 0 0 
4.8634e+07 -1.24737e+06 0 
-1.24737e+06 5.75065e+07 0 
0 0 0 
3.21736e+07 801114 0 
801114 -2.58503e+07 0 
0 0 0 
5.25792e+07 -6.41002e+06 0 
-6.41002e+06 4.02651e+06 0 
0 0 0 
1.53547e+07 -1.84299e+06 0 
-1.84299e+06 -5.03412e+07 0 
0 0 0 
1.07221e+07 -1.28172e+07 0 
-1.28172e+07 5.36006e+06 0 
0 0 0 
-3.04933e+07 -5.82718e+06 0 
-5.82718e+06 -7.92312e+07 0 
0 0 0 
-2.44877e+07 727078 0 
727078 -4.93096e+07 0 
0 0 0 
-1.22496e+07 1.46614e+06 0 
1.46614e+06 1.92554e+07 0 
0 0 0 
-2.25926e+07 -8.76304e+06 0 
-8.76304e+06 -6.04252e+06 0 
0 0 0 
-1.29876e+07 -5.30556e+06 0 
-5.30556e+06 -5.09723e+06 0 
0 0 0 
-1.62021e+07 3.22581e+06 0 
3.22581e+06 -1.58627e+07 0 
0 0 0 
-2.12563e+07 -4.38299e+06 0 
-4.38299e+06 -3.17933e+07 0 
0 0 0 
-1.94281e+07 5.82001e+06 0 
5.82001e+06 -1.26134e+07 0 
0 0 0 
-1.75542e+07 3.98571e+06 0 
3.98571e+06 1.58831e+07 0 
0 0 0 
-3.03926e+07 3.16355e+06 0 
3.16355e+06 -2.35807e+07 0 
0 0 0 
-4.59802e+07 -5.14786e+06 0 
-5.14786e+06 -5.65661e+07 0 
0 0 0 
-4.02067e+07 4.57021e+06 0 
4.57021e+06 -1.09496e+07 0 
0 0 0 
-1.21927e+07 1.05397e+07 0 
1.05397e+07 4.00634e+07 0 
0 0 0 
1.66231e+06 8.02459e+06 0 
8.02459e+06 3.77242e+07 0 
0 0 0 
3.2048e+06 6.5349e+06 0 
6.5349e+06 -1.90495e+07 0 
0 0 0 
1.91738e+07 -4.84661e+06 0 
-4.84661e+06 2.14188e+07 0 
0 0 0 
-8.5562e+06 100307 0 
100307 -3.54638e+06 0 
0 0 0 
7.1784e+06 -948234 0 
-948234 1.90449e+07 0 
0 0 0 
1.28795e+07 -2.09067e+06 0 
-2.09067e+06 1.94767e+07 0 
0 0 0 
-2.90591e+07 -2.49121e+06 0 
-2.49121e+06 -5.14316e+07 0 
0 0 0 
2.01612e+07 -1.53116e+07 0 
-1.53116e+07 7.34376e+07 0 
0 0 0 
5.69401e+06 -5.80921e+06 0 
-5.80921e+06 1.91575e+07 0 
0 0 0 
-1.8286e+07 3.96446e+06 0 
3.96446e+06 1.0151e+07 0 
0 0 0 
-5.64152e+07 8.68233e+06 0 
8.68233e+06 -5.53002e+07 0 
0 0 0 
-5.09934e+07 -3.89606e+06 0 
-3.89606e+06 -6.4304e+07 0 
0 0 0 
-7.57753e+06 -3.03215e+06 0 
-3.03215e+06 -2.76641e+07 0 
0 0 0 
-1.33928e+06 -5.86464e+06 0 
-5.86464e+06 4.19263e+07 0 
0 0 0 
-4.27783e+07 -1.47458e+06 0 
-1.47458e+06 -2.46748e+07 0 
0 0 0 
-2.27038e+07 1.05828e+07 0 
1.05828e+07 6.68056e+06 0 
0 0 0 
-3.10502e+07 2.1686e+06 0 
2.1686e+06 -3.29956e+07 0 
0 0 0 
0 0 0 
0 0 0 
0 0 0 
-1.3781e+07 8.32875e+06 0 
8.32875e+06 -7.56055e+06 0 
0 0 0 
2.33139e+07 2.091e+06 0 
2.091e+06 2.08074e+06 0 
0 0 0 
-2.43834e+06 -1.97173e+06 0 
-1.97173e+06 1.98705e+06 0 
0 0 0 
1.18457e+07 1.30528e+07 0 
1.30528e+07 -376290 0 
0 0 0 
-1.4444e+07 -3.33415e+06 0 
-3.33415e+06 -1.38512e+07 0 
0 0 0 
-1.09417e+07 1.27097e+07 0 
1.27097e+07 -2.34715e+07 0 
0 0 0 
-2.95989e+07 -1.67497e+06 0 
-1.67497e+06 -2.69088e+07 0 
0 0 0 
1.93827e+07 -661236 0 
-661236 1.30584e+07 0 
0 0 0 
-1.59006e+07 3.12028e+06 0 
3.12028e+06 9.82907e+06 0 
0 0 0 
4.85784e+07 3.91392e+06 0 
3.91392e+06 5.29597e+07 0 
0 0 0 
-2.02972e+07 1.82761e+07 0 
1.82761e+07 1.33396e+07 0 
0 0 0 
3.86544e+06 1.09481e+07 0 
1.09481e+07 2.47803e+06 0 
0 0 0 
-5.05707e+07 4.30282e+06 0 
4.30282e+06 -3.00163e+07 0 
0 0 0 
-9.92732e+06 -1.38365e+07 0 
-1.38365e+07 -2.05949e+07 0 
0 0 0 
-2.795e+07 -1.81569e+07 0 
-1.81569e+07 -1.54147e+07 0 
0 0 0 
4.6234e+07 -1.39063e+07 0 
-1.39063e+07 2.33348e+07 0 
0 0 0 
-6.57402e+06 -6.93357e+06 0 
-6.93357e+06 2.72508e+06 0 
0 0 0 
2.74366e+07 421504 0 
421504 2.67348e+07 0 
0 0 0 
-5.31336e+06 7.16116e+06 0 
7.16116e+06 3.01348e+07 0 
0 0 0 
3.00024e+07 -5.36077e+06 0 
-5.36077e+06 5.52934e+07 0 
0 0 0 
1.60999e+07 -1.11548e+07 0 
-1.11548e+07 5.26599e+07 0 
0 0 0 
2.34106e+07 -6.41932e+06 0 
-6.41932e+06 4.49715e+07 0 
0 0 0 
2.80152e+07 1.06683e+06 0 
1.06683e+06 3.68888e+07 0 
0 0 0 
-2.41475e+06 2.10132e+07 0 
2.10132e+07 -2.79937e+06 0 
0 0 0 
-2.47447e+07 2.29501e+07 0 
2.29501e+07 -1.2213e+07 0 
0 0 0 
1.15213e+07 2.32674e+07 0 
2.32674e+07 8.77354e+06 0 
0 0 0 
-4.08001e+07 2.88921e+06 0 
2.88921e+06 -1.50644e+07 0 
0 0 0 
1.63861e+07 -1.04784e+07 0 
-1.04784e+07 1.00947e+07 0 
0 0 0 
-2.82643e+07 -1.36921e+07 0 
-1.36921e+07 1.69562e+07 0 
0 0 0 
3.76608e+07 -5.75884e+06 0 
-5.75884e+06 4.19913e+07 0 
0 0 0 
-2.0159e+07 1.12299e+07 0 
1.12299e+07 3.30505e+07 0 
0 0 0 
1.35888e+07 1.27237e+06 0 
1.27237e+06 5.18907e+07 0 
0 0 0 
4.41303e+07 8.65664e+06 0 
8.65664e+06 5.89263e+07 0 
0 0 0 
1.538e+06 3.04107e+06 0 
3.04107e+06 4.67716e+07 0 
0 0 0 
5.45328e+07 -7.75112e+06 0 
-7.75112e+06 6.44078e+07 0 
0 0 0 
-2.2486e+06 -2.44345e+06 0 
-2.44345e+06 3.46928e+07 0 
0 0 0 
1.63398e+07 -4.93316e+06 0 
-4.93316e+06 2.72916e+07 0 
0 0 0 
-2.004e+07 7.39256e+06 0 
7.39256e+06 -1.08966e+07 0 
0 0 0 
-3.29097e+07 5.1665e+06 0 
5.1665e+06 -2.01379e+07 0 
0 0 0 
-3.07038e+07 3.96261e+06 0 
3.96261e+06 -1.88388e+07 0 
0 0 0 
1.22558e+07 550484 0 
550484 -1.07599e+07 0 
0 0 0 
4.23599e+06 -832368 0 
-832368 1.21379e+07 0 
0 0 0 
3.18617e+07 4.59457e+06 0 
4.59457e+06 3.73738e+07 0 
0 0 0 
3.37551e+07 9.66193e+06 0 
9.66193e+06 3.46425e+07 0 
0 0 0 
1.83536e+06 3.25813e+06 0 
3.25813e+06 4.59445e+07 0 
0 0 0 
3.19078e+07 855347 0 
855347 3.26702e+07 0 
0 0 0 
-2.08829e+07 1.75807e+06 0 
1.75807e+06 -6.32343e+06 0 
0 0 0 
1.92721e+07 2.31823e+06 0 
2.31823e+06 -3.12936e+06 0 
0 0 0 
-3.20382e+07 -4.42571e+06 0 
-4.42571e+06 -3.94175e+07 0 
0 0 0 
1.13796e+07 -1.49502e+07 0 
-1.49502e+07 -3.9418e+07 0 
0 0 0 
-4.47828e+07 -1.59554e+07 0 
-1.59554e+07 -4.18609e+07 0 
0 0 0 
8.63514e+06 -1.42211e+07 0 
-1.42211e+07 -9.93091e+06 0 
0 0 0 
-4.23627e+07 -4.42084e+06 0 
-4.42084e+06 -2.21917e+07 0 
0 0 0 
6.21877e+06 9.13596e+06 0 
9.13596e+06 9.10235e+06 0 
0 0 0 
3.35606e+06 1.31596e+07 0 
1.31596e+07 -709454 0 
0 0 0 
-1.46507e+07 7.87613e+06 0 
7.87613e+06 -4.35946e+06 0 
0 0 0 
1.98133e+07 -6.01725e+06 0 
-6.01725e+06 -2.4871e+06 0 
0 0 0 
698221 456504 0 
456504 -4.6909e+06 0 
0 0 0 
-6.51022e+06 271562 0 
271562 1.66e+07 0 
0 0 0 
-2.34576e+06 3.94733e+06 0 
3.94733e+06 1.87159e+07 0 
0 0 0 
1.84475e+06 -5.56561e+06 0 
-5.56561e+06 1.12133e+07 0 
0 0 0 
-7.11514e+06 664664 0 
664664 2.66253e+06 0 
0 0 0 
9.17762e+06 -4.88771e+06 0 
-4.88771e+06 5.64119e+06 0 
0 0 0 
-141316 -7.03527e+06 0 
-7.03527e+06 1.15958e+07 0 
0 0 0 
1.58284e+07 2.2459e+06 0 
2.2459e+06 3.50058e+07 0 
0 0 0 
2.30692e+07 -5.99568e+06 0 
-5.99568e+06 6.73478e+07 0 
0 0 0 
2.62004e+07 1.95945e+06 0 
1.95945e+06 7.03639e+07 0 
0 0 0 
2.407e+07 -7.28645e+06 0 
-7.28645e+06 6.94818e+07 0 
0 0 0 
-7.05064e+06 4.46132e+06 0 
4.46132e+06 5.34066e+07 0 
0 0 0 
3.21326e+07 1.25008e+07 0 
1.25008e+07 5.44043e+07 0 
0 0 0 
-7.46601e+06 1.03227e+07 0 
1.03227e+07 4.44845e+07 0 
0 0 0 
1.63247e+07 2.27866e+06 0 
2.27866e+06 4.77168e+07 0 
0 0 0 
1.20342e+07 6.03706e+06 0 
6.03706e+06 3.22717e+07 0 
0 0 0 
-2.64431e+07 -6.68458e+06 0 
-6.68458e+06 8.76715e+06 0 
0 0 0 
-3.844e+06 -1.64346e+07 0 
-1.64346e+07 9.69938e+06 0 
0 0 0 
-3.9632e+06 -2.64629e+06 0 
-2.64629e+06 -1.31294e+07 0 
0 0 0 
8.26826e+06 4.36087e+06 0 
4.36087e+06 -1.41185e+07 0 
0 0 0 
-953021 2.08903e+06 0 
2.08903e+06 1.16172e+06 0 
0 0 0 
3.68794e+07 3.03336e+06 0 
3.03336e+06 2.39283e+07 0 
0 0 0 
-3.06304e+07 -9.38207e+06 0 
-9.38207e+06 3.95645e+06 0 
0 0 0 
1.94334e+07 2.3792e+06 0 
2.3792e+06 1.82511e+07 0 
0 0 0 
-2.47933e+07 4.53148e+06 0 
4.53148e+06 -2.40323e+06 0 
0 0 0 
2.0501e+07 8.13115e+06 0 
8.13115e+06 4.36353e+06 0 
0 0 0 
-4.86213e+06 4.70541e+06 0 
4.70541e+06 4.23809e+06 0 
0 0 0 
5.55752e+07 4.64286e+06 0 
4.64286e+06 2.9902e+07 0 
0 0 0 
-3.87851e+07 8.57869e+06 0 
8.57869e+06 -1.7477e+07 0 
0 0 0 
-2.96354e+07 -2.45082e+06 0 
-2.45082e+06 -1.025e+07 0 
0 0 0 
0 0 0 
0 0 0 
0 0 0 
1.65352e+07 -1.58411e+07 0 
-1.58411e+07 9.12584e+07 0 
0 0 0 
-1.14231e+07 -1.4707e+07 0 
-1.4707e+07 7.22796e+06 0 
0 0 0 
-8.96433e+06 -5.06419e+06 0 
-5.06419e+06 6.8803e+06 0 
0 0 0 
2.54859e+07 3.93274e+06 0 
3.93274e+06 1.17418e+08 0 
0 0 0 
-1.64155e+07 -1.39239e+06 0 
-1.39239e+06 3.53508e+07 0 
0 0 0 
-6.57627e+07 918706 0 
918706 -5.30468e+07 0 
0 0 0 
-6.55561e+07 -3.18087e+07 0 
-3.18087e+07 -1.69052e+07 0 
0 0 0 
-5.13134e+07 -4.03374e+07 0 
-4.03374e+07 4.02746e+07 0 
0 0 0 
-6.02468e+07 -2.31191e+07 0 
-2.31191e+07 6.42247e+07 0 
0 0 0 
-1.00823e+08 -1.10037e+07 0 
-1.10037e+07 -3.58975e+07 0 
0 0 0 
-1.19156e+08 -1.75282e+07 0 
-1.75282e+07 -9.71162e+07 0 
0 0 0 
-1.00416e+08 -2.48512e+07 0 
-2.48512e+07 -4.59376e+07 0 
0 0 0 
-7.56031e+07 -2.56287e+07 0 
-2.56287e+07 8.57128e+06 0 
0 0 0 
-1.02959e+08 -7.44731e+06 0 
-7.44731e+06 -9.38774e+06 0 
0 0 0 
-1.14809e+08 -4.63042e+06 0 
-4.63042e+06 -6.99187e+07 0 
0 0 0 
-6.12266e+07 915660 0 
915660 2.37855e+07 0 
0 0 0 
-1.17683e+08 -2.12617e+07 0 
-2.12617e+07 -9.98405e+07 0 
0 0 0 
-1.1292e+08 -1.75933e+07 0 
-1.75933e+07 -3.75335e+07 0 
0 0 0 
-1.24877e+08 -2.74769e+07 0 
-2.74769e+07 -5.69473e+07 0 
0 0 0 
-1.42536e+08 -1.25533e+07 0 
-1.25533e+07 -1.16797e+08 0 
0 0 0 
-1.3552e+08 5.74667e+06 0 
5.74667e+06 -1.04483e+08 0 
0 0 0 
-1.04756e+08 1.70609e+07 0 
1.70609e+07 -3.80076e+07 0 
0 0 0 
-1.19797e+08 -3.4931e+06 0 
-3.4931e+06 -8.07664e+07 0 
0 0 0 
-1.07378e+08 -8.72029e+06 0 
-8.72029e+06 -7.28047e+07 0 
0 0 0 
-9.05429e+07 -3.11857e+06 0 
-3.11857e+06 -9.56626e+07 0 
0 0 0 
-8.64309e+07 9.46412e+06 0 
9.46412e+06 -8.16049e+07 0 
0 0 0 
-7.682e+07 1.66765e+07 0 
1.66765e+07 -8.63954e+07 0 
0 0 0 
-4.94542e+07 3.1066e+07 0 
3.1066e+07 -7.6484e+07 0 
0 0 0 
-4.25859e+07 2.85334e+07 0 
2.85334e+07 -7.17763e+07 0 
0 0 0 
-6.55579e+07 3.38002e+07 0 
3.38002e+07 -1.16004e+08 0 
0 0 0 
-4.39442e+07 1.25165e+07 0 
1.25165e+07 -5.75439e+07 0 
0 0 0 
-6.37242e+06 2.95793e+07 0 
2.95793e+07 -1.72941e+07 0 
0 0 0 
1.99288e+07 3.26761e+07 0 
3.26761e+07 3.40149e+06 0 
0 0 0 
-1.6314e+07 2.78439e+07 0 
2.78439e+07 -4.92364e+07 0 
0 0 0 
-1.42886e+07 2.37383e+07 0 
2.37383e+07 5.88613e+06 0 
0 0 0 
1.53625e+07 3.44192e+07 0 
3.44192e+07 5.04465e+07 0 
0 0 0 
7.9309e+07 3.86416e+07 0 
3.86416e+07 1.22248e+08 0 
0 0 0 
1.08498e+08 3.8385e+07 0 
3.8385e+07 1.68926e+08 0 
0 0 0 
1.00635e+08 1.84253e+07 0 
1.84253e+07 1.23367e+08 0 
0 0 0 
9.16487e+07 1.92842e+07 0 
1.92842e+07 7.61481e+07 0 
0 0 0 
1.30485e+08 3.18265e+07 0 
3.18265e+07 1.67258e+08 0 
0 0 0 
1.3721e+08 2.9725e+07 0 
2.9725e+07 2.00973e+08 0 
0 0 0 
1.15733e+08 1.65944e+07 0 
1.65944e+07 1.38295e+08 0 
0 0 0 
9.70716e+07 1.06383e+07 0 
1.06383e+07 8.55665e+07 0 
0 0 0 
7.96557e+07 2.2282e+07 0 
2.2282e+07 9.34085e+07 0 
0 0 0 
8.39658e+07 1.01875e+07 0 
1.01875e+07 9.33573e+07 0 
0 0 0 
3.74693e+07 5.91851e+06 0 
5.91851e+06 2.27671e+07 0 
0 0 0 
8.9559e+06 -1.34165e+07 0 
-1.34165e+07 -3.15759e+07 0 
0 0 0 
3.13551e+07 -6.82212e+06 0 
-6.82212e+06 2.77351e+07 0 
0 0 0 
1.89257e+07 2.22301e+06 0 
2.22301e+06 2.85492e+07 0 
0 0 0 
3.2185e+07 259781 0 
259781 3.98824e+07 0 
0 0 0 
-1.75511e+07 -2.20827e+06 0 
-2.20827e+06 -5.00118e+07 0 
0 0 0 
-2.86495e+07 -8.31757e+06 0 
-8.31757e+06 -1.20633e+07 0 
0 0 0 
-5.6265e+07 -1.38296e+07 0 
-1.38296e+07 -9.25906e+07 0 
0 0 0 
-2.07879e+07 -1.58035e+07 0 
-1.58035e+07 -2.29049e+06 0 
0 0 0 
-4.33864e+07 -7.36894e+06 0 
-7.36894e+06 -6.9026e+07 0 
0 0 0 
-3.37201e+07 3.7862e+06 0 
3.7862e+06 -3.36985e+07 0 
0 0 0 
696039 4.16441e+06 0 
4.16441e+06 -6.34036e+06 0 
0 0 0 
3.61163e+07 -1.64819e+06 0 
-1.64819e+06 2.56954e+07 0 
0 0 0 
5.53149e+07 682315 0 
682315 2.29084e+07 0 
0 0 0 
6.24265e+07 3.26895e+06 0 
3.26895e+06 2.31828e+06 0 
0 0 0 
5.36799e+07 -9.52306e+06 0 
-9.52306e+06 -1.23276e+07 0 
0 0 0 
3.68528e+07 166897 0 
166897 2.70482e+07 0 
0 0 0 
1.89133e+07 7.28909e+06 0 
7.28909e+06 2.29335e+07 0 
0 0 0 
1.53481e+06 1.41419e+06 0 
1.41419e+06 -2.76479e+07 0 
0 0 0 
3.66988e+06 4.08613e+06 0 
4.08613e+06 -2.4474e+07 0 
0 0 0 
3.33775e+07 1.1852e+07 0 
1.1852e+07 2.71323e+07 0 
0 0 0 
3.09436e+07 9.51952e+06 0 
9.51952e+06 3.76869e+07 0 
0 0 0 
1.40494e+07 -1.59932e+06 0 
-1.59932e+06 2.79736e+07 0 
0 0 0 
-2.42216e+07 4.73343e+06 0 
4.73343e+06 -2.86122e+07 0 
0 0 0 
-1.25411e+07 -8.88327e+06 0 
-8.88327e+06 1.66157e+07 0 
0 0 0 
8.36267e+06 972752 0 
972752 4.40791e+06 0 
0 0 0 
8.06352e+06 957760 0 
957760 2.20245e+07 0 
0 0 0 
-6.48253e+06 678033 0 
678033 -1.65127e+06 0 
0 0 0 
-1.32089e+07 -4.99549e+06 0 
-4.99549e+06 -4.01835e+07 0 
0 0 0 
1.26396e+07 -5.39329e+06 0 
-5.39329e+06 4.94341e+07 0 
0 0 0 
1.578e+07 -9.65722e+06 0 
-9.65722e+06 3.03361e+07 0 
0 0 0 
2.67006e+07 -1.30997e+07 0 
-1.30997e+07 4.46014e+07 0 
0 0 0 
6.64307e+06 8.38708e+06 0 
8.38708e+06 -3.09618e+07 0 
0 0 0 
-800902 1.30944e+07 0 
1.30944e+07 -5.65096e+07 0 
0 0 0 
5.2972e+06 4.24957e+06 0 
4.24957e+06 -2.44554e+07 0 
0 0 0 
4.1754e+07 -8.86623e+06 0 
-8.86623e+06 5.05619e+07 0 
0 0 0 
2.14894e+07 -4.01343e+06 0 
-4.01343e+06 247060 0 
0 0 0 
1.40301e+07 1.3134e+07 0 
1.3134e+07 4.4528e+07 0 
0 0 0 
-2.09649e+07 -3.92785e+06 0 
-3.92785e+06 -4.20355e+07 0 
0 0 0 
2.42638e+06 -3.19446e+06 0 
-3.19446e+06 -1.55814e+07 0 
0 0 0 
0 0 0 
0 0 0 
0 0 0 
-3.97873e+06 3.00853e+06 0 
3.00853e+06 -1.04801e+06 0 
0 0 0 
1.05544e+07 -4.13251e+06 0 
-4.13251e+06 -5.49176e+06 0 
0 0 0 
7.33793e+06 -4.34529e+06 0 
-4.34529e+06 1.25318e+06 0 
0 0 0 
1.21491e+07 -5.81966e+06 0 
-5.81966e+06 1.6379e+07 0 
0 0 0 
-1.33295e+07 -4.43498e+06 0 
-4.43498e+06 -7.1344e+06 0 
0 0 0 
-2.76541e+06 793670 0 
793670 -3.21778e+06 0 
0 0 0 
-3.18184e+07 132174 0 
132174 -1.50475e+07 0 
0 0 0 
1.4579e+07 568881 0 
568881 -4.17286e+06 0 
0 0 0 
-2.40837e+07 3.30331e+06 0 
3.30331e+06 -1.30806e+07 0 
0 0 0 
3.0552e+07 -2.05839e+06 0 
-2.05839e+06 -9.80149e+06 0 
0 0 0 
-2.26965e+07 -2.51179e+06 0 
-2.51179e+06 -3.2588e+07 0 
0 0 0 
-2.06962e+07 -3.05888e+06 0 
-3.05888e+06 -4.92927e+07 0 
0 0 0 
-5.93486e+07 1.41454e+06 0 
1.41454e+06 -6.23269e+07 0 
0 0 0 
-3.11113e+07 -1.62393e+06 0 
-1.62393e+06 -5.1317e+07 0 
0 0 0 
-2.88043e+07 -2.60013e+06 0 
-2.60013e+06 -3.83623e+07 0 
0 0 0 
2.67531e+07 -1.21169e+06 0 
-1.21169e+06 -7.25949e+06 0 
0 0 0 
8.1531e+06 -1.95072e+06 0 
-1.95072e+06 779171 0 
0 0 0 
1.67476e+07 5.46373e+06 0 
5.46373e+06 -3.15472e+06 0 
0 0 0 
-2.12272e+07 4.94358e+06 0 
4.94358e+06 -2.40349e+07 0 
0 0 0 
6.67631e+06 3.6201e+06 0 
3.6201e+06 -2.76268e+06 0 
0 0 0 
-1.20931e+07 -9.89776e+06 0 
-9.89776e+06 3.78411e+06 0 
0 0 0 
3.50424e+07 734314 0 
734314 3.23487e+07 0 
0 0 0 
1.85952e+07 -6.96187e+06 0 
-6.96187e+06 2.68211e+07 0 
0 0 0 
2.48021e+07 1.09892e+06 0 
1.09892e+06 1.44174e+07 0 
0 0 0 
-2.885e+07 1.78144e+07 0 
1.78144e+07 -2.5299e+07 0 
0 0 0 
-9.96035e+06 1.73143e+07 0 
1.73143e+07 -4.47486e+07 0 
0 0 0 
-8.14646e+07 5.68497e+06 0 
5.68497e+06 -7.19636e+07 0 
0 0 0 
-8.86351e+06 -6.27395e+06 0 
-6.27395e+06 -4.26175e+07 0 
0 0 0 
-3.98002e+07 699214 0 
699214 -5.6564e+07 0 
0 0 0 
1.99184e+07 -6.94389e+06 0 
-6.94389e+06 -1.47964e+07 0 
0 0 0 
-2.96644e+07 329586 0 
329586 -3.26748e+07 0 
0 0 0 
-8.95382e+06 1.29895e+07 0 
1.29895e+07 -2.10587e+07 0 
0 0 0 
1.61852e+07 1.11449e+06 0 
1.11449e+06 -1.06622e+07 0 
0 0 0 
-2.4644e+07 1.12126e+07 0 
1.12126e+07 -1.63232e+07 0 
0 0 0 
3.72138e+07 -358913 0 
-358913 2.07923e+07 0 
0 0 0 
-2.59543e+07 -3.8313e+06 0 
-3.8313e+06 -6.51603e+06 0 
0 0 0 
2.15939e+07 -9.99519e+06 0 
-9.99519e+06 1.01594e+07 0 
0 0 0 
-3.95449e+07 -1.12129e+07 0 
-1.12129e+07 -2.40522e+07 0 
0 0 0 
-2.35198e+07 2.26057e+06 0 
2.26057e+06 -3.9577e+07 0 
0 0 0 
-2.58589e+07 6.47921e+06 0 
6.47921e+06 -4.0239e+07 0 
0 0 0 
-1.07985e+06 1.23053e+07 0 
1.23053e+07 -1.94997e+07 0 
0 0 0 
5.52971e+06 9.60174e+06 0 
9.60174e+06 -1.20186e+07 0 
0 0 0 
4.1685e+06 6.98697e+06 0 
6.98697e+06 -1.54921e+07 0 
0 0 0 
9.68872e+06 543356 0 
543356 -1.66085e+07 0 
0 0 0 
-3.15178e+07 -3.32148e+06 0 
-3.32148e+06 -5.01477e+07 0 
0 0 0 
5.29528e+06 -1.06069e+07 0 
-1.06069e+07 -3.23403e+07 0 
0 0 0 
-3.30464e+07 -1.57952e+07 0 
-1.57952e+07 -5.54219e+07 0 
0 0 0 
1.59657e+07 -1.05611e+06 0 
-1.05611e+06 -3.48856e+07 0 
0 0 0 
-5.48723e+07 -5.14121e+06 0 
-5.14121e+06 -5.5905e+07 0 
0 0 0 
-1.51903e+06 -1.26132e+07 0 
-1.26132e+07 -4.498e+07 0 
0 0 0 
-2.82218e+07 -436790 0 
-436790 -4.3197e+07 0 
0 0 0 
1.26335e+07 -5.23262e+06 0 
-5.23262e+06 -1.5499e+07 0 
0 0 0 
-1.61165e+07 9.93239e+06 0 
9.93239e+06 490104 0 
0 0 0 
3.04234e+07 1.91031e+07 0 
1.91031e+07 4.45822e+07 0 
0 0 0 
7.96382e+06 8.51028e+06 0 
8.51028e+06 5.0628e+07 0 
0 0 0 
1.60155e+06 1.25048e+07 0 
1.25048e+07 3.86506e+07 0 
0 0 0 
2.11429e+07 4.98704e+06 0 
4.98704e+06 4.75711e+07 0 
0 0 0 
2.20571e+07 1.89631e+06 0 
1.89631e+06 3.93232e+07 0 
0 0 0 
1.32759e+06 4.28817e+06 0 
4.28817e+06 2.40791e+07 0 
0 0 0 
-8.67389e+06 2.75816e+06 0 
2.75816e+06 2.4565e+07 0 
0 0 0 
-6.92132e+06 -3.66651e+06 0 
-3.66651e+06 2.96155e+07 0 
0 0 0 
8.76917e+06 -724652 0 
-724652 3.49987e+07 0 
0 0 0 
9.74992e+06 -6.33459e+06 0 
-6.33459e+06 1.60367e+07 0 
0 0 0 
2.38889e+07 5.00381e+06 0 
5.00381e+06 2.10585e+07 0 
0 0 0 
-1.08232e+07 1.97082e+06 0 
1.97082e+06 4.21119e+06 0 
0 0 0 
8.86004e+06 1.18749e+07 0 
1.18749e+07 1.39801e+06 0 
0 0 0 
-2.91518e+06 -8.03056e+06 0 
-8.03056e+06 1.57809e+07 0 
0 0 0 
8.00298e+06 -1.86263e+06 0 
-1.86263e+06 1.99587e+07 0 
0 0 0 
8.31449e+06 -6.33295e+06 0 
-6.33295e+06 2.22365e+07 0 
0 0 0 
5.74231e+06 172828 0 
172828 1.87848e+07 0 
0 0 0 
-1.46923e+07 -2.73909e+06 0 
-2.73909e+06 -1.86949e+07 0 
0 0 0 
-1.78379e+07 3.73985e+06 0 
3.73985e+06 -3.82839e+07 0 
0 0 0 
-2.27272e+07 -6.16492e+06 0 
-6.16492e+06 -3.8779e+07 0 
0 0 0 
-4.51901e+07 1.50582e+06 0 
1.50582e+06 -4.29427e+07 0 
0 0 0 
2.33375e+06 4.11061e+06 0 
4.11061e+06 1.02358e+06 0 
0 0 0 
7.86904e+06 3.99165e+06 0 
3.99165e+06 2.16459e+07 0 
0 0 0 
3.10541e+07 1.00277e+07 0 
1.00277e+07 3.35091e+07 0 
0 0 0 
1.03806e+07 1.06929e+07 0 
1.06929e+07 4.0553e+07 0 
0 0 0 
2.96413e+07 3.95538e+06 0 
3.95538e+06 4.72519e+07 0 
0 0 0 
-6.84808e+06 7.38446e+06 0 
7.38446e+06 3.8019e+07 0 
0 0 0 
3.47434e+07 5.96234e+06 0 
5.96234e+06 6.21607e+07 0 
0 0 0 
524784 1.08068e+07 0 
1.08068e+07 5.55217e+07 0 
0 0 0 
3.1719e+07 5.3031e+06 0 
5.3031e+06 5.96569e+07 0 
0 0 0 
1.3605e+07 6.12472e+06 0 
6.12472e+06 4.74443e+07 0 
0 0 0 
2.23837e+07 -7.75102e+06 0 
-7.75102e+06 4.22445e+07 0 
0 0 0 
9.0173e+06 -8.36748e+06 0 
-8.36748e+06 2.64118e+07 0 
0 0 0 
1.44677e+07 1.31169e+06 0 
1.31169e+06 4.80316e+06 0 
0 0 0 
1.16434e+07 -9.20211e+06 0 
-9.20211e+06 2.36665e+07 0 
0 0 0 
0 0 0 
0 0 0 
0 0 0 
3.06804e+07 -1.29715e+07 0 
-1.29715e+07 6.42093e+07 0 
0 0 0 
5.20751e+06 -1.32308e+07 0 
-1.32308e+07 2.48345e+07 0 
0 0 0 
3.8367e+06 -7.06833e+06 0 
-7.06833e+06 2.96091e+07 0 
0 0 0 
3.32136e+07 -6.57058e+06 0 
-6.57058e+06 1.20418e+08 0 
0 0 0 
-1.93356e+07 -1.82068e+07 0 
-1.82068e+07 1.11749e+07 0 
0 0 0 
-5.73738e+07 -2.33263e+07 0 
-2.33263e+07 -4.05912e+07 0 
0 0 0 
-6.29431e+07 -2.59918e+07 0 
-2.59918e+07 -6.79435e+07 0 
0 0 0 
1.04659e+07 -2.98e+07 0 
-2.98e+07 8.67329e+07 0 
0 0 0 
1.99573e+07 -3.69576e+07 0 
-3.69576e+07 8.11706e+07 0 
0 0 0 
-9.13027e+06 -2.66443e+07 0 
-2.66443e+07 2.05781e+07 0 
0 0 0 
-4.73986e+07 -1.55475e+07 0 
-1.55475e+07 -7.99834e+07 0 
0 0 0 
-6.11034e+06 -5.95027e+06 0 
-5.95027e+06 -2.71218e+07 0 
0 0 0 
1.51899e+07 -4.12222e+07 0 
-4.12222e+07 2.65078e+07 0 
0 0 0 
2.27168e+07 -3.03511e+07 0 
-3.03511e+07 5.4945e+07 0 
0 0 0 
-3.26152e+07 -2.03287e+07 0 
-2.03287e+07 -3.79655e+07 0 
0 0 0 
-3.17579e+07 -1.50192e+07 0 
-1.50192e+07 2.23489e+07 0 
0 0 0 
-4.74653e+07 -3.77308e+07 0 
-3.77308e+07 -8.27156e+07 0 
0 0 0 
-1.56074e+07 -1.42545e+07 0 
-1.42545e+07 -169958 0 
0 0 0 
-1.01776e+07 -1.97146e+07 0 
-1.97146e+07 -2.78245e+07 0 
0 0 0 
-5.67921e+06 -1.21889e+07 0 
-1.21889e+07 -4.29584e+07 0 
0 0 0 
-3.11342e+07 1.2877e+06 0 
1.2877e+06 -5.73882e+07 0 
0 0 0 
-3.60519e+07 1.45523e+07 0 
1.45523e+07 -3.33783e+07 0 
0 0 0 
-3.4805e+07 -9.96242e+06 0 
-9.96242e+06 -5.66546e+07 0 
0 0 0 
-2.07498e+07 8.48799e+06 0 
8.48799e+06 -4.11392e+07 0 
0 0 0 
-7.3729e+07 -3.97401e+06 0 
-3.97401e+06 -9.62652e+07 0 
0 0 0 
-6.49935e+07 4.6153e+06 0 
4.6153e+06 -5.27614e+07 0 
0 0 0 
-8.68814e+07 8.70854e+06 0 
8.70854e+06 -7.97436e+07 0 
0 0 0 
-1.24006e+08 3.17399e+07 0 
3.17399e+07 -8.74144e+07 0 
0 0 0 
-1.12687e+08 3.55315e+07 0 
3.55315e+07 -1.04487e+08 0 
0 0 0 
-1.1202e+08 2.70467e+07 0 
2.70467e+07 -1.40625e+08 0 
0 0 0 
-6.77272e+07 2.73582e+07 0 
2.73582e+07 -7.22308e+07 0 
0 0 0 
-3.0638e+07 2.4779e+07 0 
2.4779e+07 -1.78118e+07 0 
0 0 0 
-3.87566e+07 2.73025e+07 0 
2.73025e+07 -1.42864e+07 0 
0 0 0 
-3.33409e+07 3.881e+07 0 
3.881e+07 -6.45637e+07 0 
0 0 0 
3.16541e+07 3.77744e+07 0 
3.77744e+07 1.40016e+07 0 
0 0 0 
8.88169e+07 5.81361e+07 0 
5.81361e+07 1.03406e+08 0 
0 0 0 
1.00788e+08 5.26052e+07 0 
5.26052e+07 1.21749e+08 0 
0 0 0 
9.65021e+07 2.8291e+07 0 
2.8291e+07 1.39543e+08 0 
0 0 0 
6.36094e+07 3.49997e+07 0 
3.49997e+07 9.01665e+07 0 
0 0 0 
7.57584e+07 2.98698e+07 0 
2.98698e+07 1.01611e+08 0 
0 0 0 
1.14502e+08 4.3938e+07 0 
4.3938e+07 1.62466e+08 0 
0 0 0 
1.345e+08 2.73505e+07 0 
2.73505e+07 1.66069e+08 0 
0 0 0 
1.02479e+08 1.41454e+07 0 
1.41454e+07 1.11014e+08 0 
0 0 0 
7.61678e+07 -8.11292e+06 0 
-8.11292e+06 8.71661e+07 0 
0 0 0 
8.65864e+07 1.17064e+07 0 
1.17064e+07 1.02356e+08 0 
0 0 0 
6.3522e+07 1.13751e+07 0 
1.13751e+07 8.55071e+07 0 
0 0 0 
4.17241e+07 1.27474e+07 0 
1.27474e+07 -7.72593e+06 0 
0 0 0 
2.9396e+07 -4.42064e+06 0 
-4.42064e+06 -2.51692e+07 0 
0 0 0 
2.74843e+07 -6.75607e+06 0 
-6.75607e+06 2.79322e+07 0 
0 0 0 
3.99631e+07 -7.72264e+06 0 
-7.72264e+06 3.34731e+07 0 
0 0 0 
1.28719e+07 -1.32714e+07 0 
-1.32714e+07 4.14856e+07 0 
0 0 0 
-3.71378e+07 -8.59297e+06 0 
-8.59297e+06 -6.58028e+07 0 
0 0 0 
-2.46515e+07 -1.93338e+07 0 
-1.93338e+07 -2.55615e+07 0 
0 0 0 
-4.40709e+07 -1.53402e+07 0 
-1.53402e+07 -7.86304e+07 0 
0 0 0 
-1.85883e+07 -8.74413e+06 0 
-8.74413e+06 4.00631e+06 0 
0 0 0 
-2.60809e+07 -2.50353e+06 0 
-2.50353e+06 -4.54652e+07 0 
0 0 0 
3.80875e+06 1.07743e+07 0 
1.07743e+07 -1.35489e+07 0 
0 0 0 
-2.33653e+07 4.02701e+06 0 
4.02701e+06 -3.90579e+07 0 
0 0 0 
-9.63663e+06 9.81334e+06 0 
9.81334e+06 2.93039e+07 0 
0 0 0 
-1.33616e+07 3.6925e+06 0 
3.6925e+06 -1.94245e+07 0 
0 0 0 
-1.00542e+07 445800 0 
445800 -7.527e+06 0 
0 0 0 
-3.99717e+07 -4.747e+06 0 
-4.747e+06 -3.61605e+07 0 
0 0 0 
-1.33863e+07 -116813 0 
-116813 -3.08459e+06 0 
0 0 0 
9.87491e+06 -7.37432e+06 0 
-7.37432e+06 1.85409e+07 0 
0 0 0 
-2.10845e+07 -442700 0 
-442700 -2.20307e+07 0 
0 0 0 
-2.99793e+07 5.65458e+06 0 
5.65458e+06 -3.03298e+07 0 
0 0 0 
-3.35197e+07 1.24396e+06 0 
1.24396e+06 755616 0 
0 0 0 
-3.90215e+07 5.14128e+06 0 
5.14128e+06 1.43715e+07 0 
0 0 0 
-4.17769e+07 9.2254e+06 0 
9.2254e+06 -9.85941e+06 0 
0 0 0 
-4.38841e+07 3.46529e+06 0 
3.46529e+06 -2.93053e+07 0 
0 0 0 
-2.30383e+07 2.62554e+06 0 
2.62554e+06 8.68804e+06 0 
0 0 0 
-2.33934e+07 2.16229e+06 0 
2.16229e+06 -6.72959e+06 0 
0 0 0 
-3.23034e+06 -9.18835e+06 0 
-9.18835e+06 2.23091e+07 0 
0 0 0 
-3.1627e+06 4.54919e+06 0 
4.54919e+06 6.12488e+06 0 
0 0 0 
-2.13042e+07 11820.4 0 
11820.4 -4.69461e+07 0 
0 0 0 
1.23841e+07 -2.41107e+06 0 
-2.41107e+06 2.63478e+07 0 
0 0 0 
1.61315e+07 -5.58231e+06 0 
-5.58231e+06 3.07117e+07 0 
0 0 0 
2.05282e+07 -6.89189e+06 0 
-6.89189e+06 5.04466e+07 0 
0 0 0 
-9.88974e+06 2.28211e+06 0 
2.28211e+06 -1.45528e+07 0 
0 0 0 
-4.20031e+07 2.27009e+06 0 
2.27009e+06 -7.10432e+07 0 
0 0 0 
-4.15946e+07 5.74065e+06 0 
5.74065e+06 -5.63198e+07 0 
0 0 0 
-4.9022e+06 -9.49704e+06 0 
-9.49704e+06 2.85137e+07 0 
0 0 0 
-1.18574e+07 -9.74634e+06 0 
-9.74634e+06 5.32608e+06 0 
0 0 0 
-2.41627e+07 -4.59105e+06 0 
-4.59105e+06 3.19489e+07 0 
0 0 0 
-4.72416e+07 6.18193e+06 0 
6.18193e+06 -3.92508e+07 0 
0 0 0 
-4.7817e+07 1.01858e+07 0 
1.01858e+07 -4.87895e+07 0 
0 0 0 
-3.67438e+07 6.26369e+06 0 
6.26369e+06 -1.05683e+07 0 
0 0 0 
0 0 0 
0 0 0 
0 0 0 
2.11543e+06 7.17334e+06 0 
7.17334e+06 2.12189e+06 0 
0 0 0 
2.5303e+06 -3.88895e+06 0 
-3.88895e+06 1.46984e+07 0 
0 0 0 
7.96187e+06 340350 0 
340350 2.11212e+07 0 
0 0 0 
1.25704e+07 -1.31241e+07 0 
-1.31241e+07 4.9286e+06 0 
0 0 0 
624725 -6.03932e+06 0 
-6.03932e+06 1.38289e+07 0 
0 0 0 
8.90762e+06 1.24037e+06 0 
1.24037e+06 1.17335e+07 0 
0 0 0 
-1.19936e+07 1.48755e+07 0 
1.48755e+07 5.79586e+06 0 
0 0 0 
1.22708e+07 1.23235e+07 0 
1.23235e+07 3.47647e+07 0 
0 0 0 
-1.22107e+06 1.01391e+07 0 
1.01391e+07 2.58113e+07 0 
0 0 0 
2.24542e+07 3.70665e+06 0 
3.70665e+06 3.86898e+07 0 
0 0 0 
599192 -1.09792e+07 0 
-1.09792e+07 3.4518e+06 0 
0 0 0 
-1.929e+07 -7.61501e+06 0 
-7.61501e+06 -2.48725e+07 0 
0 0 0 
-3.17598e+07 -1.05871e+06 0 
-1.05871e+06 -4.80849e+07 0 
0 0 0 
-4.24894e+07 -3.20648e+06 0 
-3.20648e+06 -5.02255e+07 0 
0 0 0 
4.07264e+06 1.06415e+07 0 
1.06415e+07 -1.72509e+07 0 
0 0 0 
-2.23671e+06 5.37914e+06 0 
5.37914e+06 2.34579e+06 0 
0 0 0 
3.25805e+07 2.05637e+06 0 
2.05637e+06 2.23236e+07 0 
0 0 0 
1.75983e+07 -635172 0 
-635172 2.416e+07 0 
0 0 0 
-1.73213e+07 -293650 0 
-293650 -5.16501e+06 0 
0 0 0 
-5.82412e+06 -1.61815e+06 0 
-1.61815e+06 -3.18728e+07 0 
0 0 0 
-2.60497e+07 -3.58987e+06 0 
-3.58987e+06 -2.435e+07 0 
0 0 0 
3.81965e+07 -3.04356e+06 0 
-3.04356e+06 1.32964e+07 0 
0 0 0 
-3.61924e+06 -8.09906e+06 0 
-8.09906e+06 1.53054e+07 0 
0 0 0 
6.11132e+07 -1.59838e+06 0 
-1.59838e+06 6.33292e+07 0 
0 0 0 
-5.57759e+06 1.02735e+06 0 
1.02735e+06 3.31253e+07 0 
0 0 0 
-2.00109e+06 -5.53519e+06 0 
-5.53519e+06 5.35526e+06 0 
0 0 0 
-7.64088e+07 -1.63439e+06 0 
-1.63439e+06 -4.2051e+07 0 
0 0 0 
2.14458e+07 2.20633e+06 0 
2.20633e+06 -1.09862e+07 0 
0 0 0 
-4.89404e+07 55725.6 0 
55725.6 -2.35709e+07 0 
0 0 0 
4.77555e+07 1.17532e+07 0 
1.17532e+07 2.15297e+07 0 
0 0 0 
-7.95816e+06 8.62673e+06 0 
8.62673e+06 2.68397e+07 0 
0 0 0 
1.52463e+07 9.79674e+06 0 
9.79674e+06 2.21119e+07 0 
0 0 0 
1.48381e+07 5.03334e+06 0 
5.03334e+06 2.39738e+07 0 
0 0 0 
-2.03613e+07 1.03478e+07 0 
1.03478e+07 -3.72014e+06 0 
0 0 0 
2.95691e+07 -4.26263e+06 0 
-4.26263e+06 -9.09953e+06 0 
0 0 0 
-5.90839e+07 -3.22349e+06 0 
-3.22349e+06 -2.23045e+07 0 
0 0 0 
2.0899e+07 -1.82494e+07 0 
-1.82494e+07 2.57116e+06 0 
0 0 0 
-3.31349e+07 -1.23109e+07 0 
-1.23109e+07 -4.18589e+06 0 
0 0 0 
8.99212e+06 -1.33991e+06 0 
-1.33991e+06 1.14797e+07 0 
0 0 0 
4.92031e+06 6.31697e+06 0 
6.31697e+06 5.6952e+06 0 
0 0 0 
5.60645e+06 7.31607e+06 0 
7.31607e+06 1.6184e+06 0 
0 0 0 
8.53839e+06 1.0666e+07 0 
1.0666e+07 -1.16342e+07 0 
0 0 0 
-1.21593e+07 3.92524e+06 0 
3.92524e+06 -1.7591e+07 0 
0 0 0 
-8.0667e+06 -2.21154e+06 0 
-2.21154e+06 -3.48903e+07 0 
0 0 0 
-2.77816e+07 1.21464e+06 0 
1.21464e+06 -4.4445e+07 0 
0 0 0 
5.34149e+06 -5.22944e+06 0 
-5.22944e+06 -3.69665e+07 0 
0 0 0 
-2.80956e+07 211252 0 
211252 -2.85648e+07 0 
0 0 0 
3.06358e+07 -1.45832e+06 0 
-1.45832e+06 -1.59994e+07 0 
0 0 0 
-3.92329e+07 -511166 0 
-511166 -4.02903e+07 0 
0 0 0 
-3.73108e+06 6.6787e+06 0 
6.6787e+06 -105987 0 
0 0 0 
-1.07186e+07 -517323 0 
-517323 -1.41253e+07 0 
0 0 0 
8.84404e+06 -544056 0 
-544056 -9.02048e+06 0 
0 0 0 
4.85326e+06 5.56213e+06 0 
5.56213e+06 -1.29433e+07 0 
0 0 0 
-2.29273e+06 1.26438e+07 0 
1.26438e+07 -4.9425e+07 0 
0 0 0 
-2.22118e+07 1.21859e+07 0 
1.21859e+07 -6.35489e+07 0 
0 0 0 
-3.23429e+07 1.00101e+07 0 
1.00101e+07 -6.71666e+07 0 
0 0 0 
-4.13724e+07 691871 0 
691871 -7.39911e+07 0 
0 0 0 
-1.08887e+07 -2.88639e+06 0 
-2.88639e+06 -4.58972e+07 0 
0 0 0 
-2.24209e+07 -5.561e+06 0 
-5.561e+06 -5.07639e+07 0 
0 0 0 
-2.90115e+07 -974413 0 
-974413 -5.30011e+07 0 
0 0 0 
-3.55126e+07 1.37645e+06 0 
1.37645e+06 -4.63033e+07 0 
0 0 0 
-2.54652e+07 -2.48451e+06 0 
-2.48451e+06 -4.856e+07 0 
0 0 0 
7.11286e+06 -1.64512e+06 0 
-1.64512e+06 -1.54232e+07 0 
0 0 0 
1.12024e+07 -4.5281e+06 0 
-4.5281e+06 -1.56563e+07 0 
0 0 0 
-4.5751e+06 5.85771e+06 0 
5.85771e+06 -1.63235e+07 0 
0 0 0 
403028 1.04473e+07 0 
1.04473e+07 589925 0 
0 0 0 
-1.97085e+07 5.74802e+06 0 
5.74802e+06 -2.153e+07 0 
0 0 0 
-8.04391e+06 -254406 0 
-254406 -1.33673e+07 0 
0 0 0 
4.02967e+06 -1.24021e+06 0 
-1.24021e+06 -2.70155e+06 0 
0 0 0 
-1.00003e+07 -6.27998e+06 0 
-6.27998e+06 -1.46279e+07 0 
0 0 0 
-1.42408e+07 -1.29276e+07 0 
-1.29276e+07 -1.14684e+07 0 
0 0 0 
-2.91331e+06 -1.46408e+07 0 
-1.46408e+07 -2.19025e+06 0 
0 0 0 
-2.2979e+07 -8.59223e+06 0 
-8.59223e+06 -1.66516e+07 0 
0 0 0 
-2.34489e+07 -8.25665e+06 0 
-8.25665e+06 -2.38006e+07 0 
0 0 0 
8.1831e+06 3.18567e+06 0 
3.18567e+06 -2.79981e+07 0 
0 0 0 
-1.30162e+07 3.18135e+06 0 
3.18135e+06 -1.79866e+07 0 
0 0 0 
1.33733e+07 6.4645e+06 0 
6.4645e+06 -7.23402e+06 0 
0 0 0 
-6.57362e+06 7.62246e+06 0 
7.62246e+06 -3.26528e+07 0 
0 0 0 
2.4513e+06 6.62406e+06 0 
6.62406e+06 -2.8906e+07 0 
0 0 0 
-3.84144e+07 3.49757e+06 0 
3.49757e+06 -3.48057e+07 0 
0 0 0 
1.1421e+07 -3.89007e+06 0 
-3.89007e+06 -2.38083e+07 0 
0 0 0 
-2.18949e+07 7.6018e+06 0 
7.6018e+06 -4.18907e+07 0 
0 0 0 
-1.82237e+06 1.2793e+06 0 
1.2793e+06 -3.64329e+07 0 
0 0 0 
-2.72896e+07 1.40803e+07 0 
1.40803e+07 -4.40971e+07 0 
0 0 0 
-1.34336e+07 338593 0 
338593 -2.44647e+07 0 
0 0 0 
-3.84578e+06 475626 0 
475626 -1.75593e+06 0 
0 0 0 
1.11376e+07 -2.65992e+06 0 
-2.65992e+06 2.27132e+07 0 
0 0 0 
101207 2.75934e+06 0 
2.75934e+06 2.62181e+07 0 
0 0 0 
1.14289e+07 1.15092e+06 0 
1.15092e+06 2.39152e+07 0 
0 0 0 
0 0 0 
0 0 0 
0 0 0 
-7.41925e+06 -1.78054e+07 0 
-1.78054e+07 2.35589e+07 0 
0 0 0 
1.69881e+07 -1.1043e+07 0 
-1.1043e+07 3.79233e+07 0 
0 0 0 
3.05626e+07 -4.31376e+06 0 
-4.31376e+06 5.90205e+07 0 
0 0 0 
3.05144e+07 -9.5509e+06 0 
-9.5509e+06 9.0831e+07 0 
0 0 0 
8.07893e+06 -2.88649e+07 0 
-2.88649e+07 6.46668e+06 0 
0 0 0 
-1.26164e+07 -3.27289e+07 0 
-3.27289e+07 -3.03669e+07 0 
0 0 0 
-2.35649e+07 -2.21527e+07 0 
-2.21527e+07 -4.91425e+07 0 
0 0 0 
2.67142e+07 -2.43513e+07 0 
-2.43513e+07 9.68227e+07 0 
0 0 0 
2.00069e+07 -2.36081e+07 0 
-2.36081e+07 6.59628e+07 0 
0 0 0 
1.33955e+07 -2.52518e+07 0 
-2.52518e+07 4.4363e+07 0 
0 0 0 
-2.27903e+07 -1.50963e+07 0 
-1.50963e+07 -5.69556e+07 0 
0 0 0 
-2.39595e+07 -5.95935e+06 0 
-5.95935e+06 -4.64543e+07 0 
0 0 0 
4.72814e+06 -2.85728e+07 0 
-2.85728e+07 -4.94149e+06 0 
0 0 0 
3.35636e+07 -2.4555e+07 0 
-2.4555e+07 6.9861e+07 0 
0 0 0 
1.48274e+06 -2.72209e+07 0 
-2.72209e+07 -5.45826e+06 0 
0 0 0 
2.4595e+06 -56340.2 0 
-56340.2 2.03416e+07 0 
0 0 0 
-1.16034e+07 -9.78308e+06 0 
-9.78308e+06 -5.45638e+07 0 
0 0 0 
3.60932e+07 -1.32221e+07 0 
-1.32221e+07 5.08728e+06 0 
0 0 0 
4.89571e+06 -2.7446e+07 0 
-2.7446e+07 -3.56609e+07 0 
0 0 0 
-6.91062e+06 -2.15607e+07 0 
-2.15607e+07 -2.4144e+07 0 
0 0 0 
2.59989e+06 -1.59556e+07 0 
-1.59556e+07 -4.01483e+07 0 
0 0 0 
263061 6.50086e+06 0 
6.50086e+06 -1.94593e+07 0 
0 0 0 
-1.85703e+07 2.33257e+06 0 
2.33257e+06 -5.24756e+07 0 
0 0 0 
-1.46152e+07 -3.96981e+06 0 
-3.96981e+06 -3.94396e+07 0 
0 0 0 
-2.1552e+07 -1.58732e+07 0 
-1.58732e+07 -9.70751e+07 0 
0 0 0 
-1.10333e+07 -9.26747e+06 0 
-9.26747e+06 -4.17559e+07 0 
0 0 0 
-4.25939e+06 -7.59557e+06 0 
-7.59557e+06 -1.99142e+07 0 
0 0 0 
-9.93456e+06 1.18908e+07 0 
1.18908e+07 -3.97522e+07 0 
0 0 0 
-7.50248e+07 3.04211e+07 0 
3.04211e+07 -7.9638e+07 0 
0 0 0 
-9.89886e+07 4.18007e+07 0 
4.18007e+07 -1.43901e+08 0 
0 0 0 
-5.87798e+07 4.22703e+07 0 
4.22703e+07 -8.1361e+07 0 
0 0 0 
-2.68018e+07 3.27386e+07 0 
3.27386e+07 -2.66944e+07 0 
0 0 0 
1.20043e+07 3.39271e+07 0 
3.39271e+07 2.10656e+07 0 
0 0 0 
-7.53277e+06 4.12741e+07 0 
4.12741e+07 -6.09465e+07 0 
0 0 0 
1.53074e+07 5.23976e+07 0 
5.23976e+07 2.54511e+07 0 
0 0 0 
3.93503e+07 6.24691e+07 0 
6.24691e+07 8.5677e+07 0 
0 0 0 
5.27656e+07 4.21979e+07 0 
4.21979e+07 7.49497e+07 0 
0 0 0 
1.02364e+08 3.22134e+07 0 
3.22134e+07 1.51195e+08 0 
0 0 0 
1.1461e+08 4.00926e+07 0 
4.00926e+07 9.98511e+07 0 
0 0 0 
1.42097e+08 4.55472e+07 0 
4.55472e+07 1.42766e+08 0 
0 0 0 
1.41986e+08 4.1662e+07 0 
4.1662e+07 1.3519e+08 0 
0 0 0 
1.13224e+08 1.25051e+07 0 
1.25051e+07 1.31234e+08 0 
0 0 0 
9.37305e+07 7.68142e+06 0 
7.68142e+06 9.79492e+07 0 
0 0 0 
1.02098e+08 4.85698e+06 0 
4.85698e+06 8.80357e+07 0 
0 0 0 
9.27348e+07 8.18254e+06 0 
8.18254e+06 1.15093e+08 0 
0 0 0 
6.90182e+07 -5.04652e+06 0 
-5.04652e+06 8.24269e+07 0 
0 0 0 
4.69959e+06 749972 0 
749972 -3.82418e+07 0 
0 0 0 
-2.01661e+07 -2.69653e+07 0 
-2.69653e+07 -4.31103e+07 0 
0 0 0 
522657 -3.27424e+06 0 
-3.27424e+06 2.26658e+07 0 
0 0 0 
-1.66816e+07 292578 0 
292578 8.78112e+06 0 
0 0 0 
-1.6796e+07 -2.74884e+07 0 
-2.74884e+07 7.8236e+06 0 
0 0 0 
-4.03359e+07 -2.09224e+07 0 
-2.09224e+07 -4.84887e+07 0 
0 0 0 
-5.40345e+07 -2.13487e+07 0 
-2.13487e+07 -4.90091e+07 0 
0 0 0 
-5.24571e+07 62703.6 0 
62703.6 -5.20224e+07 0 
0 0 0 
2.34564e+06 -2.36493e+06 0 
-2.36493e+06 7.28815e+06 0 
0 0 0 
4.18237e+06 1.62019e+06 0 
1.62019e+06 -2.31687e+07 0 
0 0 0 
-1.13332e+07 5.25763e+06 0 
5.25763e+06 -1.03247e+07 0 
0 0 0 
-1.5591e+07 6.77574e+06 0 
6.77574e+06 -5.49052e+07 0 
0 0 0 
1.38866e+07 901035 0 
901035 3.60085e+07 0 
0 0 0 
-1.82171e+07 5.38048e+06 0 
5.38048e+06 -3.0886e+07 0 
0 0 0 
-1.10787e+07 -4.12774e+06 0 
-4.12774e+06 6.72871e+06 0 
0 0 0 
-1.78061e+06 -1.68111e+07 0 
-1.68111e+07 -2.82687e+07 0 
0 0 0 
2.39026e+07 2.23919e+06 0 
2.23919e+06 1.77232e+06 0 
0 0 0 
2.66419e+07 1.17452e+06 0 
1.17452e+06 3.4854e+07 0 
0 0 0 
1.85525e+07 -3.68097e+06 0 
-3.68097e+06 -7.95078e+06 0 
0 0 0 
3.17143e+07 7.21093e+06 0 
7.21093e+06 3.73261e+06 0 
0 0 0 
4.55169e+07 5.34655e+06 0 
5.34655e+06 1.6808e+07 0 
0 0 0 
4.73574e+07 -2.90931e+06 0 
-2.90931e+06 2.68041e+07 0 
0 0 0 
3.39041e+07 -6.20051e+06 0 
-6.20051e+06 2.78161e+07 0 
0 0 0 
9.39462e+06 5.73257e+06 0 
5.73257e+06 -1.53791e+07 0 
0 0 0 
1.8483e+07 6.46765e+06 0 
6.46765e+06 2.86686e+07 0 
0 0 0 
799016 1.01704e+07 0 
1.01704e+07 -1.26163e+07 0 
0 0 0 
1.41935e+07 5.46291e+06 0 
5.46291e+06 3.58548e+07 0 
0 0 0 
-3.06327e+06 -25350 0 
-25350 8.63986e+06 0 
0 0 0 
-1.40875e+07 4.09827e+06 0 
4.09827e+06 -4.80767e+07 0 
0 0 0 
2.86083e+07 2.51383e+06 0 
2.51383e+06 6.9079e+06 0 
0 0 0 
6.0972e+07 -816247 0 
-816247 5.61757e+07 0 
0 0 0 
5.85121e+07 -1.36683e+07 0 
-1.36683e+07 6.00667e+07 0 
0 0 0 
1.83596e+07 -4.73505e+06 0 
-4.73505e+06 -217954 0 
0 0 0 
-1.20766e+07 -1.17163e+06 0 
-1.17163e+06 -4.67996e+07 0 
0 0 0 
-1.55879e+07 1.00988e+07 0 
1.00988e+07 -5.55696e+07 0 
0 0 0 
1.76788e+07 4.0994e+06 0 
4.0994e+06 1.62796e+07 0 
0 0 0 
3.13512e+07 -1.82483e+07 0 
-1.82483e+07 3.2081e+07 0 
0 0 0 
4.70535e+07 -4.24872e+06 0 
-4.24872e+06 5.74354e+07 0 
0 0 0 
1.8452e+07 30966.9 0 
30966.9 -880665 0 
0 0 0 
1.71791e+06 2.65161e+06 0 
2.65161e+06 -2.67528e+07 0 
0 0 0 
-1.04247e+06 1.38174e+07 0 
1.38174e+07 -5.74938e+06 0 
0 0 0 
-8.58842e+06 7.47173e+06 0 
7.47173e+06 2.1878e+07 0 
0 0 0 
0 0 0 
0 0 0 
0 0 0 
1.14982e+07 4.77414e+06 0 
4.77414e+06 -263258 0 
0 0 0 
-5.19265e+06 1.22332e+07 0 
1.22332e+07 -3.08455e+06 0 
0 0 0 
-1.51217e+07 5.05633e+06 0 
5.05633e+06 -7.60708e+06 0 
0 0 0 
1.25371e+06 -6.1512e+06 0 
-6.1512e+06 1.20207e+07 0 
0 0 0 
1.54528e+07 771613 0 
771613 2.74286e+07 0 
0 0 0 
3.48631e+07 -9.28156e+06 0 
-9.28156e+06 4.00679e+07 0 
0 0 0 
3.60064e+06 1.00588e+07 0 
1.00588e+07 1.78902e+07 0 
0 0 0 
-7.9664e+06 7.61448e+06 0 
7.61448e+06 -6.36927e+06 0 
0 0 0 
-2.10069e+07 4.82062e+06 0 
4.82062e+06 -8.61289e+06 0 
0 0 0 
-5.51941e+06 -4.83953e+06 0 
-4.83953e+06 -1.41578e+07 0 
0 0 0 
-2.2654e+07 -2.3625e+07 0 
-2.3625e+07 -1.35352e+07 0 
0 0 0 
537320 -1.61023e+07 0 
-1.61023e+07 -1.42825e+06 0 
0 0 0 
-3.35835e+06 -1.24054e+07 0 
-1.24054e+07 991965 0 
0 0 0 
-2.31537e+07 4.16906e+06 0 
4.16906e+06 -1.14562e+07 0 
0 0 0 
2.74386e+07 8.16932e+06 0 
8.16932e+06 4.11315e+06 0 
0 0 0 
-1.88656e+07 1.63165e+07 0 
1.63165e+07 -8.39703e+06 0 
0 0 0 
1.98187e+07 1.54443e+06 0 
1.54443e+06 1.02201e+07 0 
0 0 0 
334014 -5.00487e+06 0 
-5.00487e+06 -9.47751e+06 0 
0 0 0 
4.07195e+06 -1.86875e+06 0 
-1.86875e+06 2.42214e+06 0 
0 0 0 
-1.4943e+07 2.22936e+06 0 
2.22936e+06 1.13812e+07 0 
0 0 0 
2.03832e+06 9.78141e+06 0 
9.78141e+06 1.13715e+07 0 
0 0 0 
1.89346e+07 1.80217e+06 0 
1.80217e+06 2.51294e+07 0 
0 0 0 
-8.70812e+06 -9.49997e+06 0 
-9.49997e+06 8.95714e+06 0 
0 0 0 
4.86281e+07 -6.07417e+06 0 
-6.07417e+06 6.13988e+06 0 
0 0 0 
-3.3313e+07 -1.86598e+07 0 
-1.86598e+07 -3.46248e+07 0 
0 0 0 
-7.49192e+06 -1.02063e+07 0 
-1.02063e+07 -3.09202e+07 0 
0 0 0 
-6.1107e+07 -224228 0 
-224228 -5.04827e+07 0 
0 0 0 
2.14765e+07 3.89959e+06 0 
3.89959e+06 -2.31146e+07 0 
0 0 0 
-4.06259e+07 1.39719e+07 0 
1.39719e+07 -2.82282e+07 0 
0 0 0 
3.43097e+07 1.68833e+07 0 
1.68833e+07 -4.46742e+06 0 
0 0 0 
-2.50864e+07 4.79501e+06 0 
4.79501e+06 -3.50683e+07 0 
0 0 0 
-5.88423e+06 5.6708e+06 0 
5.6708e+06 -2.11983e+07 0 
0 0 0 
-4.88316e+06 2.97048e+06 0 
2.97048e+06 -2.01112e+07 0 
0 0 0 
-1.71849e+07 -1.80585e+06 0 
-1.80585e+06 -1.15936e+07 0 
0 0 0 
1.89102e+07 1.57963e+06 0 
1.57963e+06 1.92713e+07 0 
0 0 0 
-3.89321e+07 -1.95334e+06 0 
-1.95334e+06 5.40758e+06 0 
0 0 0 
1.15582e+07 -3.16838e+06 0 
-3.16838e+06 3.36154e+07 0 
0 0 0 
1.14534e+06 -1.93783e+06 0 
-1.93783e+06 3.38407e+07 0 
0 0 0 
2.299e+07 3.9858e+06 0 
3.9858e+06 4.7003e+07 0 
0 0 0 
2.30279e+07 8.76207e+06 0 
8.76207e+06 3.95178e+07 0 
0 0 0 
1.46446e+07 4.45399e+06 0 
4.45399e+06 1.76442e+07 0 
0 0 0 
5.00947e+06 2.44329e+06 0 
2.44329e+06 1.23984e+07 0 
0 0 0 
-5.92144e+06 -403776 0 
-403776 -6.83773e+06 0 
0 0 0 
-2.10862e+06 -948744 0 
-948744 7.59081e+06 0 
0 0 0 
-2.78132e+06 1.82856e+06 0 
1.82856e+06 8.06552e+06 0 
0 0 0 
1.97613e+07 1.24105e+06 0 
1.24105e+06 1.7217e+07 0 
0 0 0 
-7.93417e+06 2.53745e+06 0 
2.53745e+06 7.27762e+06 0 
0 0 0 
2.75927e+07 -3.48752e+06 0 
-3.48752e+06 2.4736e+07 0 
0 0 0 
-2.04376e+07 -3.06637e+06 0 
-3.06637e+06 8.05836e+06 0 
0 0 0 
8.54406e+06 -4.60911e+06 0 
-4.60911e+06 8.57086e+06 0 
0 0 0 
-2.03092e+07 -8.54268e+06 0 
-8.54268e+06 6.59163e+06 0 
0 0 0 
2.99831e+07 4.56633e+06 0 
4.56633e+06 1.50578e+07 0 
0 0 0 
1.50928e+07 4.29952e+06 0 
4.29952e+06 8.32293e+06 0 
0 0 0 
1.52156e+07 -2.00097e+06 0 
-2.00097e+06 1.09302e+07 0 
0 0 0 
9.21834e+06 2.06293e+06 0 
2.06293e+06 -1.2461e+07 0 
0 0 0 
-2.82864e+07 -2.91991e+06 0 
-2.91991e+06 -2.37237e+07 0 
0 0 0 
-2.80116e+07 6.79258e+06 0 
6.79258e+06 -2.68758e+06 0 
0 0 0 
-2.42722e+06 -5.203e+06 0 
-5.203e+06 7.53923e+06 0 
0 0 0 
6.67318e+06 -2.01777e+06 0 
-2.01777e+06 2.23399e+07 0 
0 0 0 
1.1306e+06 -1.70769e+06 0 
-1.70769e+06 2.19675e+07 0 
0 0 0 
-1.04242e+07 -3.64683e+06 0 
-3.64683e+06 956689 0 
0 0 0 
-1.25934e+07 2.22287e+06 0 
2.22287e+06 8.82879e+06 0 
0 0 0 
7.60133e+06 -2.68898e+06 0 
-2.68898e+06 -7.49757e+06 0 
0 0 0 
1.38098e+07 -2.94596e+06 0 
-2.94596e+06 -1.351e+07 0 
0 0 0 
-1.01714e+07 -261203 0 
-261203 -3.42581e+07 0 
0 0 0 
-1.31226e+07 2.2043e+06 0 
2.2043e+06 -6.2025e+07 0 
0 0 0 
-4.18378e+07 -5.53221e+06 0 
-5.53221e+06 -6.63776e+07 0 
0 0 0 
-2.73687e+07 -438127 0 
-438127 -6.10767e+07 0 
0 0 0 
-1.27739e+07 -2.07571e+06 0 
-2.07571e+06 -5.40726e+07 0 
0 0 0 
-3.14298e+07 -9.60337e+06 0 
-9.60337e+06 -3.93495e+07 0 
0 0 0 
-2.24871e+07 -1.02116e+07 0 
-1.02116e+07 -1.71097e+07 0 
0 0 0 
5.04225e+06 -9.48324e+06 0 
-9.48324e+06 2.08871e+06 0 
0 0 0 
-1.03549e+07 -8.24208e+06 0 
-8.24208e+06 1.5931e+07 0 
0 0 0 
3.1887e+06 -9.0824e+06 0 
-9.0824e+06 2.47217e+07 0 
0 0 0 
3.06144e+07 127531 0 
127531 3.74655e+07 0 
0 0 0 
395898 2.1357e+06 0 
2.1357e+06 2.79666e+07 0 
0 0 0 
5.35775e+07 198956 0 
198956 5.2695e+07 0 
0 0 0 
8.32989e+06 9.94155e+06 0 
9.94155e+06 4.33734e+07 0 
0 0 0 
1.79177e+07 -2.97325e+06 0 
-2.97325e+06 5.39082e+07 0 
0 0 0 
-7.99951e+06 1.5339e+06 0 
1.5339e+06 4.99525e+07 0 
0 0 0 
3.82891e+07 -5.95946e+06 0 
-5.95946e+06 7.67583e+07 0 
0 0 0 
1.67991e+07 -1.19728e+07 0 
-1.19728e+07 6.33939e+07 0 
0 0 0 
3.17662e+07 -1.7613e+07 0 
-1.7613e+07 4.67821e+07 0 
0 0 0 
-5.87801e+06 -7.42075e+06 0 
-7.42075e+06 7.73085e+06 0 
0 0 0 
-2.7426e+07 -5.72818e+06 0 
-5.72818e+06 -2.60142e+07 0 
0 0 0 
-1.53997e+07 -6.3929e+06 0 
-6.3929e+06 -3.23068e+07 0 
0 0 0 
6.0092e+06 3.94431e+06 0 
3.94431e+06 -3.28091e+07 0 
0 0 0 
-1.7649e+07 -305999 0 
-305999 -4.71228e+07 0 
0 0 0 
4.7094e+06 4.7993e+06 0 
4.7993e+06 1.82728e+07 0 
0 0 0 
-1.90545e+07 1.54076e+06 0 
1.54076e+06 -5.23022e+07 0 
0 0 0 
0 0 0 
0 0 0 
0 0 0 
1.87702e+07 -1.52481e+07 0 
-1.52481e+07 -988529 0 
0 0 0 
5.38401e+07 6.36627e+06 0 
6.36627e+06 8.45357e+07 0 
0 0 0 
6.54252e+07 -3.56333e+06 0 
-3.56333e+06 6.83988e+07 0 
0 0 0 
6.43786e+07 -1.69511e+07 0 
-1.69511e+07 5.85816e+07 0 
0 0 0 
3.67143e+07 -3.06536e+07 0 
-3.06536e+07 7.30687e+06 0 
0 0 0 
4.65654e+07 -3.38397e+07 0 
-3.38397e+07 -2.08292e+06 0 
0 0 0 
6.17696e+07 -5.16064e+06 0 
-5.16064e+06 1.3524e+07 0 
0 0 0 
1.13942e+08 -6.51388e+06 0 
-6.51388e+06 1.04653e+08 0 
0 0 0 
1.32281e+08 -2.05109e+07 0 
-2.05109e+07 1.1381e+08 0 
0 0 0 
1.0591e+08 -2.57169e+07 0 
-2.57169e+07 5.26033e+07 0 
0 0 0 
7.59794e+07 -1.87971e+07 0 
-1.87971e+07 -3.26536e+06 0 
0 0 0 
4.17809e+07 -8.23784e+06 0 
-8.23784e+06 -3.22991e+07 0 
0 0 0 
2.87138e+07 -2.48398e+07 0 
-2.48398e+07 -1.54254e+07 0 
0 0 0 
4.58834e+07 -3.7118e+07 0 
-3.7118e+07 6.93943e+07 0 
0 0 0 
2.07583e+07 -3.01464e+07 0 
-3.01464e+07 1.945e+07 0 
0 0 0 
2.22992e+07 -1.49606e+07 0 
-1.49606e+07 4.68143e+07 0 
0 0 0 
-2.81055e+07 -7.55754e+06 0 
-7.55754e+06 -6.82645e+07 0 
0 0 0 
-1.67959e+07 -1.09247e+07 0 
-1.09247e+07 -3.08047e+07 0 
0 0 0 
9.01125e+06 -2.00574e+07 0 
-2.00574e+07 -3.76861e+07 0 
0 0 0 
2.35553e+07 -2.22637e+07 0 
-2.22637e+07 -2.05408e+07 0 
0 0 0 
1.6541e+07 -2.02139e+06 0 
-2.02139e+06 -3.01082e+06 0 
0 0 0 
-3.07e+06 -3.45389e+06 0 
-3.45389e+06 -2.79953e+07 0 
0 0 0 
-2.89305e+07 564060 0 
564060 -4.55699e+07 0 
0 0 0 
-4.21214e+07 -2.08628e+06 0 
-2.08628e+06 -7.45613e+07 0 
0 0 0 
-4.20837e+07 4.23796e+06 0 
4.23796e+06 -8.69498e+07 0 
0 0 0 
4.96034e+06 1.01158e+07 0 
1.01158e+07 -4.58718e+07 0 
0 0 0 
5.60523e+07 2.11438e+07 0 
2.11438e+07 1.4601e+07 0 
0 0 0 
7.34405e+07 1.59235e+07 0 
1.59235e+07 5.84902e+06 0 
0 0 0 
7.36447e+07 1.91897e+07 0 
1.91897e+07 -3.24761e+07 0 
0 0 0 
3.50169e+07 3.71399e+07 0 
3.71399e+07 -7.82199e+07 0 
0 0 0 
8.05546e+06 4.5645e+07 0 
4.5645e+07 -7.22288e+07 0 
0 0 0 
3.11509e+07 5.78765e+07 0 
5.78765e+07 3.62252e+06 0 
0 0 0 
6.19603e+07 5.47148e+07 0 
5.47148e+07 2.35946e+07 0 
0 0 0 
4.63103e+07 5.22763e+07 0 
5.22763e+07 -3.2649e+07 0 
0 0 0 
7.54902e+07 5.63542e+07 0 
5.63542e+07 5.44541e+07 0 
0 0 0 
9.00989e+07 6.92432e+07 0 
6.92432e+07 8.52982e+07 0 
0 0 0 
6.48072e+07 5.4896e+07 0 
5.4896e+07 6.67957e+07 0 
0 0 0 
7.61616e+07 4.39235e+07 0 
4.39235e+07 1.3435e+08 0 
0 0 0 
6.58802e+07 4.48593e+07 0 
4.48593e+07 9.73067e+07 0 
0 0 0 
8.0413e+07 4.48933e+07 0 
4.48933e+07 1.15826e+08 0 
0 0 0 
4.83105e+07 3.1523e+07 0 
3.1523e+07 7.7492e+07 0 
0 0 0 
3.50027e+07 1.91706e+07 0 
1.91706e+07 6.96059e+07 0 
0 0 0 
3.28086e+07 5.38243e+06 0 
5.38243e+06 6.63071e+07 0 
0 0 0 
3.2076e+07 -1.37777e+06 0 
-1.37777e+06 7.31686e+07 0 
0 0 0 
4.95103e+07 -2.15703e+06 0 
-2.15703e+06 8.4686e+07 0 
0 0 0 
2.85793e+07 -1.11727e+07 0 
-1.11727e+07 6.12185e+07 0 
0 0 0 
-2.44296e+07 -9.70324e+06 0 
-9.70324e+06 -6.19098e+07 0 
0 0 0 
-1.54721e+07 -1.90066e+07 0 
-1.90066e+07 -2.45091e+07 0 
0 0 0 
8.9205e+06 3.64042e+06 0 
3.64042e+06 3.49136e+07 0 
0 0 0 
8.78231e+06 -1.12022e+07 0 
-1.12022e+07 -5.83047e+06 0 
0 0 0 
5.56591e+06 -2.30171e+07 0 
-2.30171e+07 -211248 0 
0 0 0 
-1.23666e+07 -1.63264e+07 0 
-1.63264e+07 -3.48174e+07 0 
0 0 0 
1.90918e+06 -2.24428e+07 0 
-2.24428e+07 -1.92382e+07 0 
0 0 0 
1.428e+07 372133 0 
372133 -2.61468e+06 0 
0 0 0 
-6.58231e+06 8.46844e+06 0 
8.46844e+06 -5.65589e+06 0 
0 0 0 
-2.2659e+07 -4.7746e+06 0 
-4.7746e+06 -2.71779e+07 0 
0 0 0 
-5.42745e+06 2.58491e+06 0 
2.58491e+06 -1.40076e+07 0 
0 0 0 
-3.08828e+07 -1.0801e+06 0 
-1.0801e+06 -4.35939e+07 0 
0 0 0 
-2.27849e+07 1.14798e+07 0 
1.14798e+07 -5.86207e+06 0 
0 0 0 
-3.74047e+07 -5.1101e+06 0 
-5.1101e+06 -3.54507e+07 0 
0 0 0 
-3.84869e+07 -1.02884e+07 0 
-1.02884e+07 -5.1028e+06 0 
0 0 0 
-4.11728e+07 1.39116e+06 0 
1.39116e+06 -3.28137e+07 0 
0 0 0 
-3.60016e+07 4.00368e+06 0 
4.00368e+06 -1.26354e+07 0 
0 0 0 
-1.66881e+07 -2.19315e+06 0 
-2.19315e+06 3.06187e+07 0 
0 0 0 
-3.28005e+07 2.61668e+06 0 
2.61668e+06 -3.3227e+07 0 
0 0 0 
-3.34216e+07 201759 0 
201759 -2.12777e+07 0 
0 0 0 
-1.45492e+07 -4.09761e+06 0 
-4.09761e+06 -415670 0 
0 0 0 
-1.64619e+06 -2.31738e+06 0 
-2.31738e+06 -2.397e+06 0 
0 0 0 
1.3508e+07 4.05344e+06 0 
4.05344e+06 3.39668e+07 0 
0 0 0 
1.52383e+07 1.20872e+07 0 
1.20872e+07 7.79624e+06 0 
0 0 0 
2.28169e+07 1.04743e+07 0 
1.04743e+07 1.15785e+07 0 
0 0 0 
2.2555e+07 7.75237e+06 0 
7.75237e+06 456338 0 
0 0 0 
1.66547e+07 -5.30337e+06 0 
-5.30337e+06 2.86245e+07 0 
0 0 0 
2.24484e+06 218919 0 
218919 6.77652e+06 0 
0 0 0 
-1.65148e+07 1.05631e+07 0 
1.05631e+07 -3.50007e+07 0 
0 0 0 
-4.27601e+07 1.35932e+07 0 
1.35932e+07 -3.95612e+07 0 
0 0 0 
-3.63863e+07 -20083.6 0 
-20083.6 8.92956e+06 0 
0 0 0 
-1.13049e+07 -1.52531e+07 0 
-1.52531e+07 3.72098e+07 0 
0 0 0 
-2.54305e+07 -1.82707e+07 0 
-1.82707e+07 -4.7501e+06 0 
0 0 0 
-5.87254e+07 -7.30125e+06 0 
-7.30125e+06 -5.28274e+07 0 
0 0 0 
-6.76816e+07 9.25966e+06 0 
9.25966e+06 -6.14551e+07 0 
0 0 0 
-4.73675e+07 1.20117e+07 0 
1.20117e+07 -2.38291e+07 0 
0 0 0 
-2.64292e+07 -6.94143e+06 0 
-6.94143e+06 1.21759e+07 0 
0 0 0 
-2.85074e+06 696216 0 
696216 4.63995e+07 0 
0 0 0 
-1.4286e+07 -3.0584e+06 0 
-3.0584e+06 -1.98026e+06 0 
0 0 0 
-2.42862e+07 1.15618e+07 0 
1.15618e+07 -2.76743e+07 0 
0 0 0 
9.55122e+06 5.4249e+06 0 
5.4249e+06 -4.50821e+06 0 
0 0 0 
3.60984e+07 5.61167e+06 0 
5.61167e+06 2.39322e+07 0 
0 0 0 
1.38485e+07 1.05694e+06 0 
1.05694e+06 2.8824e+07 0 
0 0 0 
0 0 0 
0 0 0 
0 0 0 
9.08398e+06 -626453 0 
-626453 1.67453e+06 0 
0 0 0 
8.59079e+06 -1.18145e+06 0 
-1.18145e+06 -9.13825e+06 0 
0 0 0 
-3.14805e+07 2.01938e+06 0 
2.01938e+06 -1.23258e+07 0 
0 0 0 
7.98606e+06 6.98294e+06 0 
6.98294e+06 1.43927e+07 0 
0 0 0 
1.56134e+06 5.36951e+06 0 
5.36951e+06 8.94228e+06 0 
0 0 0 
2.48628e+07 -1.48058e+06 0 
-1.48058e+06 1.41728e+07 0 
0 0 0 
1.96012e+07 -1.99951e+06 0 
-1.99951e+06 1.41137e+07 0 
0 0 0 
-3.17708e+07 -4.97878e+06 0 
-4.97878e+06 -2.48573e+07 0 
0 0 0 
-1.35511e+07 5.38994e+06 0 
5.38994e+06 -3.65512e+07 0 
0 0 0 
-4.08929e+07 -3.45504e+06 0 
-3.45504e+06 -4.53442e+07 0 
0 0 0 
-3.35692e+07 -1.09173e+07 0 
-1.09173e+07 -4.42264e+07 0 
0 0 0 
-9.52595e+06 -6.57343e+06 0 
-6.57343e+06 -2.14859e+07 0 
0 0 0 
2.67537e+07 -3.06977e+06 0 
-3.06977e+06 -6.67091e+06 0 
0 0 0 
-2.63507e+07 6.2683e+06 0 
6.2683e+06 -1.82081e+07 0 
0 0 0 
4.02103e+07 1.74425e+07 0 
1.74425e+07 6.67429e+06 0 
0 0 0 
-3.44748e+07 1.43193e+07 0 
1.43193e+07 -7.89422e+06 0 
0 0 0 
2.43021e+07 5.03665e+06 0 
5.03665e+06 1.78874e+07 0 
0 0 0 
-6.07721e+06 -1.09191e+06 0 
-1.09191e+06 2.02333e+07 0 
0 0 0 
2.03713e+07 -3.2912e+06 0 
-3.2912e+06 2.00021e+07 0 
0 0 0 
-1.33073e+07 -3.88572e+06 0 
-3.88572e+06 -5.61995e+06 0 
0 0 0 
-1.9007e+07 6.55066e+06 0 
6.55066e+06 -1.44947e+07 0 
0 0 0 
-541875 2.19839e+06 0 
2.19839e+06 -1.53044e+07 0 
0 0 0 
-2.54283e+07 -3.06153e+06 0 
-3.06153e+06 -1.04757e+07 0 
0 0 0 
5.01728e+07 -6.967e+06 0 
-6.967e+06 2.80477e+07 0 
0 0 0 
-2.86754e+07 -1.6265e+07 0 
-1.6265e+07 1.13699e+07 0 
0 0 0 
4.44609e+07 -1.27521e+07 0 
-1.27521e+07 4.56939e+07 0 
0 0 0 
-2.62958e+07 -7.5116e+06 0 
-7.5116e+06 2.42446e+07 0 
0 0 0 
4.34373e+07 -908653 0 
-908653 3.08601e+07 0 
0 0 0 
-3.04954e+07 3.80432e+06 0 
3.80432e+06 -1.33771e+07 0 
0 0 0 
3.99025e+07 2.16349e+06 0 
2.16349e+06 6.45294e+06 0 
0 0 0 
-2.84799e+07 7.77102e+06 0 
7.77102e+06 -1.73721e+07 0 
0 0 0 
1.29463e+07 6.14067e+06 0 
6.14067e+06 1.41834e+07 0 
0 0 0 
-9.19156e+06 2.93518e+06 0 
2.93518e+06 1.68317e+07 0 
0 0 0 
5.52261e+06 2.43527e+06 0 
2.43527e+06 1.66291e+07 0 
0 0 0 
1.56448e+07 3.99054e+06 0 
3.99054e+06 1.13621e+07 0 
0 0 0 
-3.67126e+07 9.01202e+06 0 
9.01202e+06 -1.76582e+07 0 
0 0 0 
-4.25399e+06 4.88479e+06 0 
4.88479e+06 -9.80415e+06 0 
0 0 0 
-1.90365e+07 6.69891e+06 0 
6.69891e+06 -1.23161e+06 0 
0 0 0 
2.2733e+07 3.94322e+06 0 
3.94322e+06 1.79681e+07 0 
0 0 0 
3.72875e+06 -3.03806e+06 0 
-3.03806e+06 6.10779e+06 0 
0 0 0 
8.65063e+06 -2.66366e+06 0 
-2.66366e+06 1.73988e+07 0 
0 0 0 
-675796 -5.97085e+06 0 
-5.97085e+06 7.11191e+06 0 
0 0 0 
3.53366e+06 -4.44036e+06 0 
-4.44036e+06 1.13469e+07 0 
0 0 0 
1.93642e+06 1.94427e+06 0 
1.94427e+06 1.14637e+07 0 
0 0 0 
1.03783e+06 -2.52198e+06 0 
-2.52198e+06 1.75628e+07 0 
0 0 0 
2.18356e+07 -3.77928e+06 0 
-3.77928e+06 2.07944e+07 0 
0 0 0 
-1.49304e+07 -1.65485e+06 0 
-1.65485e+06 4.65914e+06 0 
0 0 0 
1.79726e+07 -7.56988e+06 0 
-7.56988e+06 2.09007e+07 0 
0 0 0 
-9.84137e+06 -59624.8 0 
-59624.8 2.77397e+07 0 
0 0 0 
1.98271e+07 2.22485e+06 0 
2.22485e+06 4.33761e+07 0 
0 0 0 
-1.40585e+07 -5.5135e+06 0 
-5.5135e+06 3.60621e+07 0 
0 0 0 
5.48259e+07 -1.08217e+07 0 
-1.08217e+07 5.38777e+07 0 
0 0 0 
2.10009e+07 1.14546e+06 0 
1.14546e+06 1.77527e+07 0 
0 0 0 
9.37795e+06 -3.2926e+06 0 
-3.2926e+06 -2.94252e+06 0 
0 0 0 
1.18283e+06 -3.01615e+06 0 
-3.01615e+06 -7.36876e+06 0 
0 0 0 
-1.97625e+07 4.15517e+06 0 
4.15517e+06 -7.91559e+06 0 
0 0 0 
-1.58263e+07 8.62191e+06 0 
8.62191e+06 362251 0 
0 0 0 
-2.93855e+06 9.52917e+06 0 
9.52917e+06 1.4009e+07 0 
0 0 0 
-3.13567e+06 2.80903e+06 0 
2.80903e+06 -3.98298e+06 0 
0 0 0 
-3.39389e+07 -8.23838e+06 0 
-8.23838e+06 -3.79759e+07 0 
0 0 0 
-7.44715e+06 -5.25858e+06 0 
-5.25858e+06 -1.54342e+07 0 
0 0 0 
-2.68797e+07 -1.15824e+07 0 
-1.15824e+07 -3.1959e+07 0 
0 0 0 
1.25625e+07 -6.54001e+06 0 
-6.54001e+06 -4.38201e+06 0 
0 0 0 
2.39831e+07 -4.34217e+06 0 
-4.34217e+06 1.64709e+07 0 
0 0 0 
-2.0964e+06 -8.33838e+06 0 
-8.33838e+06 5.79154e+06 0 
0 0 0 
7.1294e+06 -4.19693e+06 0 
-4.19693e+06 8.09176e+06 0 
0 0 0 
-5.31673e+06 298757 0 
298757 -4.8778e+06 0 
0 0 0 
-1.83337e+07 4.02889e+06 0 
4.02889e+06 -1.22861e+07 0 
0 0 0 
-7.77117e+06 -2.2936e+06 0 
-2.2936e+06 -1.40648e+07 0 
0 0 0 
-3.47487e+07 2.11863e+06 0 
2.11863e+06 -2.59804e+07 0 
0 0 0 
-3.74428e+06 1.88468e+06 0 
1.88468e+06 -1.12982e+07 0 
0 0 0 
1.00145e+06 7.38539e+06 0 
7.38539e+06 9.57664e+06 0 
0 0 0 
-1.56332e+07 -3.09382e+06 0 
-3.09382e+06 -1.40765e+06 0 
0 0 0 
7.04092e+06 -301652 0 
-301652 8.10222e+06 0 
0 0 0 
2.3373e+07 5.10209e+06 0 
5.10209e+06 2.22289e+07 0 
0 0 0 
-1.29973e+07 1.26642e+07 0 
1.26642e+07 1.06282e+07 0 
0 0 0 
5.96356e+07 -2.00908e+06 0 
-2.00908e+06 3.25755e+07 0 
0 0 0 
-1.43571e+07 -726362 0 
-726362 4.08851e+06 0 
0 0 0 
-2.08852e+07 -342784 0 
-342784 -8.38892e+06 0 
0 0 0 
-1.472e+07 -6.16146e+06 0 
-6.16146e+06 -2.2874e+07 0 
0 0 0 
-1.09856e+07 -379452 0 
-379452 -2.36819e+07 0 
0 0 0 
-2.84366e+06 -1.36267e+07 0 
-1.36267e+07 -1.16209e+07 0 
0 0 0 
-297402 -1.50785e+07 0 
-1.50785e+07 942307 0 
0 0 0 
2.31975e+07 -1.71334e+07 0 
-1.71334e+07 3.06791e+07 0 
0 0 0 
-2.79652e+07 -1.37394e+07 0 
-1.37394e+07 1.68689e+07 0 
0 0 0 
2.18446e+07 -6.26791e+06 0 
-6.26791e+06 2.984e+07 0 
0 0 0 
2.85809e+07 -6.28573e+06 0 
-6.28573e+06 2.48177e+07 0 
0 0 0 
6.98529e+06 -5.61782e+06 0 
-5.61782e+06 1.97766e+07 0 
0 0 0 
7.77286e+06 4.08682e+06 0 
4.08682e+06 2.01562e+07 0 
0 0 0 
-2.99797e+07 -6.20739e+06 0 
-6.20739e+06 -5.53872e+07 0 
0 0 0 
-2.37616e+06 1.37862e+07 0 
1.37862e+07 9.18455e+06 0 
0 0 0 
0 0 0 
0 0 0 
0 0 0 
1.00765e+07 7.93254e+06 0 
7.93254e+06 -3.68308e+06 0 
0 0 0 
4.49038e+07 5.86846e+06 0 
5.86846e+06 8.96187e+07 0 
0 0 0 
1.20354e+07 3.96853e+06 0 
3.96853e+06 3.28383e+07 0 
0 0 0 
1.07496e+07 -1.62925e+07 0 
-1.62925e+07 2.17085e+07 0 
0 0 0 
-1.46035e+07 -2.46328e+07 0 
-2.46328e+07 -4.75191e+07 0 
0 0 0 
1.26379e+07 -2.60129e+07 0 
-2.60129e+07 2.85729e+07 0 
0 0 0 
4.34223e+06 -1.3888e+07 0 
-1.3888e+07 1.11025e+07 0 
0 0 0 
-4.91905e+06 -1.11257e+07 0 
-1.11257e+07 5.43415e+07 0 
0 0 0 
-7.56735e+06 -2.01334e+07 0 
-2.01334e+07 5.34495e+07 0 
0 0 0 
-1.75402e+07 -3.90036e+07 0 
-3.90036e+07 -1.39986e+07 0 
0 0 0 
-2.96597e+07 -3.80072e+07 0 
-3.80072e+07 -2.03441e+07 0 
0 0 0 
-6.14725e+07 -3.35434e+07 0 
-3.35434e+07 -6.41852e+07 0 
0 0 0 
-7.34082e+07 -3.30846e+07 0 
-3.30846e+07 -7.03165e+07 0 
0 0 0 
-2.22729e+07 -4.01828e+07 0 
-4.01828e+07 4.29686e+07 0 
0 0 0 
-7.98753e+06 -3.25018e+07 0 
-3.25018e+07 3.31743e+07 0 
0 0 0 
-1.50242e+07 -2.62307e+07 0 
-2.62307e+07 4.29679e+07 0 
0 0 0 
-6.05483e+07 -1.36181e+07 0 
-1.36181e+07 -7.84756e+07 0 
0 0 0 
-6.22913e+07 -1.91989e+07 0 
-1.91989e+07 -5.24559e+07 0 
0 0 0 
-1.01486e+08 -2.51959e+07 0 
-2.51959e+07 -9.02812e+07 0 
0 0 0 
-7.87956e+07 -2.57663e+07 0 
-2.57663e+07 -3.69446e+07 0 
0 0 0 
-7.93021e+07 -1.77888e+07 0 
-1.77888e+07 -2.32017e+07 0 
0 0 0 
-8.52645e+07 -5.75598e+06 0 
-5.75598e+06 -5.37645e+07 0 
0 0 0 
-5.61841e+07 1.79408e+06 0 
1.79408e+06 -4.46818e+07 0 
0 0 0 
-7.12234e+07 572522 0 
572522 -8.73571e+07 0 
0 0 0 
-6.5287e+07 7.72198e+06 0 
7.72198e+06 -9.67443e+07 0 
0 0 0 
-4.46035e+07 1.41896e+07 0 
1.41896e+07 -4.16214e+07 0 
0 0 0 
-7.23786e+06 3.47419e+07 0 
3.47419e+07 -1.11998e+07 0 
0 0 0 
9.48694e+06 1.3057e+07 0 
1.3057e+07 -2.10224e+07 0 
0 0 0 
-1.90669e+07 8.62222e+06 0 
8.62222e+06 -6.6144e+07 0 
0 0 0 
-3.35721e+07 2.50523e+07 0 
2.50523e+07 -7.83206e+07 0 
0 0 0 
-3.97617e+06 5.0962e+07 0 
5.0962e+07 -4.79055e+07 0 
0 0 0 
2.49233e+07 5.15211e+07 0 
5.15211e+07 -1.96941e+07 0 
0 0 0 
2.90502e+07 5.19529e+07 0 
5.19529e+07 1.91286e+07 0 
0 0 0 
2.23208e+07 4.45141e+07 0 
4.45141e+07 -3.98361e+07 0 
0 0 0 
6.65323e+07 5.98431e+07 0 
5.98431e+07 5.31446e+07 0 
0 0 0 
5.38798e+07 5.44253e+07 0 
5.44253e+07 6.72971e+07 0 
0 0 0 
6.12002e+07 5.41024e+07 0 
5.41024e+07 6.13388e+07 0 
0 0 0 
1.02304e+08 4.13629e+07 0 
4.13629e+07 1.1729e+08 0 
0 0 0 
1.05837e+08 4.22872e+07 0 
4.22872e+07 1.11901e+08 0 
0 0 0 
9.49328e+07 2.82481e+07 0 
2.82481e+07 9.81563e+07 0 
0 0 0 
7.32635e+07 6.28084e+06 0 
6.28084e+06 7.68177e+07 0 
0 0 0 
5.61628e+07 7.48646e+06 0 
7.48646e+06 5.97958e+07 0 
0 0 0 
6.13929e+07 1.30007e+07 0 
1.30007e+07 6.17893e+07 0 
0 0 0 
8.02281e+07 1.22768e+07 0 
1.22768e+07 9.89419e+07 0 
0 0 0 
6.27983e+07 6.07451e+06 0 
6.07451e+06 5.65419e+07 0 
0 0 0 
7.12645e+07 -2.48373e+07 0 
-2.48373e+07 6.19192e+07 0 
0 0 0 
7.55423e+06 -2.26375e+07 0 
-2.26375e+07 -5.37359e+07 0 
0 0 0 
3.57722e+07 -1.53955e+07 0 
-1.53955e+07 2.87137e+07 0 
0 0 0 
3.60693e+07 -3.19459e+06 0 
-3.19459e+06 2.64918e+07 0 
0 0 0 
-7.19304e+06 -1.74487e+06 0 
-1.74487e+06 -9.28003e+06 0 
0 0 0 
-9.43481e+06 -1.87885e+07 0 
-1.87885e+07 -3.37935e+07 0 
0 0 0 
9.80665e+06 -2.31882e+07 0 
-2.31882e+07 -2.4776e+07 0 
0 0 0 
1.78167e+07 -1.56772e+07 0 
-1.56772e+07 104737 0 
0 0 0 
1.25e+07 -1.31087e+06 0 
-1.31087e+06 2.56404e+07 0 
0 0 0 
-1.87921e+07 -2.31832e+06 0 
-2.31832e+06 -1.61572e+07 0 
0 0 0 
-1.9865e+07 3.68465e+06 0 
3.68465e+06 -4.3044e+07 0 
0 0 0 
-572349 -431090 0 
-431090 -2.80316e+06 0 
0 0 0 
-2.17947e+06 -2.69992e+06 0 
-2.69992e+06 -3.20356e+07 0 
0 0 0 
2.12344e+06 -899724 0 
-899724 -1.01005e+06 0 
0 0 0 
-2.47505e+07 1.74808e+06 0 
1.74808e+06 -3.12763e+07 0 
0 0 0 
-1.2572e+07 1.04678e+07 0 
1.04678e+07 1.58454e+07 0 
0 0 0 
-1.60176e+07 1.45548e+07 0 
1.45548e+07 -2.604e+07 0 
0 0 0 
3.2725e+06 2.92617e+06 0 
2.92617e+06 -8.32614e+06 0 
0 0 0 
1.03874e+07 -1.19132e+06 0 
-1.19132e+06 2.78445e+07 0 
0 0 0 
-3.36909e+06 -1.0727e+07 0 
-1.0727e+07 -1.31368e+07 0 
0 0 0 
1.03832e+07 9.64728e+06 0 
9.64728e+06 -9.58853e+06 0 
0 0 0 
2.89511e+07 1.65918e+07 0 
1.65918e+07 1.47414e+07 0 
0 0 0 
2.22793e+07 -6.16255e+06 0 
-6.16255e+06 1.61032e+06 0 
0 0 0 
3.97571e+07 -2.49849e+06 0 
-2.49849e+06 4.77184e+07 0 
0 0 0 
2.64063e+07 98955.3 0 
98955.3 2.05085e+07 0 
0 0 0 
1.9633e+07 3.71822e+06 0 
3.71822e+06 8.66961e+06 0 
0 0 0 
1.61964e+07 1.02375e+07 0 
1.02375e+07 818043 0 
0 0 0 
2.24591e+07 -1.05761e+07 0 
-1.05761e+07 6.87418e+06 0 
0 0 0 
1.82788e+07 -7.62147e+06 0 
-7.62147e+06 2.8079e+07 0 
0 0 0 
-1.30657e+07 -477104 0 
-477104 -3.3026e+07 0 
0 0 0 
-2.90471e+06 -603637 0 
-603637 -2.81126e+07 0 
0 0 0 
1.53285e+07 1.41357e+07 0 
1.41357e+07 1.65973e+07 0 
0 0 0 
2.27716e+07 2.61653e+06 0 
2.61653e+06 4.01714e+07 0 
0 0 0 
2.062e+07 -1.63959e+07 0 
-1.63959e+07 -3.75112e+06 0 
0 0 0 
2.66824e+07 -1.31381e+07 0 
-1.31381e+07 5.15196e+06 0 
0 0 0 
1.65968e+07 1.72537e+07 0 
1.72537e+07 -2.1463e+07 0 
0 0 0 
1.92438e+07 1.96255e+07 0 
1.96255e+07 -7.09829e+06 0 
0 0 0 
5.00144e+07 4.79092e+06 0 
4.79092e+06 2.87014e+07 0 
0 0 0 
5.46774e+07 -4.76323e+06 0 
-4.76323e+06 4.60457e+07 0 
0 0 0 
3.40079e+07 -1.20055e+07 0 
-1.20055e+07 3.71815e+07 0 
0 0 0 
1.39996e+07 110654 0 
110654 -2.17687e+07 0 
0 0 0 
1.65932e+06 1.07843e+07 0 
1.07843e+07 -7.64826e+06 0 
0 0 0 
-2.27278e+07 -1.07698e+07 0 
-1.07698e+07 -6.85963e+06 0 
0 0 0 
-2.22455e+07 -9.82126e+06 0 
-9.82126e+06 2.45292e+07 0 
0 0 0 
-3.3127e+07 -3.65218e+06 0 
-3.65218e+06 -4.55021e+07 0 
0 0 0 
0 0 0 
0 0 0 
0 0 0 
1.42625e+07 6.01117e+06 0 
6.01117e+06 8.13951e+06 0 
0 0 0 
3.4067e+06 3.07443e+06 0 
3.07443e+06 9.2136e+06 0 
0 0 0 
-2.79139e+07 1.60887e+06 0 
1.60887e+06 -1.85406e+07 0 
0 0 0 
4.52874e+06 -903084 0 
-903084 -2.77227e+07 0 
0 0 0 
-1.08597e+07 6.71122e+06 0 
6.71122e+06 -2.69502e+07 0 
0 0 0 
-3.0186e+06 -1.47034e+06 0 
-1.47034e+06 -9.37236e+06 0 
0 0 0 
1.66884e+07 -1.07123e+07 0 
-1.07123e+07 -5.25226e+06 0 
0 0 0 
-1.65952e+07 -7.61476e+06 0 
-7.61476e+06 -4.12728e+06 0 
0 0 0 
3.43354e+06 -516722 0 
-516722 -2.97047e+06 0 
0 0 0 
-4.31413e+07 -3.39411e+06 0 
-3.39411e+06 -2.40916e+07 0 
0 0 0 
-9.71842e+06 -2.2554e+06 0 
-2.2554e+06 9.94446e+06 0 
0 0 0 
2.53933e+06 2.28591e+06 0 
2.28591e+06 2.07769e+07 0 
0 0 0 
3.99372e+07 -7.53631e+06 0 
-7.53631e+06 4.85774e+07 0 
0 0 0 
1.55399e+07 -3.83168e+06 0 
-3.83168e+06 3.89776e+07 0 
0 0 0 
3.83818e+07 4.93995e+06 0 
4.93995e+06 4.01079e+07 0 
0 0 0 
-2.31831e+07 8.60371e+06 0 
8.60371e+06 -2.81304e+06 0 
0 0 0 
1.67739e+06 2.62617e+06 0 
2.62617e+06 -1.32998e+07 0 
0 0 0 
-1.25926e+07 1.0138e+06 0 
1.0138e+06 -9.32487e+06 0 
0 0 0 
1.17663e+07 -3.16558e+06 0 
-3.16558e+06 1.10068e+07 0 
0 0 0 
-1.46362e+07 -6.06564e+06 0 
-6.06564e+06 9.31696e+06 0 
0 0 0 
-2.84795e+06 -4.56198e+06 0 
-4.56198e+06 1.48191e+07 0 
0 0 0 
-6.57696e+06 -2.40133e+06 0 
-2.40133e+06 -1.15469e+07 0 
0 0 0 
-1.66622e+07 4.32358e+06 0 
4.32358e+06 -3.3573e+07 0 
0 0 0 
8.45747e+06 2.99672e+06 0 
2.99672e+06 -3.03735e+07 0 
0 0 0 
-4.13394e+07 -1.49791e+06 0 
-1.49791e+06 -5.43601e+07 0 
0 0 0 
6.38775e+06 2.44196e+06 0 
2.44196e+06 -2.95284e+07 0 
0 0 0 
-3.26692e+07 -1.0523e+07 0 
-1.0523e+07 -3.53278e+07 0 
0 0 0 
2.85893e+07 -9.48404e+06 0 
-9.48404e+06 1.34342e+06 0 
0 0 0 
-2.07303e+07 -176199 0 
-176199 -1.75155e+06 0 
0 0 0 
5.30582e+07 -1.43818e+06 0 
-1.43818e+06 3.44557e+06 0 
0 0 0 
-2.45568e+07 6.58757e+06 0 
6.58757e+06 -3.623e+07 0 
0 0 0 
-1.94497e+07 1.92201e+07 0 
1.92201e+07 -5.43367e+07 0 
0 0 0 
-2.33511e+07 8.78595e+06 0 
8.78595e+06 -5.29511e+07 0 
0 0 0 
-3.66213e+07 5.01358e+06 0 
5.01358e+06 -5.587e+07 0 
0 0 0 
6.33622e+06 -4.08795e+06 0 
-4.08795e+06 -4.14127e+07 0 
0 0 0 
-3.34047e+07 -4.63305e+06 0 
-4.63305e+06 -5.06981e+07 0 
0 0 0 
-2.22737e+07 4.45794e+06 0 
4.45794e+06 -4.60163e+07 0 
0 0 0 
-3.40441e+07 7.69771e+06 0 
7.69771e+06 -4.41854e+07 0 
0 0 0 
-1.01477e+06 1.80976e+06 0 
1.80976e+06 -3.59652e+07 0 
0 0 0 
-2.84513e+07 -4.6058e+06 0 
-4.6058e+06 -4.36197e+07 0 
0 0 0 
-1.20121e+07 -2.05983e+06 0 
-2.05983e+06 -4.20056e+07 0 
0 0 0 
-1.03821e+07 -7.53632e+06 0 
-7.53632e+06 -2.79051e+07 0 
0 0 0 
-3.34692e+06 -428410 0 
-428410 -1.68105e+07 0 
0 0 0 
5.52757e+06 2.35521e+06 0 
2.35521e+06 -3.14504e+06 0 
0 0 0 
-2.8692e+06 3.53862e+06 0 
3.53862e+06 -3.2468e+06 0 
0 0 0 
-993319 -3.52134e+06 0 
-3.52134e+06 5.21179e+06 0 
0 0 0 
4.09146e+06 -3.47626e+06 0 
-3.47626e+06 8.40564e+06 0 
0 0 0 
-2.5829e+07 -2.44319e+06 0 
-2.44319e+06 -1.52362e+07 0 
0 0 0 
-29622.6 -5.71706e+06 0 
-5.71706e+06 -2.66055e+07 0 
0 0 0 
-1.38027e+07 -1.71192e+06 0 
-1.71192e+06 -3.34072e+07 0 
0 0 0 
-4.22955e+07 -2.77971e+06 0 
-2.77971e+06 -4.41248e+07 0 
0 0 0 
2.88282e+07 -6.12618e+06 0 
-6.12618e+06 1.13847e+06 0 
0 0 0 
2.86472e+07 -1.90978e+07 0 
-1.90978e+07 1.1236e+07 0 
0 0 0 
1.21062e+07 -1.08793e+07 0 
-1.08793e+07 4.70509e+06 0 
0 0 0 
1.07245e+07 -7.62863e+06 0 
-7.62863e+06 8.78121e+06 0 
0 0 0 
-9.44948e+06 1.05564e+07 0 
1.05564e+07 -1.0495e+07 0 
0 0 0 
-2.9885e+07 8.75347e+06 0 
8.75347e+06 -3.71696e+07 0 
0 0 0 
-3.26986e+07 -6.1913e+06 0 
-6.1913e+06 -6.28452e+07 0 
0 0 0 
-3.10263e+07 -1.70122e+07 0 
-1.70122e+07 -6.44639e+07 0 
0 0 0 
-4.85288e+07 -5.27158e+06 0 
-5.27158e+06 -4.58946e+07 0 
0 0 0 
8.06239e+06 327228 0 
327228 -1.59284e+07 0 
0 0 0 
-5.51795e+06 7.39128e+06 0 
7.39128e+06 9.92482e+06 0 
0 0 0 
2.48995e+07 1.00571e+07 0 
1.00571e+07 3.69671e+07 0 
0 0 0 
2.49857e+07 796315 0 
796315 3.95837e+07 0 
0 0 0 
1.60188e+07 -4.64345e+06 0 
-4.64345e+06 4.55058e+07 0 
0 0 0 
1.71145e+07 2.7297e+06 0 
2.7297e+06 4.2637e+07 0 
0 0 0 
1.71015e+07 -3.74883e+06 0 
-3.74883e+06 3.14038e+07 0 
0 0 0 
-3.38867e+07 -5.35676e+06 0 
-5.35676e+06 6.18138e+06 0 
0 0 0 
1.59014e+07 -6.11073e+06 0 
-6.11073e+06 1.27416e+07 0 
0 0 0 
-3.76474e+07 4.6264e+06 0 
4.6264e+06 -2.20606e+07 0 
0 0 0 
1.0425e+07 4.90862e+06 0 
4.90862e+06 -1.37112e+07 0 
0 0 0 
-2.42268e+07 8.42695e+06 0 
8.42695e+06 -4.21489e+07 0 
0 0 0 
-1.17334e+07 4.56137e+06 0 
4.56137e+06 -2.71973e+07 0 
0 0 0 
-2.64417e+07 4.35268e+06 0 
4.35268e+06 -2.508e+07 0 
0 0 0 
2.60171e+07 989963 0 
989963 -9.23843e+06 0 
0 0 0 
-1.80766e+07 1.10121e+07 0 
1.10121e+07 -3.33931e+07 0 
0 0 0 
9.45992e+06 2.9437e+06 0 
2.9437e+06 -4.29192e+07 0 
0 0 0 
-3.27595e+07 2.90983e+06 0 
2.90983e+06 -6.79546e+07 0 
0 0 0 
-2.95004e+07 5.25481e+06 0 
5.25481e+06 -7.78019e+07 0 
0 0 0 
-5.64346e+07 1.33111e+07 0 
1.33111e+07 -6.8671e+07 0 
0 0 0 
-4.29286e+06 3.66942e+06 0 
3.66942e+06 -3.73654e+07 0 
0 0 0 
-2.81724e+07 -7.1648e+06 0 
-7.1648e+06 -4.65033e+07 0 
0 0 0 
-1.46137e+07 -6.4098e+06 0 
-6.4098e+06 -3.06443e+07 0 
0 0 0 
1.00624e+07 -4.59947e+06 0 
-4.59947e+06 -2.17888e+07 0 
0 0 0 
-2.95904e+07 -253824 0 
-253824 -1.32464e+07 0 
0 0 0 
2.19545e+07 2.04604e+06 0 
2.04604e+06 2.25261e+07 0 
0 0 0 
1.51645e+07 -4.74735e+06 0 
-4.74735e+06 2.93628e+07 0 
0 0 0 
1.97263e+07 -5.4759e+06 0 
-5.4759e+06 2.73798e+07 0 
0 0 0 
2.04463e+07 -8.95772e+06 0 
-8.95772e+06 1.23131e+07 0 
0 0 0 
9.95628e+06 5.59034e+06 0 
5.59034e+06 1.0145e+07 0 
0 0 0 
-1.90058e+07 1.59858e+07 0 
1.59858e+07 1.67664e+07 0 
0 0 0 
-3.35967e+07 8.78184e+06 0 
8.78184e+06 -2.13948e+07 0 
0 0 0 
0 0 0 
0 0 0 
0 0 0 
-2.32601e+06 6.0097e+06 0 
6.0097e+06 1.34861e+07 0 
0 0 0 
3.85977e+06 4.28644e+06 0 
4.28644e+06 6.6676e+07 0 
0 0 0 
-3.84262e+07 -6.1019e+06 0 
-6.1019e+06 -2.41627e+07 0 
0 0 0 
-3.38301e+07 -2.58674e+07 0 
-2.58674e+07 5.74275e+06 0 
0 0 0 
-6.87413e+07 -2.99837e+07 0 
-2.99837e+07 -8.45836e+07 0 
0 0 0 
-4.13453e+07 -2.15843e+07 0 
-2.15843e+07 2.59116e+07 0 
0 0 0 
-2.29094e+07 -1.16785e+07 0 
-1.16785e+07 1.80822e+07 0 
0 0 0 
1.04004e+07 -9.58057e+06 0 
-9.58057e+06 7.1285e+07 0 
0 0 0 
-1.41149e+07 -1.4436e+07 0 
-1.4436e+07 9.79498e+06 0 
0 0 0 
-2.63994e+07 -3.24341e+07 0 
-3.24341e+07 -3.60049e+07 0 
0 0 0 
-1.88139e+07 -4.72523e+07 0 
-4.72523e+07 -2.68144e+07 0 
0 0 0 
-1.34932e+07 -3.26035e+07 0 
-3.26035e+07 -8.07439e+06 0 
0 0 0 
-1.9592e+07 -1.87128e+07 0 
-1.87128e+07 -6.16763e+07 0 
0 0 0 
5.10726e+07 -1.00491e+07 0 
-1.00491e+07 6.55191e+07 0 
0 0 0 
6.31638e+07 -2.95597e+07 0 
-2.95597e+07 5.38622e+07 0 
0 0 0 
7.97961e+07 -3.25714e+07 0 
-3.25714e+07 7.54518e+07 0 
0 0 0 
2.43457e+07 -2.95221e+07 0 
-2.95221e+07 -4.89526e+07 0 
0 0 0 
2.09417e+07 -2.47767e+07 0 
-2.47767e+07 -1.87201e+07 0 
0 0 0 
3.00146e+07 -1.64191e+07 0 
-1.64191e+07 -5.18393e+07 0 
0 0 0 
4.0217e+07 -2.30504e+07 0 
-2.30504e+07 3.32989e+06 0 
0 0 0 
6.09703e+07 -1.27709e+07 0 
-1.27709e+07 4.56411e+07 0 
0 0 0 
5.2856e+07 9.19407e+06 0 
9.19407e+06 6.87732e+06 0 
0 0 0 
1.29148e+07 -3.7576e+06 0 
-3.7576e+06 -3.8252e+07 0 
0 0 0 
1.26272e+07 -1.43491e+06 0 
-1.43491e+06 -4.70171e+07 0 
0 0 0 
-470359 1.42454e+07 0 
1.42454e+07 -6.57703e+07 0 
0 0 0 
2.58195e+07 3.44515e+07 0 
3.44515e+07 -4.89177e+06 0 
0 0 0 
-1.11685e+07 2.93814e+07 0 
2.93814e+07 -2.98661e+07 0 
0 0 0 
-4.2898e+07 1.71562e+07 0 
1.71562e+07 -5.07488e+07 0 
0 0 0 
-2.3635e+07 1.11355e+07 0 
1.11355e+07 -5.83219e+07 0 
0 0 0 
-255735 3.76941e+07 0 
3.76941e+07 -2.27928e+07 0 
0 0 0 
-8.70138e+06 6.43125e+07 0 
6.43125e+07 -4.55852e+07 0 
0 0 0 
-2.09548e+06 6.54454e+07 0 
6.54454e+07 -2.7947e+07 0 
0 0 0 
-1.29072e+06 5.2996e+07 0 
5.2996e+07 -1.69574e+07 0 
0 0 0 
-7.4318e+06 5.65704e+07 0 
5.65704e+07 -3.19051e+07 0 
0 0 0 
3.4383e+07 5.86524e+07 0 
5.86524e+07 3.89878e+07 0 
0 0 0 
5.85195e+07 5.30201e+07 0 
5.30201e+07 6.71015e+07 0 
0 0 0 
5.64175e+07 6.27701e+07 0 
6.27701e+07 5.30103e+07 0 
0 0 0 
7.95064e+07 4.80958e+07 0 
4.80958e+07 9.82214e+07 0 
0 0 0 
7.24175e+07 4.21545e+07 0 
4.21545e+07 7.86625e+07 0 
0 0 0 
4.46228e+07 2.45307e+07 0 
2.45307e+07 6.4926e+07 0 
0 0 0 
2.45853e+07 4.60536e+06 0 
4.60536e+06 2.59385e+07 0 
0 0 0 
2.837e+07 -2.39485e+06 0 
-2.39485e+06 6.20026e+07 0 
0 0 0 
4.48844e+06 1.09239e+07 0 
1.09239e+07 5.83284e+07 0 
0 0 0 
-2.80324e+06 1.10914e+07 0 
1.10914e+07 7.23839e+07 0 
0 0 0 
-2.38571e+07 9.48516e+06 0 
9.48516e+06 -1.71641e+07 0 
0 0 0 
-1.97745e+07 -1.99803e+07 0 
-1.99803e+07 1.8007e+07 0 
0 0 0 
-4.25536e+07 -2.35028e+07 0 
-2.35028e+07 -7.64833e+07 0 
0 0 0 
1.71912e+06 -1.51296e+07 0 
-1.51296e+07 3.6838e+07 0 
0 0 0 
-3.13379e+06 -1.4908e+07 0 
-1.4908e+07 1.87872e+07 0 
0 0 0 
-8.37422e+06 -1.69629e+07 0 
-1.69629e+07 -6.76765e+06 0 
0 0 0 
-2.54979e+07 -1.00062e+07 0 
-1.00062e+07 -6.39696e+07 0 
0 0 0 
-1.60566e+07 -1.44256e+07 0 
-1.44256e+07 -3.57207e+07 0 
0 0 0 
8.33859e+06 -9.35176e+06 0 
-9.35176e+06 3.66727e+07 0 
0 0 0 
1.05666e+07 -6.4378e+06 0 
-6.4378e+06 1.25841e+06 0 
0 0 0 
4.45894e+06 -2.05902e+07 0 
-2.05902e+07 1.02627e+07 0 
0 0 0 
-4.16128e+07 9.67345e+06 0 
9.67345e+06 -5.40355e+07 0 
0 0 0 
-4.13529e+07 -2.3898e+06 0 
-2.3898e+06 -2.763e+07 0 
0 0 0 
-3.05178e+07 2.72902e+06 0 
2.72902e+06 -3.4622e+07 0 
0 0 0 
4.86595e+06 40594.8 0 
40594.8 -5.22146e+06 0 
0 0 0 
1.24639e+07 -6.78306e+06 0 
-6.78306e+06 1.27757e+07 0 
0 0 0 
1.919e+07 3.62355e+06 0 
3.62355e+06 1.9883e+07 0 
0 0 0 
-1.6131e+07 3.25281e+06 0 
3.25281e+06 -3.71565e+07 0 
0 0 0 
-2.71623e+07 4.5447e+06 0 
4.5447e+06 -2.25158e+07 0 
0 0 0 
-8.14444e+06 -1.27545e+06 0 
-1.27545e+06 1.46763e+07 0 
0 0 0 
-9.10382e+06 9.63013e+06 0 
9.63013e+06 -9.60307e+06 0 
0 0 0 
-846611 9.68652e+06 0 
9.68652e+06 -2.76226e+06 0 
0 0 0 
-7.27559e+06 9.31173e+06 0 
9.31173e+06 -612566 0 
0 0 0 
-3.08601e+06 3.37303e+06 0 
3.37303e+06 -1.7751e+07 0 
0 0 0 
1.59256e+07 1.59195e+06 0 
1.59195e+06 2.78117e+07 0 
0 0 0 
2.06498e+07 2.592e+06 0 
2.592e+06 3.60801e+07 0 
0 0 0 
1.33697e+06 3.83683e+06 0 
3.83683e+06 696035 0 
0 0 0 
-5.47976e+06 2.4713e+06 0 
2.4713e+06 -4.47835e+06 0 
0 0 0 
-1.43452e+07 -1.34489e+07 0 
-1.34489e+07 -2.62611e+07 0 
0 0 0 
1.12368e+07 -1.24419e+07 0 
-1.24419e+07 3.30593e+07 0 
0 0 0 
-1.48656e+07 -3.52315e+06 0 
-3.52315e+06 -2.09748e+07 0 
0 0 0 
-2.77492e+07 2.00858e+07 0 
2.00858e+07 -1.4598e+07 0 
0 0 0 
-2.56584e+07 1.56571e+07 0 
1.56571e+07 -6.44735e+06 0 
0 0 0 
-2.81664e+07 -2.00924e+06 0 
-2.00924e+06 -5.36325e+06 0 
0 0 0 
-4.34982e+07 -1.23276e+07 0 
-1.23276e+07 -2.83032e+07 0 
0 0 0 
-1.688e+07 -6.30568e+06 0 
-6.30568e+06 -2.69198e+06 0 
0 0 0 
-1.0146e+07 5.68653e+06 0 
5.68653e+06 4.69144e+06 0 
0 0 0 
-3.13252e+07 1.97621e+07 0 
1.97621e+07 -3.20883e+07 0 
0 0 0 
-3.0422e+07 9.01479e+06 0 
9.01479e+06 -1.83379e+07 0 
0 0 0 
-8.46754e+06 -7.74547e+06 0 
-7.74547e+06 1.19935e+07 0 
0 0 0 
6.09671e+06 -1.35377e+07 0 
-1.35377e+07 2.37298e+07 0 
0 0 0 
-1.51074e+07 -2.93897e+06 0 
-2.93897e+06 -1.27676e+07 0 
0 0 0 
-1.58048e+07 3.43835e+06 0 
3.43835e+06 -2.03966e+07 0 
0 0 0 
3.22188e+06 -6.53774e+06 0 
-6.53774e+06 -3.85674e+06 0 
0 0 0 
2.83431e+07 -8.35996e+06 0 
-8.35996e+06 3.72606e+07 0 
0 0 0 
1.06634e+07 -4.05533e+06 0 
-4.05533e+06 397177 0 
0 0 0 
2.541e+07 8.6751e+06 0 
8.6751e+06 3.32115e+07 0 
0 0 0 
0 0 0 
0 0 0 
0 0 0 
1.31369e+07 17988.9 0 
17988.9 2.2037e+06 0 
0 0 0 
5.52551e+06 77634.9 0 
77634.9 -8.14621e+06 0 
0 0 0 
-3.71028e+07 3.48543e+06 0 
3.48543e+06 -2.81549e+07 0 
0 0 0 
7.21723e+06 4.05503e+06 0 
4.05503e+06 -1.18862e+07 0 
0 0 0 
-1.86222e+07 1.46369e+06 0 
1.46369e+06 -2.04118e+07 0 
0 0 0 
-2.89206e+06 -1.97108e+06 0 
-1.97108e+06 -1.83755e+07 0 
0 0 0 
1.18747e+07 -2.8499e+06 0 
-2.8499e+06 -5.81229e+06 0 
0 0 0 
-2.14174e+07 -9.28051e+06 0 
-9.28051e+06 -2.50007e+07 0 
0 0 0 
9.74397e+06 -9.16874e+06 0 
-9.16874e+06 -1.09632e+07 0 
0 0 0 
-4.06706e+07 1.61698e+06 0 
1.61698e+06 -2.93003e+07 0 
0 0 0 
-2.06455e+06 9.22904e+06 0 
9.22904e+06 -2.51323e+07 0 
0 0 0 
-2.15681e+07 1.31368e+07 0 
1.31368e+07 -1.42945e+07 0 
0 0 0 
1.33898e+07 7.17456e+06 0 
7.17456e+06 -5.04204e+06 0 
0 0 0 
9.96709e+06 4.24482e+06 0 
4.24482e+06 -1.97659e+06 0 
0 0 0 
1.59755e+07 7.81529e+06 0 
7.81529e+06 -9.55555e+06 0 
0 0 0 
-3.21756e+07 -3.36211e+06 0 
-3.36211e+06 -4.63384e+07 0 
0 0 0 
-5.89326e+06 8.40753e+06 0 
8.40753e+06 -4.0342e+07 0 
0 0 0 
-3.40071e+07 9.89482e+06 0 
9.89482e+06 -4.77647e+07 0 
0 0 0 
8.96121e+06 2.42027e+06 0 
2.42027e+06 -1.13029e+07 0 
0 0 0 
-3.88211e+07 199484 0 
199484 -1.1182e+06 0 
0 0 0 
1.57133e+07 -4.9136e+06 0 
-4.9136e+06 4.91642e+06 0 
0 0 0 
-2.02161e+07 -5.72257e+06 0 
-5.72257e+06 -4.76555e+06 0 
0 0 0 
1.36112e+07 -2.09485e+06 0 
-2.09485e+06 1.14947e+07 0 
0 0 0 
1.38168e+07 -5.34647e+06 0 
-5.34647e+06 1.0356e+07 0 
0 0 0 
-7.77691e+06 -1.16687e+06 0 
-1.16687e+06 2.12655e+07 0 
0 0 0 
1.54399e+07 4.57667e+06 0 
4.57667e+06 4.22034e+07 0 
0 0 0 
-4.54489e+06 -3.71663e+06 0 
-3.71663e+06 4.65807e+07 0 
0 0 0 
3.90801e+07 2.99072e+06 0 
2.99072e+06 6.91126e+07 0 
0 0 0 
1.55383e+07 -9.32108e+06 0 
-9.32108e+06 4.54626e+07 0 
0 0 0 
6.31025e+07 -7.74851e+06 0 
-7.74851e+06 5.62945e+07 0 
0 0 0 
1.76385e+07 -9.45218e+06 0 
-9.45218e+06 3.2402e+07 0 
0 0 0 
6.13192e+06 1.03405e+06 0 
1.03405e+06 1.54857e+07 0 
0 0 0 
-719559 1.2301e+07 0 
1.2301e+07 5.87374e+06 0 
0 0 0 
-3.22135e+07 -2.88182e+06 0 
-2.88182e+06 -152284 0 
0 0 0 
1.2164e+07 289963 0 
289963 4.11182e+06 0 
0 0 0 
-1.67307e+07 -8.32817e+06 0 
-8.32817e+06 -1.18e+07 0 
0 0 0 
2.95527e+06 -1.92757e+06 0 
-1.92757e+06 -3.404e+06 0 
0 0 0 
-1.73457e+07 7.62991e+06 0 
7.62991e+06 -1.81934e+07 0 
0 0 0 
-1.42443e+07 -196639 0 
-196639 -1.34813e+07 0 
0 0 0 
-1.36859e+07 -2.70956e+06 0 
-2.70956e+06 -5.30675e+06 0 
0 0 0 
-6.19923e+06 180638 0 
180638 6.99754e+06 0 
0 0 0 
7.70816e+06 -2.56828e+06 0 
-2.56828e+06 6.56347e+06 0 
0 0 0 
1.24152e+07 3.5228e+06 0 
3.5228e+06 1.29312e+07 0 
0 0 0 
1.46833e+07 6.11598e+06 0 
6.11598e+06 1.04871e+07 0 
0 0 0 
-8.13049e+06 -1.81901e+06 0 
-1.81901e+06 5.1511e+06 0 
0 0 0 
-2.37034e+06 -1.68174e+06 0 
-1.68174e+06 1.48895e+07 0 
0 0 0 
5.12649e+06 -1.21359e+07 0 
-1.21359e+07 9.45406e+06 0 
0 0 0 
-1.60833e+07 -6.10644e+06 0 
-6.10644e+06 -1.70347e+06 0 
0 0 0 
2.97473e+06 794390 0 
794390 1.22355e+07 0 
0 0 0 
2.77042e+06 -3.59783e+06 0 
-3.59783e+06 -1.49665e+06 0 
0 0 0 
-1.70927e+07 3.69342e+06 0 
3.69342e+06 -5.43797e+06 0 
0 0 0 
1.49103e+07 1.0025e+07 0 
1.0025e+07 5.25356e+06 0 
0 0 0 
1.44043e+07 -1.10122e+07 0 
-1.10122e+07 1.61409e+07 0 
0 0 0 
2.71684e+07 -8.0655e+06 0 
-8.0655e+06 2.83705e+07 0 
0 0 0 
3.22461e+07 -9.45164e+06 0 
-9.45164e+06 2.75298e+07 0 
0 0 0 
1.0247e+07 273690 0 
273690 1.834e+07 0 
0 0 0 
-2.60084e+07 -7.28057e+06 0 
-7.28057e+06 -1.29186e+07 0 
0 0 0 
-4.82977e+07 -5.30346e+06 0 
-5.30346e+06 -3.54653e+07 0 
0 0 0 
-5.49928e+06 -7.92069e+06 0 
-7.92069e+06 -1.49182e+07 0 
0 0 0 
-3.94149e+07 2.51785e+06 0 
2.51785e+06 -2.79628e+07 0 
0 0 0 
3.5459e+07 1.00271e+07 0 
1.00271e+07 -2.15431e+06 0 
0 0 0 
-3.63407e+06 1.58458e+07 0 
1.58458e+07 -1.47728e+07 0 
0 0 0 
-1.62352e+06 1.12392e+07 0 
1.12392e+07 -7.36128e+06 0 
0 0 0 
-5.6072e+06 -156726 0 
-156726 -1.19401e+07 0 
0 0 0 
7.2388e+06 1.12724e+06 0 
1.12724e+06 -6.16497e+06 0 
0 0 0 
-7.86678e+06 -9.25262e+06 0 
-9.25262e+06 -3.52935e+06 0 
0 0 0 
1.48668e+07 -4.14762e+06 0 
-4.14762e+06 2.04573e+07 0 
0 0 0 
-2.76469e+07 2.8446e+06 0 
2.8446e+06 2.84473e+07 0 
0 0 0 
2.50114e+07 -8.25655e+06 0 
-8.25655e+06 5.76361e+07 0 
0 0 0 
1.3622e+06 -7.04058e+06 0 
-7.04058e+06 5.70948e+07 0 
0 0 0 
3.7003e+07 -530510 0 
-530510 5.793e+07 0 
0 0 0 
353390 -2.45791e+06 0 
-2.45791e+06 3.90311e+07 0 
0 0 0 
1.85293e+07 3.85661e+06 0 
3.85661e+06 3.63117e+07 0 
0 0 0 
-1.04778e+07 2.2671e+06 0 
2.2671e+06 3.16856e+07 0 
0 0 0 
3.80717e+07 1.32557e+07 0 
1.32557e+07 5.03816e+07 0 
0 0 0 
1.3691e+07 -3.68336e+06 0 
-3.68336e+06 4.23524e+07 0 
0 0 0 
4.06571e+07 -458885 0 
-458885 5.54146e+07 0 
0 0 0 
-4.23742e+06 -6.92198e+06 0 
-6.92198e+06 1.89691e+07 0 
0 0 0 
-252627 2.3303e+06 0 
2.3303e+06 8.68766e+06 0 
0 0 0 
-2.87382e+07 7.70878e+06 0 
7.70878e+06 -1.38486e+07 0 
0 0 0 
-6.44901e+06 2.07075e+07 0 
2.07075e+07 -1.70419e+07 0 
0 0 0 
-2.68682e+07 4.98157e+06 0 
4.98157e+06 4.06946e+06 0 
0 0 0 
1.68472e+07 7.33759e+06 0 
7.33759e+06 3.0713e+07 0 
0 0 0 
2.88432e+07 5.57096e+06 0 
5.57096e+06 4.86057e+07 0 
0 0 0 
9.74431e+06 1.69997e+07 0 
1.69997e+07 4.61848e+07 0 
0 0 0 
1.14795e+07 6.04055e+06 0 
6.04055e+06 4.04245e+07 0 
0 0 0 
1.69548e+07 1.22475e+07 0 
1.22475e+07 3.95368e+07 0 
0 0 0 
905454 -7.6136e+06 0 
-7.6136e+06 3.06257e+07 0 
0 0 0 
4.12899e+07 -4.00348e+06 0 
-4.00348e+06 4.84443e+07 0 
0 0 0 
2.38921e+07 -2.25865e+06 0 
-2.25865e+06 3.40901e+07 0 
0 0 0 
-1.13891e+07 -1.03215e+06 0 
-1.03215e+06 1.22918e+07 0 
0 0 0 
1.62693e+07 1.52999e+07 0 
1.52999e+07 -1.7884e+07 0 
0 0 0 
2.411e+07 -6.64085e+06 0 
-6.64085e+06 8.93017e+06 0 
0 0 0 
0 0 0 
0 0 0 
0 0 0 
8.93555e+06 3.31331e+06 0 
3.31331e+06 2.82877e+07 0 
0 0 0 
1.58848e+07 -1.2807e+07 0 
-1.2807e+07 4.5232e+07 0 
0 0 0 
-4.4796e+06 -1.26829e+07 0 
-1.26829e+07 -2.29345e+07 0 
0 0 0 
-2.36752e+07 -2.27243e+07 0 
-2.27243e+07 -8.25464e+06 0 
0 0 0 
-4.86722e+07 -2.57668e+07 0 
-2.57668e+07 -6.66608e+07 0 
0 0 0 
1.33716e+07 -8.47632e+06 0 
-8.47632e+06 5.54825e+07 0 
0 0 0 
-1.05743e+07 -2.1244e+06 0 
-2.1244e+06 3.37882e+07 0 
0 0 0 
-6.8161e+06 -1.17794e+07 0 
-1.17794e+07 6.46779e+07 0 
0 0 0 
-3.24918e+07 -1.97951e+07 0 
-1.97951e+07 -2.83499e+07 0 
0 0 0 
-4.44871e+07 -2.64867e+07 0 
-2.64867e+07 -4.69716e+07 0 
0 0 0 
-4.72155e+07 -3.48181e+07 0 
-3.48181e+07 -6.30094e+07 0 
0 0 0 
-8.96858e+06 -3.33997e+07 0 
-3.33997e+07 3.67903e+07 0 
0 0 0 
-3.01523e+07 -1.20327e+07 0 
-1.20327e+07 -5.0357e+07 0 
0 0 0 
754104 -2.51363e+06 0 
-2.51363e+06 4.74499e+07 0 
0 0 0 
-2.54901e+07 -2.28893e+07 0 
-2.28893e+07 -3.10779e+06 0 
0 0 0 
-4.54377e+06 -2.19483e+07 0 
-2.19483e+07 3.188e+07 0 
0 0 0 
-761885 -2.83754e+07 0 
-2.83754e+07 -3.31098e+07 0 
0 0 0 
3.28663e+06 -1.40837e+07 0 
-1.40837e+07 -1.37802e+07 0 
0 0 0 
-4.24321e+07 -1.41074e+07 0 
-1.41074e+07 -6.80313e+07 0 
0 0 0 
-2.14741e+07 -9.56201e+06 0 
-9.56201e+06 -2.67385e+07 0 
0 0 0 
1.20955e+07 -8.09072e+06 0 
-8.09072e+06 2.9596e+07 0 
0 0 0 
2.38245e+06 -1.7584e+07 0 
-1.7584e+07 -5.43299e+06 0 
0 0 0 
-9.3061e+06 -1.50443e+07 0 
-1.50443e+07 -5.44077e+07 0 
0 0 0 
-1.87759e+07 -4.78224e+06 0 
-4.78224e+06 -4.42834e+07 0 
0 0 0 
-2.13528e+07 3.47803e+06 0 
3.47803e+06 -3.85342e+07 0 
0 0 0 
-3.99105e+07 2.40845e+07 0 
2.40845e+07 -2.09836e+07 0 
0 0 0 
-6.13385e+07 2.36619e+07 0 
2.36619e+07 -6.14448e+07 0 
0 0 0 
-4.6088e+07 3.31188e+07 0 
3.31188e+07 -5.54521e+07 0 
0 0 0 
-3.22685e+07 3.05144e+07 0 
3.05144e+07 -3.79416e+07 0 
0 0 0 
-5.46851e+06 4.1796e+07 0 
4.1796e+07 -2.29423e+07 0 
0 0 0 
127417 4.55448e+07 0 
4.55448e+07 -2.67561e+07 0 
0 0 0 
-3.11521e+07 4.97359e+07 0 
4.97359e+07 -2.97464e+07 0 
0 0 0 
-6.21629e+07 4.92888e+07 0 
4.92888e+07 -4.72728e+07 0 
0 0 0 
-4.53798e+07 7.51346e+07 0 
7.51346e+07 -3.77109e+07 0 
0 0 0 
-4.11029e+06 7.30916e+07 0 
7.30916e+07 3.04274e+07 0 
0 0 0 
1.18129e+07 6.5353e+07 0 
6.5353e+07 4.18442e+07 0 
0 0 0 
1.11492e+07 5.48298e+07 0 
5.48298e+07 1.25493e+07 0 
0 0 0 
3.76637e+07 4.9151e+07 0 
4.9151e+07 9.88312e+07 0 
0 0 0 
4.91193e+06 3.55386e+07 0 
3.55386e+07 2.45567e+07 0 
0 0 0 
2.05713e+07 2.44081e+07 0 
2.44081e+07 4.09709e+07 0 
0 0 0 
2.02503e+07 9.51537e+06 0 
9.51537e+06 -2.77864e+06 0 
0 0 0 
4.5242e+07 305320 0 
305320 6.64935e+07 0 
0 0 0 
6.59869e+07 7.25767e+06 0 
7.25767e+06 9.04869e+07 0 
0 0 0 
7.0107e+07 -264539 0 
-264539 8.70031e+07 0 
0 0 0 
2.30986e+06 1.7081e+06 0 
1.7081e+06 -1.82399e+07 0 
0 0 0 
-2.47404e+06 -1.92556e+07 0 
-1.92556e+07 -1.19473e+06 0 
0 0 0 
-2.07451e+07 -1.80697e+07 0 
-1.80697e+07 -8.01462e+07 0 
0 0 0 
1.29599e+07 -1.96813e+07 0 
-1.96813e+07 4.98479e+07 0 
0 0 0 
-2.20769e+07 -2.05296e+07 0 
-2.05296e+07 9.6444e+06 0 
0 0 0 
-4.13363e+07 -2.03944e+07 0 
-2.03944e+07 -7.16099e+06 0 
0 0 0 
-6.14168e+07 -4.61374e+06 0 
-4.61374e+06 -7.20697e+07 0 
0 0 0 
-3.13333e+07 -7.06602e+06 0 
-7.06602e+06 -3.98403e+07 0 
0 0 0 
6.10542e+06 -1.47719e+07 0 
-1.47719e+07 2.61308e+07 0 
0 0 0 
-1.0025e+07 -1.741e+07 0 
-1.741e+07 -1.1658e+07 0 
0 0 0 
1.04556e+07 -2.06593e+07 0 
-2.06593e+07 3.58388e+07 0 
0 0 0 
-1.44675e+07 -2.63214e+06 0 
-2.63214e+06 -3.78512e+07 0 
0 0 0 
2.16591e+06 1.11531e+07 0 
1.11531e+07 -1.11565e+07 0 
0 0 0 
4.3171e+06 1.77635e+07 0 
1.77635e+07 -3.01605e+07 0 
0 0 0 
-8.08073e+06 -757320 0 
-757320 -1.61518e+07 0 
0 0 0 
1.28406e+07 -6.01287e+06 0 
-6.01287e+06 2.05275e+07 0 
0 0 0 
1.1906e+07 -1.68173e+06 0 
-1.68173e+06 1.93464e+07 0 
0 0 0 
-2.93375e+06 -428920 0 
-428920 -2.87831e+07 0 
0 0 0 
-428518 6.0588e+06 0 
6.0588e+06 -1.65643e+07 0 
0 0 0 
6.15304e+06 3.896e+06 0 
3.896e+06 2.90788e+07 0 
0 0 0 
5.61085e+06 1.34901e+07 0 
1.34901e+07 -178928 0 
0 0 0 
-9.63664e+06 8.54775e+06 0 
8.54775e+06 -1.77843e+07 0 
0 0 0 
-9.88123e+06 1.69751e+07 0 
1.69751e+07 6.41704e+06 0 
0 0 0 
-2.02899e+07 3.54227e+06 0 
3.54227e+06 -3.83295e+07 0 
0 0 0 
1.29393e+07 2.85088e+06 0 
2.85088e+06 2.41042e+07 0 
0 0 0 
1.50333e+07 251570 0 
251570 3.79366e+07 0 
0 0 0 
-130832 -4.98836e+06 0 
-4.98836e+06 -3.35712e+06 0 
0 0 0 
-6.45615e+06 5.97364e+06 0 
5.97364e+06 2.77244e+06 0 
0 0 0 
-2.03393e+07 -6.63091e+06 0 
-6.63091e+06 -4.83686e+07 0 
0 0 0 
586024 -1.51817e+07 0 
-1.51817e+07 2.79696e+07 0 
0 0 0 
-1.87804e+06 -4.1826e+06 0 
-4.1826e+06 1.63463e+07 0 
0 0 0 
4.95916e+06 4.61345e+06 0 
4.61345e+06 5.4356e+06 0 
0 0 0 
-395115 1.22008e+07 0 
1.22008e+07 -1.09888e+07 0 
0 0 0 
-4.02789e+06 -835889 0 
-835889 -2.12011e+07 0 
0 0 0 
1.97394e+07 -6.77786e+06 0 
-6.77786e+06 -1.07768e+07 0 
0 0 0 
4.59332e+07 393261 0 
393261 3.10694e+07 0 
0 0 0 
5.11385e+07 8.13121e+06 0 
8.13121e+06 4.08932e+07 0 
0 0 0 
2.10329e+07 9.09938e+06 0 
9.09938e+06 -1.31581e+07 0 
0 0 0 
-2.01594e+06 6.24298e+06 0 
6.24298e+06 -2.61049e+07 0 
0 0 0 
-1.31856e+06 1.20752e+06 0 
1.20752e+06 1.02288e+07 0 
0 0 0 
-1.04395e+07 -1.01383e+07 0 
-1.01383e+07 1.27506e+07 0 
0 0 0 
-5.36265e+06 2.81519e+06 0 
2.81519e+06 -2.33984e+06 0 
0 0 0 
-1.12578e+07 5.00861e+06 0 
5.00861e+06 -1.50546e+07 0 
0 0 0 
-1.77169e+07 -2.18901e+06 0 
-2.18901e+06 -2.42196e+07 0 
0 0 0 
7.46814e+06 -1.01444e+07 0 
-1.01444e+07 2.38086e+07 0 
0 0 0 
2.12114e+07 -7.91444e+06 0 
-7.91444e+06 2.27394e+07 0 
0 0 0 
1.59158e+07 -1.66289e+06 0 
-1.66289e+06 3.96838e+07 0 
0 0 0 
-4.38028e+07 4.71634e+06 0 
4.71634e+06 -4.23637e+07 0 
0 0 0 
0 0 0 
0 0 0 
0 0 0 
8.67398e+06 4.13478e+06 0 
4.13478e+06 4.0152e+06 0 
0 0 0 
1.0451e+07 -7.90472e+06 0 
-7.90472e+06 4.29895e+06 0 
0 0 0 
-1.55382e+07 -7.83529e+06 0 
-7.83529e+06 -4.53693e+06 0 
0 0 0 
2.11346e+06 -889894 0 
-889894 -1.05671e+07 0 
0 0 0 
-4.15763e+07 5.8111e+06 0 
5.8111e+06 -4.62149e+07 0 
0 0 0 
4.92034e+06 5.00313e+06 0 
5.00313e+06 -3.55078e+07 0 
0 0 0 
-5.7479e+06 -392671 0 
-392671 -2.60677e+07 0 
0 0 0 
-1.66468e+07 -4.09886e+06 0 
-4.09886e+06 1.69049e+06 0 
0 0 0 
3.48749e+07 -1.45259e+06 0 
-1.45259e+06 2.99289e+07 0 
0 0 0 
-7.0129e+06 -1.33719e+06 0 
-1.33719e+06 2.53021e+07 0 
0 0 0 
2.42074e+07 5.55592e+06 0 
5.55592e+06 4.38699e+07 0 
0 0 0 
-1.90885e+07 3.84239e+06 0 
3.84239e+06 1.61343e+07 0 
0 0 0 
2.93661e+07 -979089 0 
-979089 4.28335e+07 0 
0 0 0 
6.45989e+06 -7.9899e+06 0 
-7.9899e+06 3.7288e+07 0 
0 0 0 
3.7941e+07 -1.51096e+07 0 
-1.51096e+07 3.94277e+07 0 
0 0 0 
-1.17619e+07 -9.01046e+06 0 
-9.01046e+06 2.7774e+07 0 
0 0 0 
4.28264e+07 -4.17409e+06 0 
-4.17409e+06 2.85261e+07 0 
0 0 0 
-3.75173e+07 1.05059e+07 0 
1.05059e+07 -1.26201e+07 0 
0 0 0 
759086 7.31855e+06 0 
7.31855e+06 -1.2981e+07 0 
0 0 0 
-4.72869e+07 777035 0 
777035 -4.78705e+07 0 
0 0 0 
-1.27248e+07 -1.1557e+07 0 
-1.1557e+07 -2.22347e+07 0 
0 0 0 
-1.95674e+07 -1.03392e+07 0 
-1.03392e+07 -1.64944e+07 0 
0 0 0 
1.9549e+07 -2.79311e+06 0 
-2.79311e+06 -2.37121e+06 0 
0 0 0 
9.26518e+06 4.669e+06 0 
4.669e+06 3.09535e+06 0 
0 0 0 
1.95632e+06 8.41635e+06 0 
8.41635e+06 4.70877e+06 0 
0 0 0 
-7.56542e+06 1.23228e+07 0 
1.23228e+07 -7.30129e+06 0 
0 0 0 
-2.02737e+07 8.38415e+06 0 
8.38415e+06 -1.67654e+07 0 
0 0 0 
-2.52974e+06 8.86335e+06 0 
8.86335e+06 -9.00576e+06 0 
0 0 0 
957924 -5.08523e+06 0 
-5.08523e+06 9.67397e+06 0 
0 0 0 
4.98779e+07 -9.92015e+06 0 
-9.92015e+06 3.03756e+07 0 
0 0 0 
2.67557e+07 -7.98095e+06 0 
-7.98095e+06 3.39515e+07 0 
0 0 0 
1.96424e+07 -4.15355e+06 0 
-4.15355e+06 3.2241e+07 0 
0 0 0 
1.02202e+07 3.11944e+06 0 
3.11944e+06 1.54205e+07 0 
0 0 0 
-4.45684e+07 -2.38588e+06 0 
-2.38588e+06 -1.68976e+07 0 
0 0 0 
534382 -7.95604e+06 0 
-7.95604e+06 2.26994e+06 0 
0 0 0 
-2.02116e+07 -1.08004e+07 0 
-1.08004e+07 -1.73169e+06 0 
0 0 0 
2.348e+07 -3.38374e+06 0 
-3.38374e+06 8.96756e+06 0 
0 0 0 
-1.00749e+07 -4.05978e+06 0 
-4.05978e+06 2.13717e+06 0 
0 0 0 
-2.61733e+06 3.85585e+06 0 
3.85585e+06 4.83906e+06 0 
0 0 0 
-1.58087e+07 6.02211e+06 0 
6.02211e+06 1.34443e+07 0 
0 0 0 
653392 2.84254e+06 0 
2.84254e+06 2.381e+07 0 
0 0 0 
2.19748e+07 2.94216e+06 0 
2.94216e+06 3.84752e+07 0 
0 0 0 
1.5307e+07 3.5144e+06 0 
3.5144e+06 3.00349e+07 0 
0 0 0 
2.56113e+07 -1.06921e+06 0 
-1.06921e+06 2.30445e+07 0 
0 0 0 
-2.72876e+07 4.15496e+06 0 
4.15496e+06 -3.79902e+06 0 
0 0 0 
-4.1675e+06 -3.1898e+06 0 
-3.1898e+06 -8.06667e+06 0 
0 0 0 
-1.09519e+07 -1.18745e+07 0 
-1.18745e+07 -1.10009e+07 0 
0 0 0 
-1.09276e+07 -7.98278e+06 0 
-7.98278e+06 -1.32442e+07 0 
0 0 0 
-911334 -4.8437e+06 0 
-4.8437e+06 -1.83392e+07 0 
0 0 0 
3.41191e+06 1.08136e+06 0 
1.08136e+06 -1.23758e+07 0 
0 0 0 
-1.62146e+07 8.14924e+06 0 
8.14924e+06 -3.04665e+07 0 
0 0 0 
-1.75901e+07 1.15855e+06 0 
1.15855e+06 -3.62987e+07 0 
0 0 0 
4.32505e+06 1.55805e+06 0 
1.55805e+06 -2.8e+07 0 
0 0 0 
-4.7587e+06 -3.25156e+06 0 
-3.25156e+06 -2.76444e+07 0 
0 0 0 
1.6106e+07 -7.29018e+06 0 
-7.29018e+06 -1.91254e+07 0 
0 0 0 
-1.06795e+07 -1.56012e+07 0 
-1.56012e+07 -3.28576e+07 0 
0 0 0 
-1.77184e+07 -1.36218e+07 0 
-1.36218e+07 -3.31856e+07 0 
0 0 0 
-4.4887e+07 -6.68088e+06 0 
-6.68088e+06 -2.27919e+07 0 
0 0 0 
4.18762e+06 4.15854e+06 0 
4.15854e+06 444495 0 
0 0 0 
-2.91956e+07 2.22907e+06 0 
2.22907e+06 -6.92793e+06 0 
0 0 0 
5.11372e+07 7.76038e+06 0 
7.76038e+06 8.63492e+06 0 
0 0 0 
-1.83957e+06 1.24073e+07 0 
1.24073e+07 -1.31422e+07 0 
0 0 0 
-1.69328e+07 5.57296e+06 0 
5.57296e+06 -2.7986e+07 0 
0 0 0 
-1.06871e+07 2.75963e+06 0 
2.75963e+06 -1.65162e+07 0 
0 0 0 
-1.72157e+07 -8.53572e+06 0 
-8.53572e+06 -1.82458e+07 0 
0 0 0 
454217 -5.5189e+06 0 
-5.5189e+06 -1.24177e+07 0 
0 0 0 
3.16603e+06 1.48241e+06 0 
1.48241e+06 -6.44866e+06 0 
0 0 0 
-3.64139e+07 -4.09886e+06 0 
-4.09886e+06 -2.46531e+07 0 
0 0 0 
-1.04185e+07 -2.33715e+06 0 
-2.33715e+06 -1.13959e+07 0 
0 0 0 
-1.89331e+07 -8.44553e+06 0 
-8.44553e+06 -1.90345e+07 0 
0 0 0 
2.72207e+07 -3.22087e+06 0 
-3.22087e+06 5.99637e+06 0 
0 0 0 
-1.23283e+07 -5.87724e+06 0 
-5.87724e+06 -2.71437e+06 0 
0 0 0 
2.97278e+07 1.44973e+07 0 
1.44973e+07 2.17131e+07 0 
0 0 0 
-2.23659e+07 2.6202e+06 0 
2.6202e+06 9.86703e+06 0 
0 0 0 
3.35906e+07 8.36488e+06 0 
8.36488e+06 2.51454e+07 0 
0 0 0 
-1.44647e+07 4.92222e+06 0 
4.92222e+06 9.24745e+06 0 
0 0 0 
1.98554e+07 -6.25315e+06 0 
-6.25315e+06 2.06432e+07 0 
0 0 0 
1.83154e+07 -2.07188e+07 0 
-2.07188e+07 4.31986e+07 0 
0 0 0 
3.06879e+06 1.29496e+06 0 
1.29496e+06 4.23403e+07 0 
0 0 0 
1.55426e+07 3.87734e+06 0 
3.87734e+06 5.21818e+07 0 
0 0 0 
7.88944e+06 4.50612e+06 0 
4.50612e+06 4.8194e+07 0 
0 0 0 
-2.2474e+07 7.35224e+06 0 
7.35224e+06 4.63371e+06 0 
0 0 0 
-4909.51 5.67381e+06 0 
5.67381e+06 6.44738e+06 0 
0 0 0 
3.19398e+07 3.23456e+06 0 
3.23456e+06 -3.75938e+06 0 
0 0 0 
-2.56594e+07 1.44917e+07 0 
1.44917e+07 -4.06412e+07 0 
0 0 0 
-1.34144e+07 4.44879e+06 0 
4.44879e+06 -3.33038e+07 0 
0 0 0 
-1.24697e+07 1.15023e+07 0 
1.15023e+07 -2.07875e+07 0 
0 0 0 
-1.05728e+07 1.09803e+06 0 
1.09803e+06 -2.02429e+06 0 
0 0 0 
1.51048e+07 6.04978e+06 0 
6.04978e+06 8.69227e+06 0 
0 0 0 
1.65329e+07 -7.06696e+06 0 
-7.06696e+06 -2.95653e+06 0 
0 0 0 
-3.02405e+07 168197 0 
168197 -3.17368e+07 0 
0 0 0 
8.5887e+06 -1.0199e+07 0 
-1.0199e+07 -2.40571e+07 0 
0 0 0 
-4.94409e+07 -4.35978e+06 0 
-4.35978e+06 -3.47448e+07 0 
0 0 0 
-3.64427e+07 -2.31256e+06 0 
-2.31256e+06 -3.63457e+07 0 
0 0 0 
0 0 0 
0 0 0 
0 0 0 
-476632 -3.81503e+06 0 
-3.81503e+06 2.59777e+07 0 
0 0 0 
-5.36969e+06 1.19851e+06 0 
1.19851e+06 1.86021e+07 0 
0 0 0 
-2.31597e+07 -1.18858e+07 0 
-1.18858e+07 -3.03413e+07 0 
0 0 0 
-2.45596e+06 -2.76572e+07 0 
-2.76572e+07 -7.7231e+06 0 
0 0 0 
5.51035e+06 -1.26619e+07 0 
-1.26619e+07 -5.17548e+07 0 
0 0 0 
5.50379e+07 -1.61665e+07 0 
-1.61665e+07 8.86668e+07 0 
0 0 0 
5.25537e+07 -1.68708e+07 0 
-1.68708e+07 4.45193e+07 0 
0 0 0 
7.1985e+07 -1.66197e+07 0 
-1.66197e+07 8.31083e+07 0 
0 0 0 
4.11607e+07 -2.73717e+07 0 
-2.73717e+07 -1.88311e+07 0 
0 0 0 
4.11157e+07 -3.21196e+07 0 
-3.21196e+07 -6.3164e+06 0 
0 0 0 
2.9442e+07 -2.44292e+07 0 
-2.44292e+07 -4.09412e+07 0 
0 0 0 
7.65504e+07 -1.96252e+07 0 
-1.96252e+07 6.91393e+07 0 
0 0 0 
5.51921e+07 -1.00872e+07 0 
-1.00872e+07 7.50691e+06 0 
0 0 0 
5.03209e+07 -1.29827e+07 0 
-1.29827e+07 4.89924e+07 0 
0 0 0 
4.17023e+07 -2.06709e+07 0 
-2.06709e+07 1.36433e+07 0 
0 0 0 
3.39106e+07 -1.95763e+07 0 
-1.95763e+07 2.55763e+07 0 
0 0 0 
4.22536e+06 -1.97423e+07 0 
-1.97423e+07 -2.70138e+07 0 
0 0 0 
1.62068e+07 -4.6017e+07 0 
-4.6017e+07 -1.13663e+07 0 
0 0 0 
9.72815e+06 -3.14005e+07 0 
-3.14005e+07 -3.92446e+07 0 
0 0 0 
3.35185e+07 -2.00773e+07 0 
-2.00773e+07 4.84886e+06 0 
0 0 0 
5.7011e+07 2.06339e+06 0 
2.06339e+06 4.28654e+07 0 
0 0 0 
5.0971e+07 1.00061e+06 0 
1.00061e+06 -4.55422e+06 0 
0 0 0 
4.64738e+07 -1.09037e+07 0 
-1.09037e+07 -3.40281e+07 0 
0 0 0 
6.19941e+07 -1.62022e+07 0 
-1.62022e+07 -2.1573e+07 0 
0 0 0 
7.56135e+07 -5.9712e+06 0 
-5.9712e+06 2.627e+07 0 
0 0 0 
9.3868e+07 1.31799e+07 0 
1.31799e+07 4.6279e+07 0 
0 0 0 
8.13286e+07 2.55237e+07 0 
2.55237e+07 -1.03929e+07 0 
0 0 0 
7.54767e+07 3.19916e+07 0 
3.19916e+07 -1.24272e+07 0 
0 0 0 
8.07318e+07 2.74619e+07 0 
2.74619e+07 4.58597e+06 0 
0 0 0 
7.63501e+07 4.27505e+07 0 
4.27505e+07 -3.76562e+06 0 
0 0 0 
3.92789e+07 3.10593e+07 0 
3.10593e+07 -1.44341e+07 0 
0 0 0 
4.23944e+07 3.76478e+07 0 
3.76478e+07 4.31103e+06 0 
0 0 0 
7.09281e+07 3.82187e+07 0 
3.82187e+07 1.89758e+07 0 
0 0 0 
6.57841e+07 7.64936e+07 0 
7.64936e+07 2.15611e+07 0 
0 0 0 
5.35876e+07 6.59755e+07 0 
6.59755e+07 3.58712e+07 0 
0 0 0 
3.58712e+07 5.34135e+07 0 
5.34135e+07 3.1527e+07 0 
0 0 0 
4.20099e+06 4.90226e+07 0 
4.90226e+07 -1.16521e+07 0 
0 0 0 
5.62805e+06 3.05088e+07 0 
3.05088e+07 9.20482e+07 0 
0 0 0 
-4.17955e+07 2.27429e+07 0 
2.27429e+07 -1.77493e+07 0 
0 0 0 
-3.16474e+07 2.0047e+07 0 
2.0047e+07 2.47278e+07 0 
0 0 0 
-4.32001e+07 1.44595e+07 0 
1.44595e+07 -5.01361e+07 0 
0 0 0 
3.51116e+07 4.28791e+06 0 
4.28791e+06 7.41935e+07 0 
0 0 0 
3.96027e+07 1.23447e+07 0 
1.23447e+07 7.04842e+07 0 
0 0 0 
2.34855e+07 -586154 0 
-586154 7.41291e+07 0 
0 0 0 
-2.52067e+07 -1.156e+07 0 
-1.156e+07 -5.00877e+07 0 
0 0 0 
-2.01943e+07 -2.4059e+07 0 
-2.4059e+07 -3.25435e+07 0 
0 0 0 
-2.73853e+07 -1.84476e+07 0 
-1.84476e+07 -6.33537e+07 0 
0 0 0 
5.41048e+06 -1.88024e+07 0 
-1.88024e+07 4.09612e+07 0 
0 0 0 
251111 -2.05737e+07 0 
-2.05737e+07 1.33504e+07 0 
0 0 0 
3.23944e+06 -2.36536e+07 0 
-2.36536e+07 1.1447e+07 0 
0 0 0 
-1.3569e+07 -8.21362e+06 0 
-8.21362e+06 -4.39966e+07 0 
0 0 0 
8859.32 2.65048e+06 0 
2.65048e+06 -1.23557e+07 0 
0 0 0 
8.66032e+06 -802560 0 
-802560 -965959 0 
0 0 0 
2.70039e+06 -5.65523e+06 0 
-5.65523e+06 -611830 0 
0 0 0 
2.89666e+07 -1.36115e+07 0 
-1.36115e+07 4.30228e+07 0 
0 0 0 
2.05225e+07 -1.13204e+07 0 
-1.13204e+07 -1.64279e+07 0 
0 0 0 
-1.3155e+07 -3.39799e+06 0 
-3.39799e+06 -2.28244e+06 0 
0 0 0 
-4.84138e+07 8.96471e+06 0 
8.96471e+06 -5.22632e+07 0 
0 0 0 
-2.85982e+07 4.00052e+06 0 
4.00052e+06 -2.39371e+07 0 
0 0 0 
-1.32506e+07 7.88026e+06 0 
7.88026e+06 5.88422e+06 0 
0 0 0 
6.99027e+06 -3.35295e+06 0 
-3.35295e+06 1.638e+07 0 
0 0 0 
-5.52706e+06 1.83458e+06 0 
1.83458e+06 -1.11368e+07 0 
0 0 0 
-2.06802e+07 1.83574e+06 0 
1.83574e+06 -3.04659e+07 0 
0 0 0 
8.58556e+06 4.40764e+06 0 
4.40764e+06 2.4627e+07 0 
0 0 0 
-2.70324e+06 180507 0 
180507 -3.85033e+06 0 
0 0 0 
-8.70242e+06 3.06081e+06 0 
3.06081e+06 1.2172e+07 0 
0 0 0 
-2.19967e+07 1.92623e+07 0 
1.92623e+07 -9.39398e+06 0 
0 0 0 
-4.65344e+07 1.28439e+07 0 
1.28439e+07 -6.27326e+07 0 
0 0 0 
-3.86972e+07 4.16315e+06 0 
4.16315e+06 1.87366e+06 0 
0 0 0 
-2.24101e+07 1.45392e+06 0 
1.45392e+06 1.35466e+07 0 
0 0 0 
-1.02247e+07 -2.66204e+06 0 
-2.66204e+06 6.01673e+06 0 
0 0 0 
338847 1.62644e+06 0 
1.62644e+06 1.56889e+07 0 
0 0 0 
-1.70939e+07 -191063 0 
-191063 -6.46602e+07 0 
0 0 0 
3.23201e+07 -1.24742e+07 0 
-1.24742e+07 2.70639e+07 0 
0 0 0 
3.60935e+07 -1.33078e+07 0 
-1.33078e+07 4.09399e+07 0 
0 0 0 
1.22667e+07 79431.1 0 
79431.1 2.11904e+07 0 
0 0 0 
-1.02215e+07 8.04995e+06 0 
8.04995e+06 -5.05561e+06 0 
0 0 0 
-2.89464e+07 117418 0 
117418 -4.85058e+07 0 
0 0 0 
-2.71519e+07 6.68715e+06 0 
6.68715e+06 -2.60016e+07 0 
0 0 0 
-1.00436e+06 6.92614e+06 0 
6.92614e+06 2.06177e+07 0 
0 0 0 
1.41304e+07 2.76323e+06 0 
2.76323e+06 3.431e+07 0 
0 0 0 
-4.92459e+06 3.4163e+06 0 
3.4163e+06 -1.35363e+07 0 
0 0 0 
-2.59129e+07 4.12671e+06 0 
4.12671e+06 -4.18533e+07 0 
0 0 0 
-1.31914e+07 -426510 0 
-426510 -1.49175e+06 0 
0 0 0 
1.57067e+07 -7.6317e+06 0 
-7.6317e+06 2.02619e+07 0 
0 0 0 
1.23671e+07 5.11502e+06 0 
5.11502e+06 9.59754e+06 0 
0 0 0 
-2.66501e+06 1.74034e+06 0 
1.74034e+06 -9.96879e+06 0 
0 0 0 
-2.40199e+07 1.90824e+06 0 
1.90824e+06 -4.04038e+07 0 
0 0 0 
4.73527e+06 7.87458e+06 0 
7.87458e+06 2.49869e+07 0 
0 0 0 
9.26249e+06 -2.10037e+06 0 
-2.10037e+06 8.39884e+06 0 
0 0 0 
2.52049e+07 -1.17526e+07 0 
-1.17526e+07 5.47078e+07 0 
0 0 0 
-1.31619e+06 -5.40703e+06 0 
-5.40703e+06 -2.76037e+07 0 
0 0 0 
2.08421e+06 158064 0 
158064 -1.65604e+07 0 
0 0 0 
0 0 0 
0 0 0 
0 0 0 
5.97177e+06 112805 0 
112805 -3.38525e+06 0 
0 0 0 
-382669 660821 0 
660821 -1.98337e+06 0 
0 0 0 
-1.05026e+07 -5.74812e+06 0 
-5.74812e+06 -3.4725e+06 0 
0 0 0 
2.24619e+07 -6.76926e+06 0 
-6.76926e+06 1.71484e+06 0 
0 0 0 
-2.62961e+07 9.38125e+06 0 
9.38125e+06 -5.53814e+06 0 
0 0 0 
1.23958e+07 6.65206e+06 0 
6.65206e+06 1.4311e+06 0 
0 0 0 
-2.76032e+07 8.58171e+06 0 
8.58171e+06 -2.02222e+07 0 
0 0 0 
-4.58686e+06 479434 0 
479434 -1.73617e+07 0 
0 0 0 
1.8076e+07 768468 0 
768468 -5.80774e+06 0 
0 0 0 
-1.65659e+07 -2.11088e+06 0 
-2.11088e+06 -1.67039e+07 0 
0 0 0 
1.72016e+07 1.86274e+06 0 
1.86274e+06 -8.94012e+06 0 
0 0 0 
-4.54918e+07 3.99535e+06 0 
3.99535e+06 -2.77578e+07 0 
0 0 0 
1.03182e+07 5.55921e+06 0 
5.55921e+06 -2.14333e+07 0 
0 0 0 
-2.59524e+07 -1.27742e+06 0 
-1.27742e+06 -2.91837e+07 0 
0 0 0 
2.46682e+07 -760277 0 
-760277 1.01174e+06 0 
0 0 0 
-1.86185e+07 -5.03683e+06 0 
-5.03683e+06 -6.50264e+06 0 
0 0 0 
4.09221e+07 -1.34396e+07 0 
-1.34396e+07 2.69921e+07 0 
0 0 0 
-1.03139e+07 -166697 0 
-166697 557854 0 
0 0 0 
-2.01519e+07 151463 0 
151463 -2.2742e+07 0 
0 0 0 
-3.8576e+07 1.09992e+06 0 
1.09992e+06 -2.29683e+07 0 
0 0 0 
-2.31633e+07 -1.42103e+06 0 
-1.42103e+06 -6.46196e+06 0 
0 0 0 
4.1671e+06 772371 0 
772371 1.78845e+07 0 
0 0 0 
3.24391e+07 -2.83961e+06 0 
-2.83961e+06 3.13286e+07 0 
0 0 0 
1.99539e+07 -1.20858e+06 0 
-1.20858e+06 1.69438e+07 0 
0 0 0 
1.15947e+07 165555 0 
165555 -6.67384e+06 0 
0 0 0 
-2.75296e+07 1.90548e+06 0 
1.90548e+06 -2.63987e+07 0 
0 0 0 
-1.32109e+07 -1.36229e+06 0 
-1.36229e+06 -1.74789e+07 0 
0 0 0 
-8.24455e+06 7.53734e+06 0 
7.53734e+06 -1.20771e+07 0 
0 0 0 
8.20954e+06 1.0083e+07 0 
1.0083e+07 -3.15106e+06 0 
0 0 0 
1.13334e+07 -469316 0 
-469316 1.17524e+07 0 
0 0 0 
3.73036e+07 -4.89735e+06 0 
-4.89735e+06 1.90403e+07 0 
0 0 0 
4.19454e+06 -1.12434e+07 0 
-1.12434e+07 1.08742e+07 0 
0 0 0 
6.14378e+06 -1.10211e+07 0 
-1.10211e+07 -5.0588e+06 0 
0 0 0 
-4.90479e+07 -1.57168e+07 0 
-1.57168e+07 -3.19978e+07 0 
0 0 0 
-6.54519e+06 -2.3169e+06 0 
-2.3169e+06 -1.11182e+07 0 
0 0 0 
-2.6078e+07 -9.36807e+06 0 
-9.36807e+06 -7.66094e+06 0 
0 0 0 
3.58217e+07 -1.00428e+06 0 
-1.00428e+06 3.4833e+07 0 
0 0 0 
6.81854e+06 -2.99261e+06 0 
-2.99261e+06 3.2607e+07 0 
0 0 0 
1.95258e+07 -842780 0 
-842780 2.84032e+07 0 
0 0 0 
-2.31998e+07 6.13537e+06 0 
6.13537e+06 -1.83393e+06 0 
0 0 0 
-4.827e+06 5.9961e+06 0 
5.9961e+06 -2.7439e+06 0 
0 0 0 
222891 1.92584e+06 0 
1.92584e+06 -9.35186e+06 0 
0 0 0 
-623570 -298946 0 
-298946 -6.93462e+06 0 
0 0 0 
1.59615e+07 -2.38859e+06 0 
-2.38859e+06 6.05099e+06 0 
0 0 0 
-1.2725e+07 -2.88861e+06 0 
-2.88861e+06 -4.69335e+06 0 
0 0 0 
-2.328e+07 -1.95643e+06 0 
-1.95643e+06 -1.74949e+07 0 
0 0 0 
-8.76057e+06 -5.3557e+06 0 
-5.3557e+06 -4.62806e+06 0 
0 0 0 
-9.35764e+06 -1.27139e+07 0 
-1.27139e+07 1.26775e+06 0 
0 0 0 
1.82064e+07 1.4126e+06 0 
1.4126e+06 1.31516e+07 0 
0 0 0 
2.11129e+07 -8.54781e+06 0 
-8.54781e+06 2.23379e+07 0 
0 0 0 
9.73747e+06 -154825 0 
-154825 2.70864e+07 0 
0 0 0 
-5.18426e+06 9.00501e+06 0 
9.00501e+06 2.1348e+07 0 
0 0 0 
2.75447e+07 757839 0 
757839 2.48566e+07 0 
0 0 0 
-1.36218e+07 -672501 0 
-672501 2.11895e+07 0 
0 0 0 
4.83495e+07 -3.59403e+06 0 
-3.59403e+06 6.6069e+07 0 
0 0 0 
1.67942e+07 -6.07377e+06 0 
-6.07377e+06 5.51523e+07 0 
0 0 0 
1.33075e+07 -2.44509e+06 0 
-2.44509e+06 5.96713e+07 0 
0 0 0 
-2.96876e+06 -2.08744e+06 0 
-2.08744e+06 5.75385e+07 0 
0 0 0 
2.67143e+07 -1.30686e+06 0 
-1.30686e+06 6.37343e+07 0 
0 0 0 
1.03806e+06 6.21948e+06 0 
6.21948e+06 4.99458e+07 0 
0 0 0 
6.53535e+07 6.78073e+06 0 
6.78073e+06 7.10282e+07 0 
0 0 0 
-470240 -529053 0 
-529053 2.55064e+07 0 
0 0 0 
6.39601e+06 -647968 0 
-647968 1.02808e+07 0 
0 0 0 
-2.37262e+07 3.02399e+06 0 
3.02399e+06 -5.73344e+06 0 
0 0 0 
-634720 -2.7064e+06 0 
-2.7064e+06 8.96079e+06 0 
0 0 0 
1.58812e+07 7.14727e+06 0 
7.14727e+06 1.17245e+07 0 
0 0 0 
-6.9844e+06 1.6027e+06 0 
1.6027e+06 -4.77464e+06 0 
0 0 0 
-2.08694e+07 9.71023e+06 0 
9.71023e+06 -9.61897e+06 0 
0 0 0 
-1.17565e+07 1.87874e+06 0 
1.87874e+06 -1.06431e+07 0 
0 0 0 
-1.12365e+07 5.88493e+06 0 
5.88493e+06 7.54499e+06 0 
0 0 0 
2.55828e+07 2.74287e+06 0 
2.74287e+06 2.52521e+07 0 
0 0 0 
1.0239e+07 -2.33872e+06 0 
-2.33872e+06 2.19266e+07 0 
0 0 0 
2.77784e+07 604893 0 
604893 780425 0 
0 0 0 
-3.3027e+07 1.03403e+07 0 
1.03403e+07 -2.57835e+07 0 
0 0 0 
2.01022e+07 4.61421e+06 0 
4.61421e+06 -1.59868e+06 0 
0 0 0 
-3.54981e+07 773429 0 
773429 -2.12187e+07 0 
0 0 0 
-2.5796e+06 -4.73347e+06 0 
-4.73347e+06 -3.4534e+06 0 
0 0 0 
3.02022e+06 -4.3281e+06 0 
-4.3281e+06 904577 0 
0 0 0 
1.58555e+07 -1.18954e+07 0 
-1.18954e+07 1.77678e+07 0 
0 0 0 
3.5963e+06 1.01479e+07 0 
1.01479e+07 -4768.89 0 
0 0 0 
-1.56741e+07 2.83765e+06 0 
2.83765e+06 -1.62393e+07 0 
0 0 0 
-2.18091e+07 3.31349e+06 0 
3.31349e+06 -3.57297e+06 0 
0 0 0 
-5.61018e+06 1.9665e+06 0 
1.9665e+06 2.34636e+06 0 
0 0 0 
5.21192e+07 -2.11146e+06 0 
-2.11146e+06 4.06016e+07 0 
0 0 0 
-1.43066e+07 -9.00584e+06 0 
-9.00584e+06 1.18257e+07 0 
0 0 0 
7.7428e+06 4.87422e+06 0 
4.87422e+06 1.23631e+06 0 
0 0 0 
-2.05047e+07 3.39014e+06 0 
3.39014e+06 -2.7026e+07 0 
0 0 0 
-2.03834e+07 4.64289e+06 0 
4.64289e+06 -4.32338e+07 0 
0 0 0 
-2.4977e+06 -1.93323e+06 0 
-1.93323e+06 -1.56784e+07 0 
0 0 0 
1.75065e+07 -5.75057e+06 0 
-5.75057e+06 9.20631e+06 0 
0 0 0 
-1.15161e+07 -4.03091e+06 0 
-4.03091e+06 1.22212e+07 0 
0 0 0 
2.94123e+07 -2.43402e+06 0 
-2.43402e+06 3.24937e+07 0 
0 0 0 
-2.5511e+06 4.05814e+06 0 
4.05814e+06 2.88767e+07 0 
0 0 0 
1.07379e+07 5.65547e+06 0 
5.65547e+06 -1.48396e+07 0 
0 0 0 
2.91448e+07 7.85528e+06 0 
7.85528e+06 2.84608e+07 0 
0 0 0 
0 0 0 
0 0 0 
0 0 0 
1.51126e+07 -3.60729e+06 0 
-3.60729e+06 2.4173e+07 0 
0 0 0 
4.49432e+06 -1.17102e+07 0 
-1.17102e+07 2.11707e+07 0 
0 0 0 
-1.56202e+07 -7.48324e+06 0 
-7.48324e+06 -3.76229e+07 0 
0 0 0 
1.58161e+07 -9.88883e+06 0 
-9.88883e+06 -1.68558e+06 0 
0 0 0 
1.82726e+07 -2.63374e+06 0 
-2.63374e+06 -3.87741e+07 0 
0 0 0 
7.181e+07 -1.31703e+06 0 
-1.31703e+06 8.15673e+07 0 
0 0 0 
5.81631e+07 -8.37817e+06 0 
-8.37817e+06 4.84702e+07 0 
0 0 0 
5.63549e+07 -1.34036e+07 0 
-1.34036e+07 5.6504e+07 0 
0 0 0 
1.69135e+07 -2.8332e+07 0 
-2.8332e+07 -2.94484e+07 0 
0 0 0 
3.31556e+07 -2.99337e+07 0 
-2.99337e+07 -5.29384e+06 0 
0 0 0 
6.32103e+07 -2.12024e+07 0 
-2.12024e+07 -5.44524e+06 0 
0 0 0 
1.02863e+08 -1.82079e+07 0 
-1.82079e+07 8.21054e+07 0 
0 0 0 
6.71146e+07 -1.60918e+07 0 
-1.60918e+07 9.88871e+06 0 
0 0 0 
7.80836e+07 -2.33256e+07 0 
-2.33256e+07 4.10952e+07 0 
0 0 0 
6.93608e+07 -2.35143e+07 0 
-2.35143e+07 3.4237e+07 0 
0 0 0 
6.06136e+07 -3.48418e+07 0 
-3.48418e+07 8.62261e+06 0 
0 0 0 
4.72084e+07 -2.69751e+07 0 
-2.69751e+07 -1.33003e+07 0 
0 0 0 
6.14428e+07 -2.38363e+07 0 
-2.38363e+07 867180 0 
0 0 0 
9.97476e+07 -1.61698e+07 0 
-1.61698e+07 1.02899e+07 0 
0 0 0 
1.35802e+08 2.30401e+06 0 
2.30401e+06 6.50418e+07 0 
0 0 0 
1.1674e+08 -4.40263e+06 0 
-4.40263e+06 6.8075e+07 0 
0 0 0 
6.06389e+07 -4.59182e+06 0 
-4.59182e+06 -1.91757e+07 0 
0 0 0 
5.28272e+07 -8.35545e+06 0 
-8.35545e+06 -4.25248e+07 0 
0 0 0 
7.73752e+07 5.85662e+06 0 
5.85662e+06 -3.88157e+06 0 
0 0 0 
1.42155e+08 1.71273e+07 0 
1.71273e+07 7.03722e+07 0 
0 0 0 
1.31406e+08 9.39085e+06 0 
9.39085e+06 6.15544e+07 0 
0 0 0 
7.95824e+07 1.68715e+07 0 
1.68715e+07 1.06947e+07 0 
0 0 0 
5.25387e+07 2.72124e+07 0 
2.72124e+07 -2.35585e+07 0 
0 0 0 
5.53828e+07 3.15978e+07 0 
3.15978e+07 1.00684e+07 0 
0 0 0 
2.24384e+07 3.93257e+07 0 
3.93257e+07 -2.26717e+07 0 
0 0 0 
3.26209e+07 3.96785e+07 0 
3.96785e+07 194514 0 
0 0 0 
3.44593e+07 6.39903e+07 0 
6.39903e+07 -6.61384e+06 0 
0 0 0 
4.43612e+07 5.3611e+07 0 
5.3611e+07 3.13681e+07 0 
0 0 0 
2.84928e+07 6.35655e+07 0 
6.35655e+07 1.98926e+07 0 
0 0 0 
827274 5.36613e+07 0 
5.36613e+07 -1.94961e+06 0 
0 0 0 
-6.84592e+06 4.81866e+07 0 
4.81866e+07 1.57097e+07 0 
0 0 0 
-1.99124e+07 5.34014e+07 0 
5.34014e+07 -2.14329e+07 0 
0 0 0 
3.37638e+07 3.45354e+07 0 
3.45354e+07 7.91688e+07 0 
0 0 0 
-1.54187e+06 3.39052e+07 0 
3.39052e+07 -7.03221e+06 0 
0 0 0 
-609230 2.32717e+07 0 
2.32717e+07 1.92559e+07 0 
0 0 0 
-4.40187e+07 1.8729e+07 0 
1.8729e+07 -6.83921e+07 0 
0 0 0 
-2.82902e+07 4.82378e+06 0 
4.82378e+06 5.33806e+07 0 
0 0 0 
-6.18438e+07 -9.76305e+06 0 
-9.76305e+06 2.0674e+07 0 
0 0 0 
-7.55518e+07 -3.07025e+07 0 
-3.07025e+07 1.47378e+07 0 
0 0 0 
-1.10714e+08 -3.28334e+07 0 
-3.28334e+07 -6.76798e+07 0 
0 0 0 
-1.15724e+08 -1.35541e+07 0 
-1.35541e+07 -7.11862e+07 0 
0 0 0 
-9.14645e+07 -3.87929e+06 0 
-3.87929e+06 -5.30846e+07 0 
0 0 0 
-5.6957e+07 -1.36136e+07 0 
-1.36136e+07 -84643.5 0 
0 0 0 
-4.49945e+07 -1.48588e+07 0 
-1.48588e+07 -6.16774e+06 0 
0 0 0 
-2.1709e+07 -1.75726e+07 0 
-1.75726e+07 3.05548e+06 0 
0 0 0 
-4.6301e+07 -9.091e+06 0 
-9.091e+06 -3.86449e+07 0 
0 0 0 
-4.79007e+07 3.22325e+06 0 
3.22325e+06 -1.8786e+07 0 
0 0 0 
-3.49095e+07 -8.06778e+06 0 
-8.06778e+06 -2.50317e+07 0 
0 0 0 
-9.77394e+06 -1.21493e+07 0 
-1.21493e+07 -961142 0 
0 0 0 
-3.17122e+06 -5.73384e+06 0 
-5.73384e+06 1.612e+07 0 
0 0 0 
-7.45023e+06 -7.91915e+06 0 
-7.91915e+06 1.91e+06 0 
0 0 0 
9.4239e+06 -4.64579e+06 0 
-4.64579e+06 -9.44506e+06 0 
0 0 0 
-3.1127e+06 9.9654e+06 0 
9.9654e+06 -1.9204e+07 0 
0 0 0 
-1.99704e+06 5.33738e+06 0 
5.33738e+06 -1.91991e+07 0 
0 0 0 
7.38881e+06 -1.14444e+06 0 
-1.14444e+06 9.49573e+06 0 
0 0 0 
3.04285e+06 8.54687e+06 0 
8.54687e+06 1.49897e+07 0 
0 0 0 
1.54382e+07 -3.22149e+06 0 
-3.22149e+06 4.89508e+06 0 
0 0 0 
1.25966e+07 2.40004e+06 0 
2.40004e+06 -2.33946e+07 0 
0 0 0 
2.88485e+07 1.04742e+07 0 
1.04742e+07 2.76974e+07 0 
0 0 0 
1.62428e+07 8.58973e+06 0 
8.58973e+06 4.23102e+06 0 
0 0 0 
3.90156e+07 2.25914e+06 0 
2.25914e+06 3.72358e+07 0 
0 0 0 
2.13501e+07 -3.35568e+06 0 
-3.35568e+06 -5.59371e+06 0 
0 0 0 
-1.21209e+07 -2.00881e+06 0 
-2.00881e+06 -3.94581e+07 0 
0 0 0 
7.70339e+06 9.67451e+06 0 
9.67451e+06 4.82096e+06 0 
0 0 0 
-715904 6.74581e+06 0 
6.74581e+06 4.59368e+06 0 
0 0 0 
1.19426e+06 -68603.1 0 
-68603.1 2.47337e+07 0 
0 0 0 
-9.72932e+06 -2.02879e+06 0 
-2.02879e+06 6.23538e+06 0 
0 0 0 
-4.93955e+07 -2.00024e+06 0 
-2.00024e+06 -6.54666e+07 0 
0 0 0 
-2.61127e+07 1.11114e+06 0 
1.11114e+06 -9.30658e+06 0 
0 0 0 
1.91138e+07 -445425 0 
-445425 4.09488e+07 0 
0 0 0 
3.37991e+07 -2.61304e+06 0 
-2.61304e+06 3.40778e+07 0 
0 0 0 
1.41797e+07 -6.75215e+06 0 
-6.75215e+06 3.11709e+06 0 
0 0 0 
-1.27505e+07 -3.14894e+06 0 
-3.14894e+06 -3.67721e+07 0 
0 0 0 
8.28472e+06 8.46027e+06 0 
8.46027e+06 -7.83734e+06 0 
0 0 0 
9.17243e+06 9.92518e+06 0 
9.92518e+06 1.71292e+07 0 
0 0 0 
-1.11583e+07 2.8951e+06 0 
2.8951e+06 2.00396e+07 0 
0 0 0 
-3.27436e+07 -6.9266e+06 0 
-6.9266e+06 -1.74303e+07 0 
0 0 0 
-3.29944e+07 -3.26917e+06 0 
-3.26917e+06 -3.81676e+07 0 
0 0 0 
-1.26536e+07 6.8651e+06 0 
6.8651e+06 -1.11074e+07 0 
0 0 0 
-1.71663e+06 -125206 0 
-125206 2.0431e+07 0 
0 0 0 
-2.36333e+06 1.82227e+06 0 
1.82227e+06 -203394 0 
0 0 0 
-5.2629e+06 -2.27253e+06 0 
-2.27253e+06 -2.00693e+06 0 
0 0 0 
-8.86385e+06 5.4918e+06 0 
5.4918e+06 -2.96926e+07 0 
0 0 0 
-6338.03 9.38855e+06 0 
9.38855e+06 1.1206e+07 0 
0 0 0 
1.29564e+06 7.07359e+06 0 
7.07359e+06 5.10173e+06 0 
0 0 0 
2.14189e+07 -2.17291e+06 0 
-2.17291e+06 4.90803e+07 0 
0 0 0 
-1.37622e+07 -1.81225e+06 0 
-1.81225e+06 -2.56894e+07 0 
0 0 0 
-1.58436e+07 3.07877e+06 0 
3.07877e+06 -2.51926e+07 0 
0 0 0 
-8.0172e+06 8.96674e+06 0 
8.96674e+06 -8.21743e+06 0 
0 0 0 
0 0 0 
0 0 0 
0 0 0 
-1.67672e+06 -1.27904e+06 0 
-1.27904e+06 3.89944e+06 0 
0 0 0 
1.75504e+07 -1.45217e+06 0 
-1.45217e+06 1.26134e+07 0 
0 0 0 
-7.93798e+06 -5.31789e+06 0 
-5.31789e+06 2.95028e+06 0 
0 0 0 
2.39855e+07 -3.76803e+06 0 
-3.76803e+06 2.36752e+07 0 
0 0 0 
-8.12876e+06 -3.51254e+06 0 
-3.51254e+06 9.16837e+06 0 
0 0 0 
2.93887e+06 -6.21822e+06 0 
-6.21822e+06 4.49095e+06 0 
0 0 0 
-2.70375e+07 3.25287e+06 0 
3.25287e+06 -1.15342e+07 0 
0 0 0 
7.95688e+06 4.9599e+06 0 
4.9599e+06 -4.81807e+06 0 
0 0 0 
1.23447e+07 5.26458e+06 0 
5.26458e+06 5.08102e+06 0 
0 0 0 
-4.50046e+06 -3.76612e+06 0 
-3.76612e+06 4.74615e+06 0 
0 0 0 
2.72514e+07 2.45557e+06 0 
2.45557e+06 1.45471e+07 0 
0 0 0 
-3.95314e+07 -4.27202e+06 0 
-4.27202e+06 -7.35927e+06 0 
0 0 0 
2.72327e+07 438115 0 
438115 1.29683e+07 0 
0 0 0 
-2.46992e+07 1.44007e+06 0 
1.44007e+06 -2.86943e+06 0 
0 0 0 
2.62476e+07 -6.70858e+06 0 
-6.70858e+06 2.21772e+07 0 
0 0 0 
-5.34037e+06 -106427 0 
-106427 2.73315e+07 0 
0 0 0 
3.92988e+07 -8.1132e+06 0 
-8.1132e+06 4.96642e+07 0 
0 0 0 
4.68317e+06 -1.57026e+07 0 
-1.57026e+07 3.46808e+07 0 
0 0 0 
162857 -1.38097e+07 0 
-1.38097e+07 2.82554e+07 0 
0 0 0 
-1.91083e+07 465188 0 
465188 7.44317e+06 0 
0 0 0 
-1.97816e+07 6.60373e+06 0 
6.60373e+06 -4.5035e+06 0 
0 0 0 
1.31767e+07 1.21987e+07 0 
1.21987e+07 8.11816e+06 0 
0 0 0 
1.6204e+07 9.30044e+06 0 
9.30044e+06 2.0321e+07 0 
0 0 0 
2.32821e+07 1.3963e+06 0 
1.3963e+06 1.83102e+07 0 
0 0 0 
1.35132e+07 -1.81045e+06 0 
-1.81045e+06 1.73905e+07 0 
0 0 0 
-1.63982e+07 -216057 0 
-216057 -5.37402e+06 0 
0 0 0 
-1.64965e+07 7.23393e+06 0 
7.23393e+06 -2.90136e+07 0 
0 0 0 
-5.13067e+06 9.98631e+06 0 
9.98631e+06 -4.02593e+07 0 
0 0 0 
-2.13032e+07 1.797e+06 0 
1.797e+06 -5.88338e+07 0 
0 0 0 
-1.02264e+07 3.04059e+06 0 
3.04059e+06 -4.53728e+07 0 
0 0 0 
1.07107e+07 -3.66867e+06 0 
-3.66867e+06 -1.92286e+07 0 
0 0 0 
-4.63576e+06 -5.94336e+06 0 
-5.94336e+06 -2.36132e+07 0 
0 0 0 
-1.03145e+07 -1.66007e+07 0 
-1.66007e+07 -1.03515e+07 0 
0 0 0 
-1.96088e+07 -2.51813e+06 0 
-2.51813e+06 -4.6174e+06 0 
0 0 0 
203388 -2.76878e+06 0 
-2.76878e+06 -483840 0 
0 0 0 
-2.65445e+07 7.29135e+06 0 
7.29135e+06 -969581 0 
0 0 0 
2.71873e+07 4.9593e+06 0 
4.9593e+06 1.23011e+07 0 
0 0 0 
-1.25677e+06 -519718 0 
-519718 -8.51342e+06 0 
0 0 0 
374821 -7.28895e+06 0 
-7.28895e+06 -4.62249e+06 0 
0 0 0 
-1.40475e+06 -619618 0 
-619618 -3.43889e+06 0 
0 0 0 
-9.85301e+06 2.15818e+06 0 
2.15818e+06 -5.80787e+06 0 
0 0 0 
-484376 1.06921e+06 0 
1.06921e+06 -2.81519e+06 0 
0 0 0 
-1.08724e+07 1.32012e+06 0 
1.32012e+06 -1.20111e+07 0 
0 0 0 
1.03914e+07 -3.20546e+06 0 
-3.20546e+06 -1.54139e+07 0 
0 0 0 
-2.60536e+07 -9.55871e+06 0 
-9.55871e+06 -4.20673e+07 0 
0 0 0 
-1.85675e+07 -3.69288e+06 0 
-3.69288e+06 -3.00514e+07 0 
0 0 0 
-1.76698e+07 3.56104e+06 0 
3.56104e+06 -1.77918e+07 0 
0 0 0 
2.55876e+06 4.91765e+06 0 
4.91765e+06 1.651e+07 0 
0 0 0 
2.49457e+07 4.37644e+06 0 
4.37644e+06 4.50841e+07 0 
0 0 0 
1.62068e+07 2.54523e+06 0 
2.54523e+06 4.19531e+07 0 
0 0 0 
2.63294e+07 -7.41473e+06 0 
-7.41473e+06 3.54698e+07 0 
0 0 0 
-7.90847e+06 -1.58289e+06 0 
-1.58289e+06 1.27292e+07 0 
0 0 0 
3.08022e+07 -4.67415e+06 0 
-4.67415e+06 2.75719e+07 0 
0 0 0 
-3.4261e+07 8.38859e+06 0 
8.38859e+06 -3.42755e+06 0 
0 0 0 
3.94575e+07 6.79738e+06 0 
6.79738e+06 1.20875e+07 0 
0 0 0 
871265 -6.7788e+06 0 
-6.7788e+06 2.13312e+07 0 
0 0 0 
2.53062e+06 1.60635e+06 0 
1.60635e+06 3.05808e+07 0 
0 0 0 
-1.13457e+06 1.18886e+06 0 
1.18886e+06 3.59268e+07 0 
0 0 0 
1.61104e+07 536720 0 
536720 4.45697e+07 0 
0 0 0 
5.1268e+06 -2.55772e+06 0 
-2.55772e+06 4.04024e+07 0 
0 0 0 
4.71011e+07 -4.93691e+06 0 
-4.93691e+06 5.41926e+07 0 
0 0 0 
-4.52465e+06 -1.51017e+07 0 
-1.51017e+07 2.79385e+07 0 
0 0 0 
1.97381e+07 -3.04923e+06 0 
-3.04923e+06 2.52126e+07 0 
0 0 0 
-2.91816e+07 -5.51445e+06 0 
-5.51445e+06 -5.32718e+06 0 
0 0 0 
1.59766e+07 1.6864e+06 0 
1.6864e+06 -5.00515e+06 0 
0 0 0 
-7.90605e+06 -7.73351e+06 0 
-7.73351e+06 -3.52903e+06 0 
0 0 0 
4.18718e+06 -4.59997e+06 0 
-4.59997e+06 -1.09552e+07 0 
0 0 0 
-2.93557e+07 117882 0 
117882 -3.36686e+07 0 
0 0 0 
-2.009e+07 -2.95673e+06 0 
-2.95673e+06 -3.16233e+07 0 
0 0 0 
-1.73744e+07 6.7883e+06 0 
6.7883e+06 -3.42454e+07 0 
0 0 0 
-2.04568e+06 -136401 0 
-136401 -2.71334e+07 0 
0 0 0 
-941355 2.22618e+06 0 
2.22618e+06 -2.33242e+07 0 
0 0 0 
1.91376e+07 -9.76435e+06 0 
-9.76435e+06 2.5851e+06 0 
0 0 0 
-2.2877e+07 -2.09257e+06 0 
-2.09257e+06 -3.35085e+07 0 
0 0 0 
-9.70269e+06 -6.80318e+06 0 
-6.80318e+06 -4.03201e+07 0 
0 0 0 
-3.29751e+07 2.27428e+06 0 
2.27428e+06 -5.13039e+07 0 
0 0 0 
-2.79368e+07 -17658.8 0 
-17658.8 -5.20888e+07 0 
0 0 0 
-6.89686e+06 2.5558e+06 0 
2.5558e+06 -2.61269e+07 0 
0 0 0 
8.38073e+06 -1.02652e+06 0 
-1.02652e+06 -1.31534e+07 0 
0 0 0 
9.15628e+06 -8.87186e+06 0 
-8.87186e+06 -2.00674e+07 0 
0 0 0 
-2.42338e+07 972396 0 
972396 -3.83782e+07 0 
0 0 0 
-3.52287e+07 3.16043e+06 0 
3.16043e+06 -4.97912e+07 0 
0 0 0 
-1.12978e+07 9.27513e+06 0 
9.27513e+06 -4.11734e+07 0 
0 0 0 
-8.21894e+06 201436 0 
201436 -4.44529e+07 0 
0 0 0 
-9.40335e+06 -9.46837e+06 0 
-9.46837e+06 -3.56585e+07 0 
0 0 0 
-1.45989e+07 -5.25413e+06 0 
-5.25413e+06 -4.10309e+07 0 
0 0 0 
-1.59825e+07 -8.32621e+06 0 
-8.32621e+06 -4.88024e+07 0 
0 0 0 
-2.78026e+07 4.24516e+06 0 
4.24516e+06 -4.36416e+07 0 
0 0 0 
-1.07767e+07 2.86445e+06 0 
2.86445e+06 -5.25148e+07 0 
0 0 0 
-9.09848e+06 900620 0 
900620 -4.15445e+07 0 
0 0 0 
-1.16316e+07 -1.28554e+06 0 
-1.28554e+06 -2.20529e+07 0 
0 0 0 
6.58108e+06 -1.18485e+07 0 
-1.18485e+07 -1.34258e+07 0 
0 0 0 
5.40613e+06 510346 0 
510346 1.52347e+06 0 
0 0 0 
1.58165e+07 -1.23772e+07 0 
-1.23772e+07 2.71871e+07 0 
0 0 0 
-1.12027e+07 7.0417e+06 0 
7.0417e+06 352877 0 
0 0 0 
5.74324e+06 -4.25476e+06 0 
-4.25476e+06 1.7196e+07 0 
0 0 0 
0 0 0 
0 0 0 
0 0 0 
3.17667e+06 -3.11012e+06 0 
-3.11012e+06 9.18852e+06 0 
0 0 0 
7.90242e+06 -1.59744e+07 0 
-1.59744e+07 4.47996e+06 0 
0 0 0 
2.09039e+07 -1.54708e+06 0 
-1.54708e+06 6.17538e+06 0 
0 0 0 
1.96479e+07 -7.86341e+06 0 
-7.86341e+06 -1.35649e+07 0 
0 0 0 
1.83695e+07 6.05996e+06 0 
6.05996e+06 -1.52499e+07 0 
0 0 0 
4.9883e+07 3.58532e+06 0 
3.58532e+06 5.94234e+07 0 
0 0 0 
4.61619e+07 -1.20546e+07 0 
-1.20546e+07 2.04211e+07 0 
0 0 0 
5.09368e+07 -2.1726e+07 0 
-2.1726e+07 4.18332e+07 0 
0 0 0 
3.77965e+07 -2.65593e+07 0 
-2.65593e+07 -1.62695e+07 0 
0 0 0 
5.01698e+07 -1.51598e+07 0 
-1.51598e+07 8.45324e+06 0 
0 0 0 
5.89826e+07 310123 0 
310123 1.50661e+07 0 
0 0 0 
1.09193e+08 -1.1778e+07 0 
-1.1778e+07 6.6357e+07 0 
0 0 0 
1.24932e+08 -2.35849e+07 0 
-2.35849e+07 3.41458e+07 0 
0 0 0 
1.31556e+08 -1.61495e+07 0 
-1.61495e+07 3.25035e+07 0 
0 0 0 
1.6619e+08 -3.32964e+07 0 
-3.32964e+07 7.01971e+07 0 
0 0 0 
1.73714e+08 -2.49695e+07 0 
-2.49695e+07 4.88242e+07 0 
0 0 0 
1.7485e+08 -1.75853e+07 0 
-1.75853e+07 4.45326e+07 0 
0 0 0 
1.8601e+08 -5.85957e+06 0 
-5.85957e+06 4.4081e+07 0 
0 0 0 
2.12778e+08 -1.50103e+06 0 
-1.50103e+06 6.36906e+07 0 
0 0 0 
2.31601e+08 -6.85425e+06 0 
-6.85425e+06 9.53818e+07 0 
0 0 0 
2.40323e+08 -2.53764e+07 0 
-2.53764e+07 9.07173e+07 0 
0 0 0 
2.22631e+08 -1.47113e+07 0 
-1.47113e+07 4.24938e+07 0 
0 0 0 
1.99157e+08 -3.54459e+06 0 
-3.54459e+06 3.07497e+07 0 
0 0 0 
1.98774e+08 2.10368e+07 0 
2.10368e+07 5.38458e+07 0 
0 0 0 
1.97742e+08 2.41706e+07 0 
2.41706e+07 8.87944e+07 0 
0 0 0 
1.97606e+08 6.73332e+06 0 
6.73332e+06 7.53121e+07 0 
0 0 0 
1.95655e+08 1.26478e+07 0 
1.26478e+07 6.02736e+07 0 
0 0 0 
1.67548e+08 2.0868e+07 0 
2.0868e+07 2.48606e+07 0 
0 0 0 
1.74306e+08 3.22898e+07 0 
3.22898e+07 6.7874e+07 0 
0 0 0 
1.64226e+08 3.44756e+07 0 
3.44756e+07 3.06772e+07 0 
0 0 0 
1.58021e+08 4.22958e+07 0 
4.22958e+07 5.91729e+07 0 
0 0 0 
1.22527e+08 4.32085e+07 0 
4.32085e+07 1.67451e+07 0 
0 0 0 
1.10124e+08 4.53823e+07 0 
4.53823e+07 5.03725e+07 0 
0 0 0 
8.33316e+07 4.07271e+07 0 
4.07271e+07 3.56111e+07 0 
0 0 0 
2.48932e+07 3.98833e+07 0 
3.98833e+07 4.93322e+06 0 
0 0 0 
-1.25634e+07 3.16081e+07 0 
3.16081e+07 417784 0 
0 0 0 
-6.34946e+07 2.76947e+07 0 
2.76947e+07 -3.82944e+07 0 
0 0 0 
-7.13172e+07 1.98601e+07 0 
1.98601e+07 3.4136e+07 0 
0 0 0 
-1.10673e+08 1.52025e+06 0 
1.52025e+06 -5.57254e+07 0 
0 0 0 
-1.1911e+08 9.96942e+06 0 
9.96942e+06 -1.72942e+07 0 
0 0 0 
-1.5433e+08 1.6684e+07 0 
1.6684e+07 -1.01271e+08 0 
0 0 0 
-1.22928e+08 1.00707e+07 0 
1.00707e+07 -7.83673e+06 0 
0 0 0 
-1.01527e+08 -5.44731e+06 0 
-5.44731e+06 -1.6294e+07 0 
0 0 0 
-8.28236e+07 -1.44572e+07 0 
-1.44572e+07 -1.19956e+07 0 
0 0 0 
-7.56475e+07 -2.06022e+07 0 
-2.06022e+07 -2.96886e+07 0 
0 0 0 
-6.4508e+07 -1.31559e+07 0 
-1.31559e+07 -4.73224e+07 0 
0 0 0 
-4.73666e+07 -542791 0 
-542791 -1.75527e+07 0 
0 0 0 
-2.86368e+07 -8.38013e+06 0 
-8.38013e+06 -5.10847e+06 0 
0 0 0 
-9.86006e+06 -2.01622e+06 0 
-2.01622e+06 1.20274e+06 0 
0 0 0 
2.03648e+06 -1.02712e+07 0 
-1.02712e+07 8.35979e+06 0 
0 0 0 
8.19112e+06 -1.73241e+07 0 
-1.73241e+07 -9.97352e+06 0 
0 0 0 
1.33385e+06 2.29147e+06 0 
2.29147e+06 948518 0 
0 0 0 
-2.43606e+07 563084 0 
563084 -2.73848e+07 0 
0 0 0 
-1.29888e+07 273031 0 
273031 7.82812e+06 0 
0 0 0 
-1.99125e+06 -4.51441e+06 0 
-4.51441e+06 9.24283e+06 0 
0 0 0 
1.08247e+06 -1.00531e+07 0 
-1.00531e+07 2.82733e+06 0 
0 0 0 
-1.1363e+07 -1.28516e+07 0 
-1.28516e+07 -6.03225e+06 0 
0 0 0 
-1.24638e+07 2.3928e+06 0 
2.3928e+06 -1.52599e+07 0 
0 0 0 
-3.65497e+07 8.08794e+06 0 
8.08794e+06 -2.99467e+07 0 
0 0 0 
-2.78477e+07 5.76525e+06 0 
5.76525e+06 -3.42266e+06 0 
0 0 0 
-1.14256e+07 6.4916e+06 0 
6.4916e+06 4.34741e+06 0 
0 0 0 
-1.7565e+07 -1.8501e+06 0 
-1.8501e+06 6.16659e+06 0 
0 0 0 
-3.12906e+07 7.03285e+06 0 
7.03285e+06 -3.817e+07 0 
0 0 0 
-9.34002e+06 1.03896e+07 0 
1.03896e+07 1.97679e+07 0 
0 0 0 
-1.46715e+07 2.67032e+06 0 
2.67032e+06 -1.23804e+07 0 
0 0 0 
-9.78343e+06 3.05675e+06 0 
3.05675e+06 5.24207e+06 0 
0 0 0 
-2.23868e+07 -5.16648e+06 0 
-5.16648e+06 -1.01564e+07 0 
0 0 0 
-2.66386e+07 7.5192e+06 0 
7.5192e+06 -3.5379e+07 0 
0 0 0 
-5.95055e+06 1.03208e+07 0 
1.03208e+07 3.21513e+06 0 
0 0 0 
-7.84918e+06 5.48777e+06 0 
5.48777e+06 -8.80484e+06 0 
0 0 0 
-985.956 6.73065e+06 0 
6.73065e+06 1.46838e+07 0 
0 0 0 
3.8948e+06 -8.14939e+06 0 
-8.14939e+06 1.61844e+07 0 
0 0 0 
-8.49306e+06 2.12733e+06 0 
2.12733e+06 -4.30443e+07 0 
0 0 0 
1.95648e+07 9.9896e+06 0 
9.9896e+06 9.76773e+06 0 
0 0 0 
3.21354e+07 6.13817e+06 0 
6.13817e+06 3.34454e+07 0 
0 0 0 
2.85159e+07 -5.71949e+06 0 
-5.71949e+06 1.94989e+07 0 
0 0 0 
1.92966e+07 -1.02398e+07 0 
-1.02398e+07 1.84346e+07 0 
0 0 0 
-1.9509e+06 -466291 0 
-466291 -2.27151e+07 0 
0 0 0 
-1.98899e+07 8.9395e+06 0 
8.9395e+06 -1.33913e+07 0 
0 0 0 
-1.67414e+07 6.81991e+06 0 
6.81991e+06 9.43333e+06 0 
0 0 0 
-663869 2.91519e+06 0 
2.91519e+06 6.12967e+06 0 
0 0 0 
-6.10856e+06 -7.16243e+06 0 
-7.16243e+06 -8.50403e+06 0 
0 0 0 
-1.46429e+07 4.29972e+06 0 
4.29972e+06 -2.45406e+07 0 
0 0 0 
4.80283e+06 7.30567e+06 0 
7.30567e+06 374130 0 
0 0 0 
1.95521e+07 10120.2 0 
10120.2 2.50938e+07 0 
0 0 0 
279895 2.23661e+06 0 
2.23661e+06 -4.76536e+06 0 
0 0 0 
-3.16485e+06 -4.40202e+06 0 
-4.40202e+06 2.17055e+06 0 
0 0 0 
-1.73022e+07 -210583 0 
-210583 -2.77682e+07 0 
0 0 0 
2.04617e+06 6.15073e+06 0 
6.15073e+06 1.02166e+07 0 
0 0 0 
-1.13134e+07 4.94399e+06 0 
4.94399e+06 4.47611e+06 0 
0 0 0 
3.32235e+06 -4.0818e+06 0 
-4.0818e+06 3.29051e+07 0 
0 0 0 
7.88635e+06 -8.63818e+06 0 
-8.63818e+06 -1.45427e+07 0 
0 0 0 
4.88797e+06 5.1167e+06 0 
5.1167e+06 -8.31939e+06 0 
0 0 0 
-8.97104e+06 7.66964e+06 0 
7.66964e+06 -1.66181e+07 0 
0 0 0 
-8.25895e+06 1.65734e+06 0 
1.65734e+06 1.96757e+06 0 
0 0 0 
0 0 0 
0 0 0 
0 0 0 
-6.79512e+06 3.22746e+06 0 
3.22746e+06 -6.12915e+06 0 
0 0 0 
5.77753e+06 1.16371e+06 0 
1.16371e+06 -8.09645e+06 0 
0 0 0 
1.94515e+06 -7.7193e+06 0 
-7.7193e+06 -1.45451e+06 0 
0 0 0 
-222664 -3.69344e+06 0 
-3.69344e+06 7.4403e+06 0 
0 0 0 
5.95336e+06 -5.73509e+06 0 
-5.73509e+06 1.49922e+07 0 
0 0 0 
2.65365e+06 -2.84492e+06 0 
-2.84492e+06 2.13061e+07 0 
0 0 0 
2.16113e+06 1.563e+06 0 
1.563e+06 2.08771e+07 0 
0 0 0 
1.0535e+07 2.87995e+06 0 
2.87995e+06 1.61805e+07 0 
0 0 0 
-457780 1.83164e+06 0 
1.83164e+06 -2.19972e+06 0 
0 0 0 
827035 -4.19461e+06 0 
-4.19461e+06 -7.4671e+06 0 
0 0 0 
2.69909e+06 -5.30258e+06 0 
-5.30258e+06 -5.70938e+06 0 
0 0 0 
-2.03304e+07 -1.96475e+06 0 
-1.96475e+06 -1.6145e+07 0 
0 0 0 
1.19039e+07 -2.75728e+06 0 
-2.75728e+06 -3.45224e+06 0 
0 0 0 
-2.09077e+07 1.47097e+06 0 
1.47097e+06 -1.83574e+07 0 
0 0 0 
99307.7 1.91051e+06 0 
1.91051e+06 -1.79902e+07 0 
0 0 0 
-1.09126e+07 4.14183e+06 0 
4.14183e+06 -3.32139e+07 0 
0 0 0 
-4.82233e+06 -6.80791e+06 0 
-6.80791e+06 -3.22991e+07 0 
0 0 0 
-1.30466e+07 -4.64377e+06 0 
-4.64377e+06 -1.81266e+07 0 
0 0 0 
-235477 -3.13537e+06 0 
-3.13537e+06 1.68445e+06 0 
0 0 0 
227505 1.97598e+06 0 
1.97598e+06 1.13318e+07 0 
0 0 0 
-5.28301e+06 6.38752e+06 0 
6.38752e+06 9.05727e+06 0 
0 0 0 
7.31355e+06 1.10984e+07 0 
1.10984e+07 687521 0 
0 0 0 
2.47289e+06 1.75401e+06 0 
1.75401e+06 -1.51062e+07 0 
0 0 0 
-2.6825e+06 -5.5467e+06 0 
-5.5467e+06 -1.01308e+07 0 
0 0 0 
5.25853e+06 -3.76675e+06 0 
-3.76675e+06 -1.23028e+06 0 
0 0 0 
-4.34163e+06 -9.80473e+06 0 
-9.80473e+06 7.33588e+06 0 
0 0 0 
9.51434e+06 -1.87358e+06 0 
-1.87358e+06 2.43277e+07 0 
0 0 0 
6.73153e+06 -3.46042e+06 0 
-3.46042e+06 2.28452e+07 0 
0 0 0 
2.28161e+06 181840 0 
181840 1.86818e+07 0 
0 0 0 
3.74593e+06 3.46674e+06 0 
3.46674e+06 3.26048e+06 0 
0 0 0 
8.45896e+06 -5.79322e+06 0 
-5.79322e+06 -8.50005e+06 0 
0 0 0 
-9.14219e+06 -1.09924e+07 0 
-1.09924e+07 -8.77689e+06 0 
0 0 0 
518748 -5.91987e+06 0 
-5.91987e+06 405572 0 
0 0 0 
-3.10718e+06 -7.80792e+06 0 
-7.80792e+06 6.98088e+06 0 
0 0 0 
3.44575e+06 -642274 0 
-642274 1.35879e+07 0 
0 0 0 
-9.22459e+06 3.40249e+06 0 
3.40249e+06 -39024.7 0 
0 0 0 
7.38301e+06 3.21947e+06 0 
3.21947e+06 -4.62183e+06 0 
0 0 0 
-4.45591e+06 -3.17543e+06 0 
-3.17543e+06 -9.10888e+06 0 
0 0 0 
-1.86503e+06 71016.9 0 
71016.9 -7.79588e+06 0 
0 0 0 
-687298 -3.88898e+06 0 
-3.88898e+06 -7.48906e+06 0 
0 0 0 
-3.84929e+06 -302025 0 
-302025 -1.30003e+07 0 
0 0 0 
-7.88974e+06 -5.75157e+06 0 
-5.75157e+06 -1.4013e+07 0 
0 0 0 
-7.03822e+06 2.31914e+06 0 
2.31914e+06 -1.20577e+07 0 
0 0 0 
4.85978e+06 -5.95977e+06 0 
-5.95977e+06 -3.26798e+06 0 
0 0 0 
-2.82567e+06 -3.51867e+06 0 
-3.51867e+06 1.15939e+07 0 
0 0 0 
1.64037e+06 3.26147e+06 0 
3.26147e+06 1.63295e+07 0 
0 0 0 
5.52444e+06 4.601e+06 0 
4.601e+06 1.03308e+07 0 
0 0 0 
-1.02387e+07 8.47619e+06 0 
8.47619e+06 -1.04787e+07 0 
0 0 0 
850424 5.03466e+06 0 
5.03466e+06 -2.07023e+07 0 
0 0 0 
-1.16302e+07 1.97556e+06 0 
1.97556e+06 -2.86039e+07 0 
0 0 0 
-1.56575e+06 -2.73064e+06 0 
-2.73064e+06 -1.63256e+07 0 
0 0 0 
-6.38245e+06 1.22343e+06 0 
1.22343e+06 -1.03044e+07 0 
0 0 0 
1.08599e+07 -4.29222e+06 0 
-4.29222e+06 -3.94934e+06 0 
0 0 0 
-1.52684e+07 -3.44013e+06 0 
-3.44013e+06 -9.77685e+06 0 
0 0 0 
7.11629e+06 289640 0 
289640 -1.2033e+07 0 
0 0 0 
-1.1944e+07 -5.8577e+06 0 
-5.8577e+06 -3.09253e+07 0 
0 0 0 
-1.38303e+07 -5.75666e+06 0 
-5.75666e+06 -3.39378e+07 0 
0 0 0 
-2.02682e+07 724540 0 
724540 -4.41009e+07 0 
0 0 0 
-1.12857e+07 -4.46474e+06 0 
-4.46474e+06 -4.17245e+07 0 
0 0 0 
-2.82787e+07 4.87718e+06 0 
4.87718e+06 -4.61213e+07 0 
0 0 0 
7.38016e+06 -1.62951e+06 0 
-1.62951e+06 -3.75038e+07 0 
0 0 0 
-1.93981e+07 -9.15076e+06 0 
-9.15076e+06 -2.99106e+07 0 
0 0 0 
5.4912e+06 -4.74782e+06 0 
-4.74782e+06 -5.87739e+06 0 
0 0 0 
-1.16487e+07 -4.69527e+06 0 
-4.69527e+06 -2.99415e+06 0 
0 0 0 
1.12102e+07 -2.32428e+06 0 
-2.32428e+06 1.24591e+07 0 
0 0 0 
-4.95124e+06 431184 0 
431184 2.73504e+06 0 
0 0 0 
1.73475e+07 -1.10734e+07 0 
-1.10734e+07 2.30715e+07 0 
0 0 0 
-8.24103e+06 3.33833e+06 0 
3.33833e+06 2.0414e+07 0 
0 0 0 
1.19291e+07 -2.76462e+06 0 
-2.76462e+06 2.69823e+07 0 
0 0 0 
-4.08275e+06 1.17352e+07 0 
1.17352e+07 1.69546e+07 0 
0 0 0 
1.84498e+07 -699471 0 
-699471 1.67907e+07 0 
0 0 0 
-5.69546e+06 6.2099e+06 0 
6.2099e+06 7.17085e+06 0 
0 0 0 
2.26988e+07 -6.4329e+06 0 
-6.4329e+06 1.46972e+07 0 
0 0 0 
-1.09361e+07 -5.17456e+06 0 
-5.17456e+06 2.17087e+07 0 
0 0 0 
2.18479e+07 2.38528e+06 0 
2.38528e+06 3.38986e+07 0 
0 0 0 
2.08356e+06 -3.13887e+06 0 
-3.13887e+06 2.58522e+07 0 
0 0 0 
-2.16828e+06 6.95598e+06 0 
6.95598e+06 2.12172e+07 0 
0 0 0 
7.00009e+06 9.29099e+06 0 
9.29099e+06 7.22946e+06 0 
0 0 0 
4.47116e+06 1.43129e+06 0 
1.43129e+06 -1.55485e+06 0 
0 0 0 
8.2504e+06 -5.62649e+06 0 
-5.62649e+06 1.17138e+07 0 
0 0 0 
5.65984e+06 -1.86614e+06 0 
-1.86614e+06 1.72328e+07 0 
0 0 0 
-2.94815e+06 -2.28628e+06 0 
-2.28628e+06 1.43617e+07 0 
0 0 0 
6.29113e+06 4.86964e+06 0 
4.86964e+06 1.18228e+07 0 
0 0 0 
-4.42164e+06 192428 0 
192428 3.77209e+06 0 
0 0 0 
1.11331e+07 2.48307e+06 0 
2.48307e+06 1.14692e+07 0 
0 0 0 
1.57348e+06 -5.60454e+06 0 
-5.60454e+06 2.21288e+07 0 
0 0 0 
1.4549e+07 3.91803e+06 0 
3.91803e+06 3.76502e+07 0 
0 0 0 
7.76923e+06 1.99965e+06 0 
1.99965e+06 2.88644e+07 0 
0 0 0 
8.10716e+06 2.87548e+06 0 
2.87548e+06 2.66708e+07 0 
0 0 0 
6.48362e+06 6.28221e+06 0 
6.28221e+06 1.24228e+07 0 
0 0 0 
-4.69094e+06 3.13468e+06 0 
3.13468e+06 -8.57857e+06 0 
0 0 0 
886189 -2.3623e+06 0 
-2.3623e+06 -2.20132e+06 0 
0 0 0 
2.63674e+06 4.99795e+06 0 
4.99795e+06 -1.03743e+07 0 
0 0 0 
-9.86659e+06 -5.95147e+06 0 
-5.95147e+06 -2.75168e+07 0 
0 0 0 
4.83087e+06 -9.25066e+06 0 
-9.25066e+06 -1.16709e+07 0 
0 0 0 
-9.54562e+06 -42708.8 0 
-42708.8 3.78376e+06 0 
0 0 0 
-1.05423e+07 -8.1004e+06 0 
-8.1004e+06 -1.04172e+07 0 
0 0 0 
0 0 0 
0 0 0 
0 0 0 
-576649 191660 0 
191660 -441342 0 
0 0 0 
7.3536e+06 -2.66793e+06 0 
-2.66793e+06 2.03535e+06 0 
0 0 0 
6.70172e+06 2.461e+06 0 
2.461e+06 5.54073e+06 0 
0 0 0 
3.14584e+06 -3.54235e+06 0 
-3.54235e+06 -5.5094e+06 0 
0 0 0 
6.99127e+06 7.66946e+06 0 
7.66946e+06 -6.95172e+06 0 
0 0 0 
6.70576e+06 3.35703e+06 0 
3.35703e+06 2.24314e+07 0 
0 0 0 
-4.06134e+06 -4.86437e+06 0 
-4.86437e+06 -1.00256e+07 0 
0 0 0 
1.94963e+07 -7.92917e+06 0 
-7.92917e+06 1.83756e+07 0 
0 0 0 
3.54476e+07 -1.00768e+07 0 
-1.00768e+07 2.34564e+06 0 
0 0 0 
6.84943e+07 -7.56537e+06 0 
-7.56537e+06 2.24819e+07 0 
0 0 0 
7.82514e+07 -1.09519e+06 0 
-1.09519e+06 2.94547e+07 0 
0 0 0 
6.64325e+07 -4.68533e+06 0 
-4.68533e+06 2.31088e+07 0 
0 0 0 
7.94784e+07 -1.28919e+07 0 
-1.28919e+07 3.05849e+07 0 
0 0 0 
9.46877e+07 -7.09001e+06 0 
-7.09001e+06 1.78014e+07 0 
0 0 0 
1.12338e+08 -2.39667e+06 0 
-2.39667e+06 3.9182e+07 0 
0 0 0 
1.43713e+08 -1.43586e+07 0 
-1.43586e+07 6.12214e+07 0 
0 0 0 
1.70598e+08 -1.21669e+07 0 
-1.21669e+07 4.30796e+07 0 
0 0 0 
1.86989e+08 -258656 0 
-258656 5.71567e+07 0 
0 0 0 
1.77903e+08 4.08171e+06 0 
4.08171e+06 5.83467e+07 0 
0 0 0 
1.71391e+08 945437 0 
945437 5.34379e+07 0 
0 0 0 
1.86365e+08 -3.08393e+06 0 
-3.08393e+06 7.30491e+07 0 
0 0 0 
1.99728e+08 -5.19491e+06 0 
-5.19491e+06 4.83102e+07 0 
0 0 0 
2.32422e+08 4.17704e+06 0 
4.17704e+06 7.88103e+07 0 
0 0 0 
2.27452e+08 1.25534e+07 0 
1.25534e+07 6.24249e+07 0 
0 0 0 
2.11389e+08 1.54459e+07 0 
1.54459e+07 8.63944e+07 0 
0 0 0 
1.87577e+08 1.01496e+06 0 
1.01496e+06 6.24895e+07 0 
0 0 0 
1.84586e+08 3.18758e+06 0 
3.18758e+06 6.12786e+07 0 
0 0 0 
1.71301e+08 6.50998e+06 0 
6.50998e+06 4.47845e+07 0 
0 0 0 
1.48773e+08 1.55853e+07 0 
1.55853e+07 5.70432e+07 0 
0 0 0 
1.0653e+08 8.8473e+06 0 
8.8473e+06 3.0692e+07 0 
0 0 0 
7.84735e+07 1.31774e+07 0 
1.31774e+07 2.47249e+07 0 
0 0 0 
3.62908e+07 1.77597e+07 0 
1.77597e+07 2.54393e+06 0 
0 0 0 
-5.69436e+06 2.16142e+07 0 
2.16142e+07 1.80016e+06 0 
0 0 0 
-5.19998e+07 1.57755e+07 0 
1.57755e+07 -1.07294e+07 0 
0 0 0 
-7.545e+07 6.27021e+06 0 
6.27021e+06 -2.46037e+07 0 
0 0 0 
-9.89393e+07 1.57039e+07 0 
1.57039e+07 -4.11683e+07 0 
0 0 0 
-1.1951e+08 1.51232e+07 0 
1.51232e+07 -4.6006e+07 0 
0 0 0 
-1.30503e+08 1.50055e+07 0 
1.50055e+07 -1.99578e+07 0 
0 0 0 
-1.5261e+08 33393.8 0 
33393.8 -6.22616e+07 0 
0 0 0 
-1.34769e+08 3.00306e+06 0 
3.00306e+06 -2.69845e+07 0 
0 0 0 
-1.52167e+08 1.50193e+06 0 
1.50193e+06 -6.79844e+07 0 
0 0 0 
-1.45548e+08 7.07514e+06 0 
7.07514e+06 -4.46538e+07 0 
0 0 0 
-1.51674e+08 5.13846e+06 0 
5.13846e+06 -4.44796e+07 0 
0 0 0 
-1.39218e+08 -7.89311e+06 0 
-7.89311e+06 -3.79613e+07 0 
0 0 0 
-1.14597e+08 -7.2261e+06 0 
-7.2261e+06 -4.32619e+07 0 
0 0 0 
-9.60956e+07 -66645.7 0 
-66645.7 -4.23514e+07 0 
0 0 0 
-8.87306e+07 7.25444e+06 0 
7.25444e+06 -2.54714e+07 0 
0 0 0 
-8.79916e+07 447629 0 
447629 -2.80467e+07 0 
0 0 0 
-8.04573e+07 1.69406e+06 0 
1.69406e+06 -2.25523e+07 0 
0 0 0 
-7.54276e+07 -2.58162e+06 0 
-2.58162e+06 -2.76292e+07 0 
0 0 0 
-5.37178e+07 -2.19558e+06 0 
-2.19558e+06 -1.87216e+07 0 
0 0 0 
-3.22009e+07 -1.6347e+06 0 
-1.6347e+06 -8.63959e+06 0 
0 0 0 
-2.82916e+07 3.73606e+06 0 
3.73606e+06 -1.74571e+07 0 
0 0 0 
-1.65713e+07 1.49399e+06 0 
1.49399e+06 797150 0 
0 0 0 
-1.29025e+07 1.62274e+06 0 
1.62274e+06 -2.8443e+06 0 
0 0 0 
-1.54021e+06 -3.88908e+06 0 
-3.88908e+06 -2.15328e+06 0 
0 0 0 
2.33348e+07 -1.96699e+06 0 
-1.96699e+06 8.17954e+06 0 
0 0 0 
3.10672e+07 1.05289e+06 0 
1.05289e+06 1.21372e+07 0 
0 0 0 
3.26621e+07 83999.6 0 
83999.6 1.83418e+06 0 
0 0 0 
3.40721e+07 8.64175e+06 0 
8.64175e+06 1.38064e+07 0 
0 0 0 
1.58341e+07 6.61129e+06 0 
6.61129e+06 3.12474e+06 0 
0 0 0 
2.32697e+07 -2.45316e+06 0 
-2.45316e+06 2.23274e+07 0 
0 0 0 
1.82902e+07 355907 0 
355907 -9.5388e+06 0 
0 0 0 
1.93835e+07 4.53201e+06 0 
4.53201e+06 1.70005e+07 0 
0 0 0 
2.88731e+06 922655 0 
922655 -5.14364e+06 0 
0 0 0 
671088 2.53634e+06 0 
2.53634e+06 2.0488e+06 0 
0 0 0 
1.38699e+07 -6.52566e+06 0 
-6.52566e+06 1.17337e+07 0 
0 0 0 
1.48322e+07 3.08461e+06 0 
3.08461e+06 -1.20594e+07 0 
0 0 0 
8.04768e+06 1.02635e+07 0 
1.02635e+07 5.62459e+06 0 
0 0 0 
-3.34918e+06 6.01818e+06 0 
6.01818e+06 -2.40833e+06 0 
0 0 0 
-1.06329e+07 9.28825e+06 0 
9.28825e+06 -3.54641e+06 0 
0 0 0 
-8.04418e+06 272450 0 
272450 7.66452e+06 0 
0 0 0 
-1.16413e+07 4.75076e+06 0 
4.75076e+06 -1.94416e+07 0 
0 0 0 
-1.70128e+07 1.35424e+07 0 
1.35424e+07 -5.05606e+06 0 
0 0 0 
-3.0507e+07 8.78716e+06 0 
8.78716e+06 -2.48423e+06 0 
0 0 0 
-3.71777e+07 2.86821e+06 0 
2.86821e+06 -1.04886e+07 0 
0 0 0 
-1.17989e+07 -9.08587e+06 0 
-9.08587e+06 9.1421e+06 0 
0 0 0 
4.1615e+06 -4.98703e+06 0 
-4.98703e+06 -9.20503e+06 0 
0 0 0 
2.09136e+07 -1.77495e+06 0 
-1.77495e+06 5.10495e+06 0 
0 0 0 
1.81584e+07 4.38939e+06 0 
4.38939e+06 1.15218e+07 0 
0 0 0 
1.84378e+06 -2.66591e+06 0 
-2.66591e+06 1.25011e+06 0 
0 0 0 
1.12372e+07 -6.17034e+06 0 
-6.17034e+06 2.55319e+06 0 
0 0 0 
1.52356e+07 2.89528e+06 0 
2.89528e+06 -6.90945e+06 0 
0 0 0 
-570052 1.18198e+07 0 
1.18198e+07 2.45487e+06 0 
0 0 0 
-7.60642e+06 -1.94735e+06 0 
-1.94735e+06 5.78135e+06 0 
0 0 0 
-2.67088e+06 -882653 0 
-882653 -2.79915e+06 0 
0 0 0 
7.36361e+06 -3.7839e+06 0 
-3.7839e+06 1.51688e+06 0 
0 0 0 
1.01465e+07 5.50734e+06 0 
5.50734e+06 -7.72387e+06 0 
0 0 0 
3.94108e+06 7.94387e+06 0 
7.94387e+06 1.07564e+07 0 
0 0 0 
-3.97259e+06 -1.07113e+06 0 
-1.07113e+06 -210798 0 
0 0 0 
-4.80927e+06 -1.26158e+06 0 
-1.26158e+06 1.08443e+07 0 
0 0 0 
-1.16038e+07 -1.08854e+07 0 
-1.08854e+07 -8.25988e+06 0 
0 0 0 
-973981 -5.8794e+06 0 
-5.8794e+06 -915887 0 
0 0 0 
-8.06906e+06 -674982 0 
-674982 -1.38693e+07 0 
0 0 0 
-1.13074e+07 3.51133e+06 0 
3.51133e+06 -2.16437e+06 0 
0 0 0 
-1.46834e+07 -772770 0 
-772770 -331935 0 
0 0 0 
0 0 0 
0 0 0 
0 0 0 
0 0 0 
0 0 0 
0 0 0 
0 0 0 
0 0 0 
0 0 0 
0 0 0 
0 0 0 
0 0 0 
0 0 0 
0 0 0 
0 0 0 
0 0 0 
0 0 0 
0 0 0 
0 0 0 
0 0 0 
0 0 0 
0 0 0 
0 0 0 
0 0 0 
0 0 0 
0 0 0 
0 0 0 
0 0 0 
0 0 0 
0 0 0 
0 0 0 
0 0 0 
0 0 0 
0 0 0 
0 0 0 
0 0 0 
0 0 0 
0 0 0 
0 0 0 
0 0 0 
0 0 0 
0 0 0 
0 0 0 
0 0 0 
0 0 0 
0 0 0 
0 0 0 
0 0 0 
0 0 0 
0 0 0 
0 0 0 
0 0 0 
0 0 0 
0 0 0 
0 0 0 
0 0 0 
0 0 0 
0 0 0 
0 0 0 
0 0 0 
0 0 0 
0 0 0 
0 0 0 
0 0 0 
0 0 0 
0 0 0 
0 0 0 
0 0 0 
0 0 0 
0 0 0 
0 0 0 
0 0 0 
0 0 0 
0 0 0 
0 0 0 
0 0 0 
0 0 0 
0 0 0 
0 0 0 
0 0 0 
0 0 0 
0 0 0 
0 0 0 
0 0 0 
0 0 0 
0 0 0 
0 0 0 
0 0 0 
0 0 0 
0 0 0 
0 0 0 
0 0 0 
0 0 0 
0 0 0 
0 0 0 
0 0 0 
0 0 0 
0 0 0 
0 0 0 
0 0 0 
0 0 0 
0 0 0 
0 0 0 
0 0 0 
0 0 0 
0 0 0 
0 0 0 
0 0 0 
0 0 0 
0 0 0 
0 0 0 
0 0 0 
0 0 0 
0 0 0 
0 0 0 
0 0 0 
0 0 0 
0 0 0 
0 0 0 
0 0 0 
0 0 0 
0 0 0 
0 0 0 
0 0 0 
0 0 0 
0 0 0 
0 0 0 
0 0 0 
0 0 0 
0 0 0 
0 0 0 
0 0 0 
0 0 0 
0 0 0 
0 0 0 
0 0 0 
0 0 0 
0 0 0 
0 0 0 
0 0 0 
0 0 0 
0 0 0 
0 0 0 
0 0 0 
0 0 0 
0 0 0 
0 0 0 
0 0 0 
0 0 0 
0 0 0 
0 0 0 
0 0 0 
0 0 0 
0 0 0 
0 0 0 
0 0 0 
0 0 0 
0 0 0 
0 0 0 
0 0 0 
0 0 0 
0 0 0 
0 0 0 
0 0 0 
0 0 0 
0 0 0 
0 0 0 
0 0 0 
0 0 0 
0 0 0 
0 0 0 
0 0 0 
0 0 0 
0 0 0 
0 0 0 
0 0 0 
0 0 0 
0 0 0 
0 0 0 
0 0 0 
0 0 0 
0 0 0 
0 0 0 
0 0 0 
0 0 0 
0 0 0 
0 0 0 
0 0 0 
0 0 0 
0 0 0 
0 0 0 
0 0 0 
0 0 0 
0 0 0 
0 0 0 
0 0 0 
0 0 0 
0 0 0 
0 0 0 
0 0 0 
0 0 0 
0 0 0 
0 0 0 
0 0 0 
0 0 0 
0 0 0 
0 0 0 
0 0 0 
0 0 0 
0 0 0 
0 0 0 
0 0 0 
0 0 0 
0 0 0 
0 0 0 
0 0 0 
0 0 0 
0 0 0 
0 0 0 
0 0 0 
0 0 0 
0 0 0 
0 0 0 
0 0 0 
0 0 0 
0 0 0 
0 0 0 
0 0 0 
0 0 0 
0 0 0 
0 0 0 
0 0 0 
0 0 0 
0 0 0 
0 0 0 
0 0 0 
0 0 0 
0 0 0 
0 0 0 
0 0 0 
0 0 0 
0 0 0 
0 0 0 
0 0 0 
0 0 0 
0 0 0 
0 0 0 
0 0 0 
0 0 0 
0 0 0 
0 0 0 
0 0 0 
0 0 0 
0 0 0 
0 0 0 
0 0 0 
0 0 0 
0 0 0 
0 0 0 
0 0 0 
0 0 0 
0 0 0 
0 0 0 
0 0 0 
0 0 0 
0 0 0 
0 0 0 
0 0 0 
0 0 0 
0 0 0 
0 0 0 
0 0 0 
0 0 0 
0 0 0 
0 0 0 
0 0 0 
0 0 0 
0 0 0 
0 0 0 
0 0 0 
0 0 0 
0 0 0 
0 0 0 
0 0 0 
0 0 0 
0 0 0 
0 0 0 
0 0 0 
0 0 0 
0 0 0 
0 0 0 
-9.06918e+06 -3.78823e+06 0 
-3.78823e+06 -6.1338e+06 0 
0 0 0 
0 0 0 
0 0 0 
0 0 0 
0 0 0 
0 0 0 
0 0 0 
0 0 0 
0 0 0 
0 0 0 
0 0 0 
0 0 0 
0 0 0 
0 0 0 
0 0 0 
0 0 0 
0 0 0 
0 0 0 
0 0 0 
0 0 0 
0 0 0 
0 0 0 
0 0 0 
0 0 0 
0 0 0 
0 0 0 
0 0 0 
0 0 0 
0 0 0 
0 0 0 
0 0 0 
0 0 0 
0 0 0 
0 0 0 
0 0 0 
0 0 0 
0 0 0 
0 0 0 
0 0 0 
0 0 0 
0 0 0 
0 0 0 
0 0 0 
0 0 0 
0 0 0 
0 0 0 
0 0 0 
0 0 0 
0 0 0 
0 0 0 
0 0 0 
0 0 0 
0 0 0 
0 0 0 
0 0 0 
0 0 0 
0 0 0 
0 0 0 
0 0 0 
0 0 0 
0 0 0 
0 0 0 
0 0 0 
0 0 0 
0 0 0 
0 0 0 
0 0 0 
0 0 0 
0 0 0 
0 0 0 
0 0 0 
0 0 0 
0 0 0 
0 0 0 
0 0 0 
0 0 0 
0 0 0 
0 0 0 
0 0 0 
0 0 0 
0 0 0 
0 0 0 
0 0 0 
0 0 0 
0 0 0 
0 0 0 
0 0 0 
0 0 0 
0 0 0 
0 0 0 
0 0 0 
0 0 0 
0 0 0 
0 0 0 
0 0 0 
0 0 0 
0 0 0 
0 0 0 
0 0 0 
0 0 0 
0 0 0 
0 0 0 
0 0 0 
0 0 0 
0 0 0 
0 0 0 
0 0 0 
0 0 0 
0 0 0 
0 0 0 
0 0 0 
0 0 0 
0 0 0 
0 0 0 
0 0 0 
0 0 0 
0 0 0 
0 0 0 
0 0 0 
0 0 0 
0 0 0 
0 0 0 
0 0 0 
0 0 0 
0 0 0 
0 0 0 
0 0 0 
0 0 0 
0 0 0 
0 0 0 
0 0 0 
0 0 0 
0 0 0 
0 0 0 
0 0 0 
0 0 0 
0 0 0 
0 0 0 
0 0 0 
0 0 0 
0 0 0 
0 0 0 
0 0 0 
0 0 0 
0 0 0 
0 0 0 
0 0 0 
0 0 0 
0 0 0 
0 0 0 
0 0 0 
0 0 0 
0 0 0 
0 0 0 
0 0 0 
0 0 0 
0 0 0 
0 0 0 
0 0 0 
0 0 0 
0 0 0 
0 0 0 
0 0 0 
0 0 0 
0 0 0 
0 0 0 
0 0 0 
0 0 0 
0 0 0 
0 0 0 
0 0 0 
0 0 0 
0 0 0 
0 0 0 
0 0 0 
0 0 0 
0 0 0 
0 0 0 
0 0 0 
0 0 0 
0 0 0 
0 0 0 
0 0 0 
0 0 0 
0 0 0 
0 0 0 
0 0 0 
0 0 0 
0 0 0 
0 0 0 
0 0 0 
0 0 0 
0 0 0 
0 0 0 
0 0 0 
0 0 0 
0 0 0 
0 0 0 
0 0 0 
0 0 0 
0 0 0 
0 0 0 
0 0 0 
0 0 0 
0 0 0 
0 0 0 
0 0 0 
0 0 0 
0 0 0 
0 0 0 
0 0 0 
0 0 0 
0 0 0 
0 0 0 
0 0 0 
0 0 0 
0 0 0 
0 0 0 
0 0 0 
0 0 0 
0 0 0 
0 0 0 
0 0 0 
0 0 0 
0 0 0 
0 0 0 
0 0 0 
0 0 0 
0 0 0 
0 0 0 
0 0 0 
0 0 0 
0 0 0 
0 0 0 
0 0 0 
0 0 0 
0 0 0 
0 0 0 
0 0 0 
0 0 0 
0 0 0 
0 0 0 
0 0 0 
0 0 0 
0 0 0 
0 0 0 
0 0 0 
0 0 0 
0 0 0 
0 0 0 
0 0 0 
0 0 0 
0 0 0 
0 0 0 
0 0 0 
0 0 0 
0 0 0 
0 0 0 
0 0 0 
0 0 0 
0 0 0 
0 0 0 
0 0 0 
0 0 0 
0 0 0 
0 0 0 
0 0 0 
0 0 0 
0 0 0 
0 0 0 
0 0 0 
0 0 0 
0 0 0 
0 0 0 
0 0 0 
0 0 0 
0 0 0 
0 0 0 
0 0 0 
0 0 0 
0 0 0 
0 0 0 
0 0 0 
0 0 0 
0 0 0 
0 0 0 
0 0 0 
0 0 0 
0 0 0 
0 0 0 
0 0 0 
0 0 0 
0 0 0 
0 0 0 
0 0 0 
0 0 0 
0 0 0 
0 0 0 
0 0 0 
0 0 0 
0 0 0 
0 0 0 
0 0 0 
0 0 0 
0 0 0 
0 0 0 
0 0 0 
0 0 0 
0 0 0 
0 0 0 
0 0 0 
0 0 0 
0 0 0 
0 0 0 
0 0 0 
0 0 0 
0 0 0 
0 0 0 
0 0 0 
0 0 0 
0 0 0 
0 0 0 
0 0 0 
0 0 0 
0 0 0 
0 0 0 
0 0 0 
0 0 0 
0 0 0 
0 0 0 
0 0 0 
0 0 0 
0 0 0 
0 0 0 
0 0 0 
0 0 0 
0 0 0 
0 0 0 
0 0 0 
0 0 0 
0 0 0 
0 0 0 
0 0 0 
0 0 0 
0 0 0 
0 0 0 
0 0 0 
0 0 0 
0 0 0 
0 0 0 
0 0 0 
0 0 0 
0 0 0 
0 0 0 
0 0 0 
0 0 0 
0 0 0 
0 0 0 
0 0 0 
0 0 0 
0 0 0 
0 0 0 
0 0 0 
0 0 0 
0 0 0 
0 0 0 
0 0 0 
0 0 0 
0 0 0 
0 0 0 
0 0 0 
0 0 0 
0 0 0 
0 0 0 
0 0 0 
0 0 0 
0 0 0 
0 0 0 
0 0 0 
0 0 0 
0 0 0 
0 0 0 
0 0 0 
0 0 0 
0 0 0 
0 0 0 
0 0 0 
0 0 0 
0 0 0 
0 0 0 
0 0 0 
0 0 0 
0 0 0 
0 0 0 
0 0 0 
0 0 0 
0 0 0 
0 0 0 
0 0 0 
0 0 0 
0 0 0 
0 0 0 
0 0 0 
0 0 0 
0 0 0 
0 0 0 
0 0 0 
0 0 0 
0 0 0 
0 0 0 
0 0 0 
0 0 0 
0 0 0 
0 0 0 
0 0 0 
0 0 0 
0 0 0 
0 0 0 
0 0 0 
0 0 0 
0 0 0 
0 0 0 
0 0 0 
0 0 0 
0 0 0 
0 0 0 
0 0 0 
0 0 0 
0 0 0 
0 0 0 
0 0 0 
0 0 0 
0 0 0 
0 0 0 
0 0 0 
0 0 0 
0 0 0 
0 0 0 
0 0 0 
0 0 0 
0 0 0 
0 0 0 
0 0 0 
0 0 0 
0 0 0 
0 0 0 
0 0 0 
0 0 0 
0 0 0 
0 0 0 
0 0 0 
0 0 0 
0 0 0 
0 0 0 
0 0 0 
0 0 0 
0 0 0 
0 0 0 
0 0 0 
0 0 0 
0 0 0 
0 0 0 
0 0 0 
0 0 0 
0 0 0 
0 0 0 
0 0 0 
0 0 0 
0 0 0 
0 0 0 
0 0 0 
0 0 0 
0 0 0 
0 0 0 
0 0 0 
0 0 0 
0 0 0 
0 0 0 
0 0 0 
0 0 0 
0 0 0 
0 0 0 
0 0 0 
0 0 0 
0 0 0 
0 0 0 
0 0 0 
0 0 0 
0 0 0 
0 0 0 
0 0 0 
0 0 0 
0 0 0 
0 0 0 
0 0 0 
0 0 0 
0 0 0 
0 0 0 
0 0 0 
0 0 0 
0 0 0 
0 0 0 
0 0 0 
0 0 0 
0 0 0 
0 0 0 
0 0 0 
0 0 0 
0 0 0 
0 0 0 
0 0 0 
0 0 0 
0 0 0 
0 0 0 
0 0 0 
0 0 0 
0 0 0 
0 0 0 
0 0 0 
0 0 0 
0 0 0 
0 0 0 
0 0 0 
0 0 0 
0 0 0 
0 0 0 
0 0 0 
0 0 0 
0 0 0 
0 0 0 
0 0 0 
0 0 0 
0 0 0 
0 0 0 
0 0 0 
0 0 0 
0 0 0 
0 0 0 
0 0 0 
0 0 0 
0 0 0 
0 0 0 
0 0 0 
0 0 0 
0 0 0 
0 0 0 
0 0 0 
0 0 0 
0 0 0 
0 0 0 
0 0 0 
0 0 0 
0 0 0 
0 0 0 
0 0 0 
0 0 0 
0 0 0 
0 0 0 
0 0 0 
0 0 0 
0 0 0 
0 0 0 
0 0 0 
0 0 0 
0 0 0 
0 0 0 
0 0 0 
0 0 0 
0 0 0 
0 0 0 
0 0 0 
0 0 0 
0 0 0 
0 0 0 
0 0 0 
0 0 0 
0 0 0 
0 0 0 
0 0 0 
0 0 0 
0 0 0 
0 0 0 
0 0 0 
0 0 0 
0 0 0 
0 0 0 
0 0 0 
0 0 0 
0 0 0 
0 0 0 
0 0 0 
0 0 0 
0 0 0 
0 0 0 
0 0 0 
0 0 0 
0 0 0 
0 0 0 
0 0 0 
0 0 0 
0 0 0 
0 0 0 
0 0 0 
0 0 0 
0 0 0 
0 0 0 
0 0 0 
0 0 0 
0 0 0 
0 0 0 
0 0 0 
0 0 0 
0 0 0 
0 0 0 
0 0 0 
0 0 0 
0 0 0 
0 0 0 
0 0 0 
0 0 0 
0 0 0 
0 0 0 
0 0 0 
0 0 0 
0 0 0 
0 0 0 
0 0 0 
0 0 0 
0 0 0 
0 0 0 
0 0 0 
0 0 0 
0 0 0 
0 0 0 
0 0 0 
0 0 0 
0 0 0 
0 0 0 
0 0 0 
0 0 0 
0 0 0 
0 0 0 
0 0 0 
0 0 0 
0 0 0 
0 0 0 
0 0 0 
0 0 0 
0 0 0 
0 0 0 
0 0 0 
0 0 0 
0 0 0 
0 0 0 
0 0 0 
0 0 0 
0 0 0 
0 0 0 
0 0 0 
0 0 0 
0 0 0 
0 0 0 
0 0 0 
0 0 0 
0 0 0 
0 0 0 
0 0 0 
0 0 0 
0 0 0 
0 0 0 
0 0 0 
0 0 0 
0 0 0 
0 0 0 
0 0 0 
0 0 0 
0 0 0 
0 0 0 
0 0 0 
0 0 0 
0 0 0 
0 0 0 
0 0 0 
0 0 0 
0 0 0 
0 0 0 
0 0 0 
0 0 0 
0 0 0 
0 0 0 
0 0 0 
0 0 0 
0 0 0 
0 0 0 
0 0 0 
0 0 0 
0 0 0 
0 0 0 
0 0 0 
0 0 0 
0 0 0 
0 0 0 
0 0 0 
0 0 0 
0 0 0 
0 0 0 
0 0 0 
0 0 0 
0 0 0 
0 0 0 
0 0 0 
0 0 0 
0 0 0 
0 0 0 
0 0 0 
0 0 0 
0 0 0 
0 0 0 
0 0 0 
0 0 0 
0 0 0 
0 0 0 
0 0 0 
0 0 0 
0 0 0 
0 0 0 
0 0 0 
0 0 0 
0 0 0 
0 0 0 
0 0 0 
0 0 0 
0 0 0 
0 0 0 
0 0 0 
0 0 0 
0 0 0 
0 0 0 
0 0 0 
0 0 0 
0 0 0 
0 0 0 
0 0 0 
0 0 0 
0 0 0 
0 0 0 
0 0 0 
0 0 0 
0 0 0 
0 0 0 
0 0 0 
0 0 0 
0 0 0 
0 0 0 
0 0 0 
0 0 0 
0 0 0 
0 0 0 
0 0 0 
0 0 0 
0 0 0 
0 0 0 
0 0 0 
0 0 0 
0 0 0 
0 0 0 
0 0 0 
0 0 0 
0 0 0 
0 0 0 
0 0 0 
0 0 0 
0 0 0 
0 0 0 
0 0 0 
0 0 0 
0 0 0 
0 0 0 
0 0 0 
0 0 0 
0 0 0 
0 0 0 
0 0 0 
0 0 0 
0 0 0 
0 0 0 
0 0 0 
0 0 0 
0 0 0 
0 0 0 
0 0 0 
0 0 0 
0 0 0 
0 0 0 
0 0 0 
0 0 0 
0 0 0 
0 0 0 
0 0 0 
0 0 0 
0 0 0 
0 0 0 
0 0 0 
0 0 0 
0 0 0 
0 0 0 
0 0 0 
0 0 0 
0 0 0 
0 0 0 
0 0 0 
0 0 0 
0 0 0 
0 0 0 
0 0 0 
0 0 0 
0 0 0 
0 0 0 
0 0 0 
0 0 0 
0 0 0 
0 0 0 
0 0 0 
0 0 0 
0 0 0 
0 0 0 
0 0 0 
0 0 0 
0 0 0 
0 0 0 
0 0 0 
0 0 0 
0 0 0 
0 0 0 
0 0 0 
0 0 0 
0 0 0 
0 0 0 
0 0 0 
0 0 0 
0 0 0 
0 0 0 
0 0 0 
0 0 0 
0 0 0 
0 0 0 
0 0 0 
0 0 0 
0 0 0 
0 0 0 
0 0 0 
0 0 0 
0 0 0 
0 0 0 
0 0 0 
0 0 0 
0 0 0 
0 0 0 
0 0 0 
0 0 0 
0 0 0 
0 0 0 
0 0 0 
0 0 0 
0 0 0 
0 0 0 
0 0 0 
0 0 0 
0 0 0 
0 0 0 
0 0 0 
0 0 0 
0 0 0 
0 0 0 
0 0 0 
0 0 0 
0 0 0 
0 0 0 
0 0 0 
0 0 0 
0 0 0 
0 0 0 
0 0 0 
0 0 0 
0 0 0 
0 0 0 
0 0 0 
0 0 0 
0 0 0 
0 0 0 
0 0 0 
0 0 0 
0 0 0 
0 0 0 
0 0 0 
0 0 0 
0 0 0 
0 0 0 
0 0 0 
0 0 0 
0 0 0 
0 0 0 
0 0 0 
0 0 0 
0 0 0 
0 0 0 
0 0 0 
0 0 0 
0 0 0 
0 0 0 
0 0 0 
0 0 0 
0 0 0 
0 0 0 
0 0 0 
0 0 0 
0 0 0 
0 0 0 
0 0 0 
0 0 0 
0 0 0 
0 0 0 
0 0 0 
0 0 0 
0 0 0 
0 0 0 
0 0 0 
0 0 0 
0 0 0 
0 0 0 
0 0 0 
0 0 0 
0 0 0 
0 0 0 
0 0 0 
0 0 0 
0 0 0 
0 0 0 
0 0 0 
0 0 0 
0 0 0 
0 0 0 
0 0 0 
0 0 0 
0 0 0 
0 0 0 
0 0 0 
0 0 0 
0 0 0 
0 0 0 
0 0 0 
0 0 0 
0 0 0 
0 0 0 
0 0 0 
0 0 0 
0 0 0 
0 0 0 
0 0 0 
0 0 0 
0 0 0 
0 0 0 
0 0 0 
0 0 0 
0 0 0 
0 0 0 
0 0 0 
0 0 0 
0 0 0 
0 0 0 
0 0 0 
0 0 0 
0 0 0 

TENSORS 2DELEM_Stress_(lower) float
0 0 0 
0 0 0 
0 0 0 
0 0 0 
0 0 0 
0 0 0 
0 0 0 
0 0 0 
0 0 0 
0 0 0 
0 0 0 
0 0 0 
0 0 0 
0 0 0 
0 0 0 
0 0 0 
0 0 0 
0 0 0 
0 0 0 
0 0 0 
0 0 0 
0 0 0 
0 0 0 
0 0 0 
0 0 0 
0 0 0 
0 0 0 
0 0 0 
0 0 0 
0 0 0 
0 0 0 
0 0 0 
0 0 0 
0 0 0 
0 0 0 
0 0 0 
0 0 0 
0 0 0 
0 0 0 
0 0 0 
0 0 0 
0 0 0 
0 0 0 
0 0 0 
0 0 0 
0 0 0 
0 0 0 
0 0 0 
0 0 0 
0 0 0 
0 0 0 
0 0 0 
0 0 0 
0 0 0 
0 0 0 
0 0 0 
0 0 0 
0 0 0 
0 0 0 
0 0 0 
0 0 0 
0 0 0 
0 0 0 
0 0 0 
0 0 0 
0 0 0 
0 0 0 
0 0 0 
0 0 0 
0 0 0 
0 0 0 
0 0 0 
0 0 0 
0 0 0 
0 0 0 
0 0 0 
0 0 0 
0 0 0 
0 0 0 
0 0 0 
0 0 0 
0 0 0 
0 0 0 
0 0 0 
0 0 0 
0 0 0 
0 0 0 
0 0 0 
0 0 0 
0 0 0 
0 0 0 
0 0 0 
0 0 0 
0 0 0 
0 0 0 
0 0 0 
0 0 0 
0 0 0 
0 0 0 
0 0 0 
0 0 0 
0 0 0 
0 0 0 
0 0 0 
0 0 0 
0 0 0 
0 0 0 
0 0 0 
0 0 0 
0 0 0 
0 0 0 
0 0 0 
0 0 0 
0 0 0 
0 0 0 
0 0 0 
0 0 0 
0 0 0 
0 0 0 
0 0 0 
-8.17113e+06 -3.47966e+06 0 
-3.47966e+06 -5.86483e+06 0 
0 0 0 
-1.0343e+07 -876151 0 
-876151 -2.913e+06 0 
0 0 0 
0 0 0 
0 0 0 
0 0 0 
3.9733e+06 -2.44647e+06 0 
-2.44647e+06 -5.07029e+06 0 
0 0 0 
0 0 0 
0 0 0 
0 0 0 
-7.30607e+06 704326 0 
704326 7.77472e+06 0 
0 0 0 
1.63648e+06 -3.37205e+06 0 
-3.37205e+06 -7.4067e+06 0 
0 0 0 
1.11968e+07 -6.80058e+06 0 
-6.80058e+06 2.30835e+07 0 
0 0 0 
0 0 0 
0 0 0 
0 0 0 
-2.15001e+06 -605432 0 
-605432 -8.8639e+06 0 
0 0 0 
2.1774e+07 1.03508e+07 0 
1.03508e+07 1.28637e+07 0 
0 0 0 
0 0 0 
0 0 0 
0 0 0 
-1.96234e+07 1.87665e+06 0 
1.87665e+06 -1.71947e+07 0 
0 0 0 
6.236e+06 -5.11132e+06 0 
-5.11132e+06 -1.44126e+07 0 
0 0 0 
3.10571e+07 7.10642e+06 0 
7.10642e+06 3.63152e+06 0 
0 0 0 
2.88052e+07 -154943 0 
-154943 5.27629e+06 0 
0 0 0 
0 0 0 
0 0 0 
0 0 0 
-3.94249e+06 1.19503e+06 0 
1.19503e+06 -8.23133e+06 0 
0 0 0 
-4.49284e+06 6.33157e+06 0 
6.33157e+06 2.17487e+07 0 
0 0 0 
-2.42011e+07 5.53701e+06 0 
5.53701e+06 -2.47686e+07 0 
0 0 0 
0 0 0 
0 0 0 
0 0 0 
-1.47528e+07 -1.37262e+06 0 
-1.37262e+06 -4.32902e+06 0 
0 0 0 
1.48247e+07 -117165 0 
-117165 1.21026e+07 0 
0 0 0 
2.53685e+07 -3.67348e+06 0 
-3.67348e+06 1.23524e+07 0 
0 0 0 
-2.40788e+07 2.5823e+06 0 
2.5823e+06 -1.89998e+07 0 
0 0 0 
-1.97823e+07 -2.04069e+06 0 
-2.04069e+06 -9.81805e+06 0 
0 0 0 
0 0 0 
0 0 0 
0 0 0 
8.74384e+06 2.77968e+06 0 
2.77968e+06 -2.22119e+06 0 
0 0 0 
2.01588e+07 2.39418e+06 0 
2.39418e+06 3.73598e+07 0 
0 0 0 
-9.09396e+06 3.83502e+06 0 
3.83502e+06 -3.03132e+07 0 
0 0 0 
2.03932e+06 -6.58861e+06 0 
-6.58861e+06 -430137 0 
0 0 0 
0 0 0 
0 0 0 
0 0 0 
-1.35654e+07 -2.25275e+06 0 
-2.25275e+06 -8.62179e+06 0 
0 0 0 
3.18055e+06 3.18138e+06 0 
3.18138e+06 -529148 0 
0 0 0 
2.60211e+07 -6.42469e+06 0 
-6.42469e+06 1.17631e+07 0 
0 0 0 
-1.31937e+07 1.5526e+06 0 
1.5526e+06 -2.61861e+06 0 
0 0 0 
-5.80194e+06 1.46692e+06 0 
1.46692e+06 -2.59726e+07 0 
0 0 0 
9.25706e+06 -8.20268e+06 0 
-8.20268e+06 1.1794e+07 0 
0 0 0 
0 0 0 
0 0 0 
0 0 0 
-1.67827e+07 2.2471e+06 0 
2.2471e+06 -1.13759e+07 0 
0 0 0 
-1.29587e+07 -1.03975e+07 0 
-1.03975e+07 1.7796e+07 0 
0 0 0 
-4.82963e+07 -7.05265e+06 0 
-7.05265e+06 -3.95638e+07 0 
0 0 0 
-6.32736e+07 -8.35586e+06 0 
-8.35586e+06 -2.43154e+07 0 
0 0 0 
-6.48766e+07 -544762 0 
-544762 -4.41033e+07 0 
0 0 0 
0 0 0 
0 0 0 
0 0 0 
-1.01887e+07 -4.58093e+06 0 
-4.58093e+06 -4.47869e+06 0 
0 0 0 
-1.4733e+07 840591 0 
840591 -2.12277e+07 0 
0 0 0 
2.28229e+07 -4.16833e+06 0 
-4.16833e+06 -4.79133e+06 0 
0 0 0 
-6.89043e+06 -1.92412e+06 0 
-1.92412e+06 4.8704e+06 0 
0 0 0 
-5.05946e+06 -9.58471e+06 0 
-9.58471e+06 8.06802e+06 0 
0 0 0 
-5.44465e+07 -2.05271e+06 0 
-2.05271e+06 -1.66534e+07 0 
0 0 0 
-2.26384e+07 -3.25826e+06 0 
-3.25826e+06 1.75458e+07 0 
0 0 0 
0 0 0 
0 0 0 
0 0 0 
2.00952e+06 -4.83325e+06 0 
-4.83325e+06 -1.80745e+07 0 
0 0 0 
1.88095e+07 -4.2958e+06 0 
-4.2958e+06 2.82703e+07 0 
0 0 0 
1.83047e+07 -3.70898e+06 0 
-3.70898e+06 1.51096e+06 0 
0 0 0 
2.99003e+07 -1.34848e+06 0 
-1.34848e+06 -1.27305e+07 0 
0 0 0 
2.11686e+07 -506095 0 
-506095 -2.07141e+06 0 
0 0 0 
9.10827e+06 -2.77193e+06 0 
-2.77193e+06 -6.02998e+06 0 
0 0 0 
0 0 0 
0 0 0 
0 0 0 
-2.26879e+06 -4.11859e+06 0 
-4.11859e+06 -6.91439e+06 0 
0 0 0 
-2.87601e+07 -37202 0 
-37202 -2.07248e+07 0 
0 0 0 
1.88485e+07 5.06519e+06 0 
5.06519e+06 -9.48357e+06 0 
0 0 0 
-8.09551e+06 1.82766e+06 0 
1.82766e+06 -3.05256e+07 0 
0 0 0 
-2.97249e+07 3.75433e+06 0 
3.75433e+06 -3.35303e+07 0 
0 0 0 
-3.19152e+07 1.96332e+06 0 
1.96332e+06 -2.62161e+07 0 
0 0 0 
1.4255e+07 -4.42191e+06 0 
-4.42191e+06 3.24136e+07 0 
0 0 0 
1.4728e+07 -4.17746e+06 0 
-4.17746e+06 -1.06619e+06 0 
0 0 0 
0 0 0 
0 0 0 
0 0 0 
-6.48732e+06 6.72295e+06 0 
6.72295e+06 -2.84425e+07 0 
0 0 0 
2.99077e+07 -1.95762e+06 0 
-1.95762e+06 3.58315e+07 0 
0 0 0 
3.14476e+07 -4.02444e+06 0 
-4.02444e+06 1.12138e+07 0 
0 0 0 
1.35884e+07 -2.83702e+06 0 
-2.83702e+06 -1.42764e+07 0 
0 0 0 
1.23137e+07 -4.31041e+06 0 
-4.31041e+06 -1.78629e+07 0 
0 0 0 
7.97219e+06 -8.02273e+06 0 
-8.02273e+06 -8.26085e+06 0 
0 0 0 
1.69149e+07 -4.88174e+06 0 
-4.88174e+06 1.91145e+07 0 
0 0 0 
0 0 0 
0 0 0 
0 0 0 
-1.56482e+07 -1.86075e+07 0 
-1.86075e+07 -8.30813e+06 0 
0 0 0 
-2.09868e+07 -1.11639e+07 0 
-1.11639e+07 -1.00361e+07 0 
0 0 0 
4.24982e+07 2.74981e+06 0 
2.74981e+06 1.24757e+07 0 
0 0 0 
3.76898e+06 4.0018e+06 0 
4.0018e+06 2.54983e+06 0 
0 0 0 
-1.26951e+07 1.16134e+07 0 
1.16134e+07 8.53018e+06 0 
0 0 0 
-3.48589e+07 4.98125e+06 0 
4.98125e+06 -3.80865e+06 0 
0 0 0 
6.30022e+06 -2.31944e+06 0 
-2.31944e+06 1.83431e+06 0 
0 0 0 
5.96154e+06 -2.47796e+06 0 
-2.47796e+06 2.52429e+07 0 
0 0 0 
1.96013e+06 -2.61726e+06 0 
-2.61726e+06 -7.91881e+06 0 
0 0 0 
0 0 0 
0 0 0 
0 0 0 
-5.70182e+06 5.43582e+06 0 
5.43582e+06 -2.54462e+07 0 
0 0 0 
-5.6665e+06 -4.74356e+06 0 
-4.74356e+06 -2.63488e+06 0 
0 0 0 
-3.81948e+06 -7.90052e+06 0 
-7.90052e+06 2.04315e+07 0 
0 0 0 
-9.85622e+06 -9.00721e+06 0 
-9.00721e+06 -2.1436e+07 0 
0 0 0 
-112831 1.88956e+06 0 
1.88956e+06 -1.8043e+07 0 
0 0 0 
1.80542e+07 -3.61339e+06 0 
-3.61339e+06 -1.31504e+07 0 
0 0 0 
4.03811e+07 1.04731e+07 0 
1.04731e+07 3.48425e+07 0 
0 0 0 
4.91478e+07 -5.5727e+06 0 
-5.5727e+06 3.33312e+07 0 
0 0 0 
0 0 0 
0 0 0 
0 0 0 
-2.58708e+07 -4.04346e+06 0 
-4.04346e+06 5.16601e+06 0 
0 0 0 
1.61404e+06 465487 0 
465487 1.42683e+07 0 
0 0 0 
4.38638e+07 1.52408e+06 0 
1.52408e+06 1.20865e+07 0 
0 0 0 
-4.35198e+06 -3.3023e+06 0 
-3.3023e+06 -3.62443e+06 0 
0 0 0 
-2.12174e+07 -4.10446e+06 0 
-4.10446e+06 -2.44242e+07 0 
0 0 0 
-4.90865e+07 -1.14744e+07 0 
-1.14744e+07 -4.15486e+07 0 
0 0 0 
-5.22864e+06 -2.25942e+06 0 
-2.25942e+06 -2.82796e+07 0 
0 0 0 
-2.26648e+06 -1.36252e+06 0 
-1.36252e+06 -2.73953e+07 0 
0 0 0 
3.71081e+07 1.82994e+06 0 
1.82994e+06 9.54826e+06 0 
0 0 0 
2.17689e+07 -9.87311e+06 0 
-9.87311e+06 -2.95025e+07 0 
0 0 0 
0 0 0 
0 0 0 
0 0 0 
-1.74506e+07 6.01818e+06 0 
6.01818e+06 -2.98832e+07 0 
0 0 0 
-2.28245e+07 -383625 0 
-383625 -1.37888e+07 0 
0 0 0 
-1.65425e+07 3.32128e+06 0 
3.32128e+06 1.51031e+07 0 
0 0 0 
-2.62982e+07 -2.48079e+06 0 
-2.48079e+06 -1.9146e+07 0 
0 0 0 
-3.25342e+07 2.27198e+06 0 
2.27198e+06 -2.44878e+07 0 
0 0 0 
-3.4999e+07 5.44686e+06 0 
5.44686e+06 -2.19486e+07 0 
0 0 0 
-4.59001e+07 -3.23203e+06 0 
-3.23203e+06 -8.86511e+06 0 
0 0 0 
-4.97863e+07 2.61479e+06 0 
2.61479e+06 440163 0 
0 0 0 
-5.35144e+07 -7.87949e+06 0 
-7.87949e+06 -2.77472e+07 0 
0 0 0 
0 0 0 
0 0 0 
0 0 0 
-2.9236e+07 -3.85499e+06 0 
-3.85499e+06 -1.27116e+07 0 
0 0 0 
7.39299e+06 -3.53161e+06 0 
-3.53161e+06 1.37461e+07 0 
0 0 0 
4.03451e+07 -918156 0 
-918156 3.33027e+07 0 
0 0 0 
-1.41689e+07 3.16416e+06 0 
3.16416e+06 7.78372e+06 0 
0 0 0 
-2.32149e+06 -4.62868e+06 0 
-4.62868e+06 1.62075e+07 0 
0 0 0 
-4.28596e+07 -1.94146e+06 0 
-1.94146e+06 639745 0 
0 0 0 
1.87444e+07 -1.59348e+07 0 
-1.59348e+07 1.3358e+07 0 
0 0 0 
6.06282e+06 -4.33751e+06 0 
-4.33751e+06 -322922 0 
0 0 0 
3.57789e+07 -4.40689e+06 0 
-4.40689e+06 1.81924e+07 0 
0 0 0 
-4.46178e+07 6.14885e+06 0 
6.14885e+06 -4.05011e+07 0 
0 0 0 
-8.12164e+06 90194.3 0 
90194.3 1.23672e+06 0 
0 0 0 
0 0 0 
0 0 0 
0 0 0 
-6.06078e+06 3.76232e+06 0 
3.76232e+06 -1.96548e+07 0 
0 0 0 
6.16016e+06 89023.5 0 
89023.5 -1.18965e+06 0 
0 0 0 
1.47032e+07 644413 0 
644413 1.4542e+07 0 
0 0 0 
3.35122e+06 -4.05741e+06 0 
-4.05741e+06 -4.25434e+06 0 
0 0 0 
-1.26763e+07 -4.25336e+06 0 
-4.25336e+06 -2.10919e+07 0 
0 0 0 
-1.21324e+07 753207 0 
753207 -7.2612e+06 0 
0 0 0 
-2.3159e+06 -6.09086e+06 0 
-6.09086e+06 -7.99782e+06 0 
0 0 0 
522330 970801 0 
970801 1.53242e+07 0 
0 0 0 
-1.24952e+07 -4.14344e+06 0 
-4.14344e+06 -2.05187e+06 0 
0 0 0 
-2.11619e+07 2.00594e+07 0 
2.00594e+07 -1.76415e+07 0 
0 0 0 
0 0 0 
0 0 0 
0 0 0 
-3.21961e+07 -3.66443e+06 0 
-3.66443e+06 -1.24364e+07 0 
0 0 0 
7.57765e+06 2.40609e+06 0 
2.40609e+06 -8.33205e+06 0 
0 0 0 
2.78626e+07 -4.08394e+06 0 
-4.08394e+06 -6.4397e+06 0 
0 0 0 
-2.55634e+07 7.65926e+06 0 
7.65926e+06 -2.34295e+07 0 
0 0 0 
-2.25522e+07 4.11534e+06 0 
4.11534e+06 -1.36043e+07 0 
0 0 0 
-6.30715e+07 -1.0887e+07 0 
-1.0887e+07 -1.22665e+07 0 
0 0 0 
2.72529e+07 -1.08303e+07 0 
-1.08303e+07 3.11671e+07 0 
0 0 0 
2.87647e+07 -9.62055e+06 0 
-9.62055e+06 3.85883e+07 0 
0 0 0 
4.28599e+07 -8.13723e+06 0 
-8.13723e+06 3.41413e+07 0 
0 0 0 
-1.73931e+07 -8.81001e+06 0 
-8.81001e+06 3.66359e+06 0 
0 0 0 
-2.61421e+07 3.56207e+06 0 
3.56207e+06 -1.58823e+07 0 
0 0 0 
-1.26162e+07 -4.05858e+06 0 
-4.05858e+06 -1.72505e+07 0 
0 0 0 
0 0 0 
0 0 0 
0 0 0 
-5.10469e+06 4.23098e+06 0 
4.23098e+06 -9.70283e+06 0 
0 0 0 
7.87279e+06 8.07346e+06 0 
8.07346e+06 -3.53067e+06 0 
0 0 0 
1.66874e+07 -4.85147e+06 0 
-4.85147e+06 -2.36887e+06 0 
0 0 0 
2.43843e+07 -6.24014e+06 0 
-6.24014e+06 1.15304e+07 0 
0 0 0 
2.89942e+07 -6.71845e+06 0 
-6.71845e+06 -5.25682e+06 0 
0 0 0 
1.52922e+07 -1.03834e+06 0 
-1.03834e+06 -3.25039e+06 0 
0 0 0 
-859399 -9.91495e+06 0 
-9.91495e+06 -1.57098e+07 0 
0 0 0 
5.57428e+06 -7.80117e+06 0 
-7.80117e+06 2.165e+07 0 
0 0 0 
-1.65956e+06 -5.08353e+06 0 
-5.08353e+06 1.09465e+07 0 
0 0 0 
-2.90287e+07 -5.14666e+06 0 
-5.14666e+06 -6.24746e+06 0 
0 0 0 
-6.17643e+07 1.89817e+06 0 
1.89817e+06 -4.41806e+07 0 
0 0 0 
0 0 0 
0 0 0 
0 0 0 
-4.66904e+07 -1.13075e+07 0 
-1.13075e+07 -2.035e+07 0 
0 0 0 
2.55685e+07 -6.09452e+06 0 
-6.09452e+06 -3.594e+06 0 
0 0 0 
3.26501e+07 -1.5407e+06 0 
-1.5407e+06 -4.54948e+06 0 
0 0 0 
-3.13167e+07 2.35202e+06 0 
2.35202e+06 -3.19715e+07 0 
0 0 0 
-3.93569e+07 7.366e+06 0 
7.366e+06 -3.61102e+07 0 
0 0 0 
-7.79489e+07 6.04432e+06 0 
6.04432e+06 -4.31033e+07 0 
0 0 0 
1.88454e+07 1.51473e+06 0 
1.51473e+06 -9.78122e+06 0 
0 0 0 
1.42415e+07 2.34318e+06 0 
2.34318e+06 -3.44964e+06 0 
0 0 0 
2.83505e+07 -2.26333e+06 0 
-2.26333e+06 1.03566e+07 0 
0 0 0 
-2.01198e+07 -6.60115e+06 0 
-6.60115e+06 1.70467e+06 0 
0 0 0 
1.7447e+06 -9.50104e+06 0 
-9.50104e+06 1.02854e+07 0 
0 0 0 
-5.46216e+07 -7.08605e+06 0 
-7.08605e+06 -3.95701e+07 0 
0 0 0 
-6.77763e+07 -1.6419e+07 0 
-1.6419e+07 -3.64842e+07 0 
0 0 0 
0 0 0 
0 0 0 
0 0 0 
-4.30364e+06 1.63567e+06 0 
1.63567e+06 2.25702e+06 0 
0 0 0 
-2.93478e+07 6.42516e+06 0 
6.42516e+06 -2.94192e+07 0 
0 0 0 
-3.40032e+07 -2.37871e+06 0 
-2.37871e+06 -1.84863e+07 0 
0 0 0 
-2.86744e+07 2.719e+06 0 
2.719e+06 -1.61426e+07 0 
0 0 0 
-2.10917e+07 -5.14788e+06 0 
-5.14788e+06 -741386 0 
0 0 0 
-1.49773e+07 -137475 0 
-137475 -2.73468e+07 0 
0 0 0 
-4.55839e+06 652223 0 
652223 -1.72248e+07 0 
0 0 0 
1.87841e+07 -1.02731e+06 0 
-1.02731e+06 1.94983e+07 0 
0 0 0 
2.84775e+07 -6.98067e+06 0 
-6.98067e+06 1.79503e+07 0 
0 0 0 
3.35077e+07 -1.21718e+07 0 
-1.21718e+07 2.27205e+07 0 
0 0 0 
3.2137e+07 3.08011e+06 0 
3.08011e+06 -6.19849e+06 0 
0 0 0 
1.47709e+07 -3.8131e+06 0 
-3.8131e+06 -3.59262e+07 0 
0 0 0 
0 0 0 
0 0 0 
0 0 0 
-5.02544e+07 -2.83489e+06 0 
-2.83489e+06 -7.96238e+06 0 
0 0 0 
2.88163e+07 -1.07241e+07 0 
-1.07241e+07 1.1783e+07 0 
0 0 0 
6.18154e+07 -4.71824e+06 0 
-4.71824e+06 1.52073e+07 0 
0 0 0 
-3.41555e+07 3.00562e+06 0 
3.00562e+06 -1.33231e+07 0 
0 0 0 
-3.58213e+07 1.0931e+07 0 
1.0931e+07 -2.4524e+07 0 
0 0 0 
-6.41786e+07 6.33922e+06 0 
6.33922e+06 -3.40094e+07 0 
0 0 0 
2.19711e+07 9.6556e+06 0 
9.6556e+06 7.04036e+06 0 
0 0 0 
1.27371e+07 7.9221e+06 0 
7.9221e+06 1.95215e+07 0 
0 0 0 
1.30132e+07 -1.20068e+07 0 
-1.20068e+07 2.23986e+07 0 
0 0 0 
-3.5194e+07 -1.7445e+07 0 
-1.7445e+07 -1.41828e+07 0 
0 0 0 
3.91441e+06 -2.10631e+07 0 
-2.10631e+07 -7.00508e+06 0 
0 0 0 
-4.77416e+07 -1.06207e+07 0 
-1.06207e+07 2.4371e+06 0 
0 0 0 
4.94405e+07 -4.75761e+06 0 
-4.75761e+06 1.03442e+07 0 
0 0 0 
6.7115e+07 1.8233e+06 0 
1.8233e+06 4.02715e+07 0 
0 0 0 
0 0 0 
0 0 0 
0 0 0 
-2.08139e+06 -2.56793e+06 0 
-2.56793e+06 1.49692e+07 0 
0 0 0 
-4.24518e+07 2.00481e+06 0 
2.00481e+06 -4.53657e+07 0 
0 0 0 
-4.61421e+07 -5.70438e+06 0 
-5.70438e+06 -3.22174e+07 0 
0 0 0 
-2.64651e+07 1.22226e+06 0 
1.22226e+06 -1.15674e+07 0 
0 0 0 
-1.24337e+07 -8.72631e+06 0 
-8.72631e+06 4.23394e+06 0 
0 0 0 
-8.96929e+06 6.28124e+06 0 
6.28124e+06 -1.8065e+07 0 
0 0 0 
4.57024e+06 -7.8967e+06 0 
-7.8967e+06 -1.73322e+07 0 
0 0 0 
1.75146e+07 6.2312e+06 0 
6.2312e+06 9.55797e+06 0 
0 0 0 
1.55275e+07 -9.57734e+06 0 
-9.57734e+06 6.4133e+06 0 
0 0 0 
2.44089e+07 -5.19684e+06 0 
-5.19684e+06 3.17996e+07 0 
0 0 0 
-4.80991e+06 -5.62481e+06 0 
-5.62481e+06 -2.12128e+07 0 
0 0 0 
-7.14179e+06 -431936 0 
-431936 -3.73104e+07 0 
0 0 0 
8.93159e+06 1.91136e+06 0 
1.91136e+06 -1.90792e+06 0 
0 0 0 
0 0 0 
0 0 0 
0 0 0 
-6.0783e+07 -6.06635e+06 0 
-6.06635e+06 -2.05085e+07 0 
0 0 0 
2.50332e+07 -1.17929e+07 0 
-1.17929e+07 2.75575e+07 0 
0 0 0 
8.44689e+07 -7.40554e+06 0 
-7.40554e+06 6.56284e+07 0 
0 0 0 
1.36937e+07 -6.802e+06 0 
-6.802e+06 3.18963e+07 0 
0 0 0 
-5.70951e+07 3.83233e+06 0 
3.83233e+06 -1.49686e+07 0 
0 0 0 
-4.75997e+07 6.76735e+06 0 
6.76735e+06 -3.62493e+07 0 
0 0 0 
1.47062e+07 9.4894e+06 0 
9.4894e+06 -2.53015e+07 0 
0 0 0 
-2.74496e+07 1.12319e+07 0 
1.12319e+07 -4.75426e+07 0 
0 0 0 
-3.87969e+07 -8.65382e+06 0 
-8.65382e+06 -5.27478e+07 0 
0 0 0 
-5.80992e+07 -1.85884e+07 0 
-1.85884e+07 -3.66632e+07 0 
0 0 0 
1.55615e+07 -1.77216e+07 0 
-1.77216e+07 -1.20419e+06 0 
0 0 0 
-2.48373e+07 -9.51497e+06 0 
-9.51497e+06 -9.40029e+06 0 
0 0 0 
7.15179e+07 -3.95755e+06 0 
-3.95755e+06 3.1891e+07 0 
0 0 0 
8.48015e+06 -8.02585e+06 0 
-8.02585e+06 8.04682e+06 0 
0 0 0 
-1.17751e+07 -5.79558e+06 0 
-5.79558e+06 4.62495e+06 0 
0 0 0 
0 0 0 
0 0 0 
0 0 0 
-6.79076e+06 -1.59617e+07 0 
-1.59617e+07 5.82994e+06 0 
0 0 0 
-2.88246e+07 -1.59628e+07 0 
-1.59628e+07 -3.89328e+07 0 
0 0 0 
-2.57262e+07 -2.01095e+06 0 
-2.01095e+06 -3.39753e+07 0 
0 0 0 
-4.57507e+07 -4.11655e+06 0 
-4.11655e+06 -1.51391e+07 0 
0 0 0 
-3.54015e+07 4.08764e+06 0 
4.08764e+06 3.18682e+06 0 
0 0 0 
-5.27417e+07 -2.95412e+06 0 
-2.95412e+06 -2.76859e+07 0 
0 0 0 
-6.42187e+07 9.23831e+06 0 
9.23831e+06 -4.16994e+07 0 
0 0 0 
-5.11342e+07 -2.23861e+06 0 
-2.23861e+06 -1.61449e+07 0 
0 0 0 
-5.07761e+07 2.43436e+06 0 
2.43436e+06 -2.26594e+07 0 
0 0 0 
-2.7071e+07 -1.1775e+07 0 
-1.1775e+07 2.02024e+07 0 
0 0 0 
-3.68903e+07 -1.10578e+06 0 
-1.10578e+06 -3.8497e+07 0 
0 0 0 
-4.30702e+07 -8.33284e+06 0 
-8.33284e+06 -3.9956e+07 0 
0 0 0 
-5.79494e+07 -3.95376e+06 0 
-3.95376e+06 -3.01279e+07 0 
0 0 0 
-5.48272e+07 -6.64259e+06 0 
-6.64259e+06 -1.23677e+07 0 
0 0 0 
0 0 0 
0 0 0 
0 0 0 
-5.84684e+07 6.15465e+06 0 
6.15465e+06 -8.91863e+06 0 
0 0 0 
1.40349e+07 -1.23016e+06 0 
-1.23016e+06 1.07424e+07 0 
0 0 0 
5.84469e+07 -660230 0 
-660230 1.57248e+07 0 
0 0 0 
1.2516e+07 -2.06492e+07 0 
-2.06492e+07 2.34751e+06 0 
0 0 0 
-5.82489e+07 -1.43309e+07 0 
-1.43309e+07 -1.56401e+07 0 
0 0 0 
-2.43078e+07 -8.72287e+06 0 
-8.72287e+06 -1.46412e+06 0 
0 0 0 
2.58896e+07 37396.6 0 
37396.6 8.87205e+06 0 
0 0 0 
-1.15551e+07 -1.35724e+06 0 
-1.35724e+06 -7.13788e+06 0 
0 0 0 
-4.40394e+07 -4.84938e+06 0 
-4.84938e+06 -2.95899e+07 0 
0 0 0 
-7.75533e+07 1.83392e+06 0 
1.83392e+06 -5.02404e+07 0 
0 0 0 
2.74024e+07 708375 0 
708375 5.75953e+06 0 
0 0 0 
-1.12954e+07 6.36695e+06 0 
6.36695e+06 5.70165e+06 0 
0 0 0 
8.28265e+07 681503 0 
681503 4.10082e+07 0 
0 0 0 
-3.8462e+07 -9.9034e+06 0 
-9.9034e+06 1.18757e+07 0 
0 0 0 
-4.59706e+07 -4.51709e+06 0 
-4.51709e+06 -7.46174e+06 0 
0 0 0 
-2.386e+07 -1.32181e+07 0 
-1.32181e+07 1.06594e+07 0 
0 0 0 
0 0 0 
0 0 0 
0 0 0 
1.32387e+07 -1.04228e+07 0 
-1.04228e+07 -8.30979e+06 0 
0 0 0 
3.62276e+07 -7.58501e+06 0 
-7.58501e+06 -1.4289e+07 0 
0 0 0 
3.93838e+07 -6.11881e+06 0 
-6.11881e+06 1.03243e+07 0 
0 0 0 
4.80103e+07 6.04147e+06 0 
6.04147e+06 1.5448e+07 0 
0 0 0 
3.82956e+07 9.03407e+06 0 
9.03407e+06 1.74752e+07 0 
0 0 0 
3.64796e+07 -6.82667e+06 0 
-6.82667e+06 1.50389e+06 0 
0 0 0 
2.38022e+07 -1.07942e+06 0 
-1.07942e+06 -6.35551e+06 0 
0 0 0 
3.57958e+06 -1.56384e+06 0 
-1.56384e+06 949657 0 
0 0 0 
-2.33746e+07 -725862 0 
-725862 -2.12648e+07 0 
0 0 0 
-1.08362e+07 -4.7258e+06 0 
-4.7258e+06 1.59699e+07 0 
0 0 0 
-3.32178e+07 -9.75756e+06 0 
-9.75756e+06 -2.70498e+07 0 
0 0 0 
-3.8998e+07 1.409e+06 0 
1.409e+06 -3.33526e+07 0 
0 0 0 
-7.11825e+06 4.78502e+06 0 
4.78502e+06 -1.62577e+07 0 
0 0 0 
2.36649e+07 3.39462e+06 0 
3.39462e+06 2.31233e+07 0 
0 0 0 
2.27874e+07 -4.14654e+06 0 
-4.14654e+06 -4.65531e+06 0 
0 0 0 
0 0 0 
0 0 0 
0 0 0 
-4.02604e+07 9.61423e+06 0 
9.61423e+06 -1.46413e+07 0 
0 0 0 
-7.10049e+06 2.04034e+06 0 
2.04034e+06 1.19171e+07 0 
0 0 0 
3.95813e+07 -9.02361e+06 0 
-9.02361e+06 3.57534e+07 0 
0 0 0 
1.66317e+07 -2.21611e+07 0 
-2.21611e+07 2.6286e+07 0 
0 0 0 
-5.02037e+07 -1.6472e+07 0 
-1.6472e+07 -6.2457e+06 0 
0 0 0 
7.95915e+06 -4.85447e+06 0 
-4.85447e+06 -474088 0 
0 0 0 
6.98309e+06 5.48288e+06 0 
5.48288e+06 4.97264e+06 0 
0 0 0 
-1.31349e+07 -1.07094e+07 0 
-1.07094e+07 -1.13814e+07 0 
0 0 0 
-2.83886e+07 -1.25802e+07 0 
-1.25802e+07 -1.70154e+07 0 
0 0 0 
-6.24824e+07 -1.36656e+06 0 
-1.36656e+06 -1.74087e+07 0 
0 0 0 
2.18418e+07 7.18326e+06 0 
7.18326e+06 -4.48244e+06 0 
0 0 0 
-1.99434e+07 -1.90302e+06 0 
-1.90302e+06 -2.50237e+07 0 
0 0 0 
4.7664e+07 -3.41897e+06 0 
-3.41897e+06 -9.11567e+06 0 
0 0 0 
-6.57866e+07 -1.15723e+07 0 
-1.15723e+07 -5.6879e+07 0 
0 0 0 
-4.2598e+07 -1.08841e+07 0 
-1.08841e+07 -4.92042e+07 0 
0 0 0 
1.67878e+07 -1.4227e+07 0 
-1.4227e+07 1.87091e+07 0 
0 0 0 
-3.03245e+06 -1.3921e+07 0 
-1.3921e+07 -3.18859e+07 0 
0 0 0 
0 0 0 
0 0 0 
0 0 0 
-7.12296e+06 -2.08366e+06 0 
-2.08366e+06 -2.32064e+07 0 
0 0 0 
-2.03158e+07 -3.68025e+06 0 
-3.68025e+06 -3.19962e+07 0 
0 0 0 
7.55096e+06 2.46578e+06 0 
2.46578e+06 1.98287e+07 0 
0 0 0 
1.90789e+07 4.38995e+06 0 
4.38995e+06 -2.11039e+06 0 
0 0 0 
3.52965e+07 788511 0 
788511 1.68238e+07 0 
0 0 0 
5.77481e+06 3.56751e+06 0 
3.56751e+06 -1.32189e+07 0 
0 0 0 
-6.37618e+06 -4.98899e+06 0 
-4.98899e+06 -2.45659e+07 0 
0 0 0 
-2.70296e+06 -9.39946e+06 0 
-9.39946e+06 6.54326e+06 0 
0 0 0 
-2.92956e+06 -5.5309e+06 0 
-5.5309e+06 -2.89738e+07 0 
0 0 0 
9.45152e+06 -6.27172e+06 0 
-6.27172e+06 2.0582e+07 0 
0 0 0 
5.90001e+06 -1.14211e+07 0 
-1.14211e+07 -1.26498e+07 0 
0 0 0 
2.15222e+07 -2.03738e+06 0 
-2.03738e+06 9.98942e+06 0 
0 0 0 
1.55652e+06 6.79179e+06 0 
6.79179e+06 -1.51704e+07 0 
0 0 0 
1.03294e+07 6.51086e+06 0 
6.51086e+06 1.74557e+07 0 
0 0 0 
-1.53563e+07 -6.52871e+06 0 
-6.52871e+06 -3.39052e+07 0 
0 0 0 
7.8365e+06 -9.82889e+06 0 
-9.82889e+06 5.03001e+06 0 
0 0 0 
0 0 0 
0 0 0 
0 0 0 
-1.69945e+07 8.76024e+06 0 
8.76024e+06 -8.08184e+06 0 
0 0 0 
-3.78016e+07 7.74432e+06 0 
7.74432e+06 -1.63986e+07 0 
0 0 0 
9.6949e+06 -2.25378e+06 0 
-2.25378e+06 -2.74217e+06 0 
0 0 0 
7.01874e+06 -8.17912e+06 0 
-8.17912e+06 -8.02623e+06 0 
0 0 0 
-6.12989e+07 -1.33735e+07 0 
-1.33735e+07 -2.3539e+07 0 
0 0 0 
4.00694e+07 -4.46591e+06 0 
-4.46591e+06 2.77399e+07 0 
0 0 0 
-2.87489e+06 -2.69115e+06 0 
-2.69115e+06 1.54037e+07 0 
0 0 0 
-5.94362e+06 -1.01913e+07 0 
-1.01913e+07 8.43581e+06 0 
0 0 0 
-2.47294e+07 -3.83726e+06 0 
-3.83726e+06 3.07018e+06 0 
0 0 0 
-4.5562e+07 -6.06585e+06 0 
-6.06585e+06 -7.22118e+06 0 
0 0 0 
2.55433e+07 -2.91061e+06 0 
-2.91061e+06 1.70986e+07 0 
0 0 0 
-1.7888e+07 -390694 0 
-390694 -1.04512e+06 0 
0 0 0 
6.13786e+07 -1.7415e+06 0 
-1.7415e+06 2.7604e+07 0 
0 0 0 
-6.79839e+07 -1.00037e+07 0 
-1.00037e+07 -1.68789e+07 0 
0 0 0 
-2.80832e+07 -1.69537e+07 0 
-1.69537e+07 -1.45144e+07 0 
0 0 0 
1.46889e+07 -3.29325e+06 0 
-3.29325e+06 8.79015e+06 0 
0 0 0 
7.39136e+06 -1.16622e+07 0 
-1.16622e+07 -1.74388e+07 0 
0 0 0 
2.72036e+07 -3.55433e+06 0 
-3.55433e+06 2.35476e+07 0 
0 0 0 
0 0 0 
0 0 0 
0 0 0 
-8.36755e+06 -2.15287e+06 0 
-2.15287e+06 -2.85475e+07 0 
0 0 0 
1.18437e+07 1.17763e+06 0 
1.17763e+06 -2.45387e+06 0 
0 0 0 
1.18715e+07 4.66122e+06 0 
4.66122e+06 1.44287e+07 0 
0 0 0 
-7.69277e+06 1.19076e+07 0 
1.19076e+07 -1.44983e+07 0 
0 0 0 
-1.17725e+07 -753397 0 
-753397 -1.06505e+06 0 
0 0 0 
3.77903e+06 -5.32804e+06 0 
-5.32804e+06 -1.01212e+07 0 
0 0 0 
9.55573e+06 -5.90143e+06 0 
-5.90143e+06 -3.08751e+07 0 
0 0 0 
2.17323e+07 -1.30931e+07 0 
-1.30931e+07 8.33113e+06 0 
0 0 0 
3.11014e+06 1.61633e+06 0 
1.61633e+06 -2.11193e+07 0 
0 0 0 
1.71135e+07 -7.99366e+06 0 
-7.99366e+06 1.58886e+07 0 
0 0 0 
2.72009e+07 1.0695e+07 0 
1.0695e+07 1.01404e+07 0 
0 0 0 
2.53855e+07 -5.46022e+06 0 
-5.46022e+06 1.00069e+07 0 
0 0 0 
1.59078e+07 1.03145e+07 0 
1.03145e+07 -3.9723e+06 0 
0 0 0 
7.54939e+06 -7.35124e+06 0 
-7.35124e+06 1.05283e+07 0 
0 0 0 
-2.17921e+07 -5.87839e+06 0 
-5.87839e+06 -4.97861e+07 0 
0 0 0 
-2.4839e+07 -2.01165e+07 0 
-2.01165e+07 -1.31682e+07 0 
0 0 0 
-2.57704e+07 -5.61554e+06 0 
-5.61554e+06 -1.85253e+07 0 
0 0 0 
0 0 0 
0 0 0 
0 0 0 
-8.21146e+06 -2.53818e+06 0 
-2.53818e+06 -2.16187e+07 0 
0 0 0 
-5.67058e+07 1.04249e+07 0 
1.04249e+07 -5.37522e+07 0 
0 0 0 
-9.02758e+06 -3.88286e+06 0 
-3.88286e+06 -2.84359e+07 0 
0 0 0 
-1.31211e+07 -1.38839e+07 0 
-1.38839e+07 -1.33056e+07 0 
0 0 0 
-4.4176e+07 -1.13972e+07 0 
-1.13972e+07 -2.13752e+06 0 
0 0 0 
5.78988e+07 3.08033e+06 0 
3.08033e+06 3.04174e+07 0 
0 0 0 
-1.8913e+07 5.43851e+06 0 
5.43851e+06 -5.01952e+06 0 
0 0 0 
-2.71486e+07 -1.72071e+07 0 
-1.72071e+07 -1.07124e+07 0 
0 0 0 
-3.1557e+07 -1.39857e+07 0 
-1.39857e+07 -1.7097e+07 0 
0 0 0 
-3.49439e+07 -7.44499e+06 0 
-7.44499e+06 -1.37842e+07 0 
0 0 0 
1.4087e+07 -2.869e+06 0 
-2.869e+06 4.78009e+06 0 
0 0 0 
-8.4618e+06 -6.289e+06 0 
-6.289e+06 -1.32884e+06 0 
0 0 0 
4.97778e+07 -6.94527e+06 0 
-6.94527e+06 2.45596e+06 0 
0 0 0 
-6.63044e+07 -2.15337e+06 0 
-2.15337e+06 -2.81083e+07 0 
0 0 0 
-3.56294e+07 -5.03276e+06 0 
-5.03276e+06 403854 0 
0 0 0 
2.01679e+07 -4.83752e+06 0 
-4.83752e+06 -1.36941e+06 0 
0 0 0 
1.95459e+07 -350936 0 
-350936 -5.97908e+06 0 
0 0 0 
-1.40911e+07 -7.25623e+06 0 
-7.25623e+06 2.19499e+07 0 
0 0 0 
-1.09753e+07 1.02293e+07 0 
1.02293e+07 -1.56073e+07 0 
0 0 0 
0 0 0 
0 0 0 
0 0 0 
-1.49409e+07 -1.70531e+06 0 
-1.70531e+06 -3.42818e+07 0 
0 0 0 
-1.71483e+07 -3.98618e+06 0 
-3.98618e+06 2.70286e+06 0 
0 0 0 
-1.83599e+07 -852204 0 
-852204 -7.72944e+06 0 
0 0 0 
-2.47825e+07 -241070 0 
-241070 -1.15649e+07 0 
0 0 0 
-2.66998e+07 -2.01939e+06 0 
-2.01939e+06 -2.71998e+07 0 
0 0 0 
-2.44461e+07 -4.78077e+06 0 
-4.78077e+06 -1.88579e+07 0 
0 0 0 
-2.11934e+07 -8.55172e+06 0 
-8.55172e+06 -3.76627e+07 0 
0 0 0 
9.35885e+06 -1.27342e+07 0 
-1.27342e+07 3.52211e+06 0 
0 0 0 
6.83315e+06 -6.05777e+06 0 
-6.05777e+06 -2.00204e+07 0 
0 0 0 
4.14969e+07 -182142 0 
-182142 2.94182e+07 0 
0 0 0 
2.83135e+07 -7.97138e+06 0 
-7.97138e+06 1.20309e+07 0 
0 0 0 
2.87392e+07 -5.04054e+06 0 
-5.04054e+06 2.41953e+07 0 
0 0 0 
8.63393e+06 -1.54194e+06 0 
-1.54194e+06 -1.63356e+07 0 
0 0 0 
4.2346e+06 -9.40212e+06 0 
-9.40212e+06 -4.71412e+06 0 
0 0 0 
-1.48515e+07 -1.96506e+07 0 
-1.96506e+07 -4.20001e+07 0 
0 0 0 
6.50004e+06 -6.02552e+06 0 
-6.02552e+06 -1.13419e+07 0 
0 0 0 
3.01241e+07 -3.7467e+06 0 
-3.7467e+06 1.85725e+07 0 
0 0 0 
4.8664e+07 -2.09227e+06 0 
-2.09227e+06 4.19416e+07 0 
0 0 0 
0 0 0 
0 0 0 
0 0 0 
8.23733e+06 -6.65622e+06 0 
-6.65622e+06 7.8493e+06 0 
0 0 0 
-3.96296e+07 6.28352e+06 0 
6.28352e+06 -1.0711e+07 0 
0 0 0 
-4.98054e+06 1.04791e+07 0 
1.04791e+07 7.85389e+06 0 
0 0 0 
-3.03672e+07 -1.62266e+06 0 
-1.62266e+06 7.93886e+06 0 
0 0 0 
-2.84997e+07 -3.82448e+06 0 
-3.82448e+06 -9.9069e+06 0 
0 0 0 
6.64017e+07 -4.97491e+06 0 
-4.97491e+06 1.30555e+07 0 
0 0 0 
-4.11218e+07 -6.85174e+06 0 
-6.85174e+06 -3.2165e+07 0 
0 0 0 
-4.29974e+07 -3.70936e+06 0 
-3.70936e+06 -2.21069e+07 0 
0 0 0 
-3.34145e+07 -6.12585e+06 0 
-6.12585e+06 -1.19947e+06 0 
0 0 0 
-1.71727e+07 -1.04695e+07 0 
-1.04695e+07 -1.59159e+07 0 
0 0 0 
4.45918e+06 4.3081e+06 0 
4.3081e+06 -1.0193e+07 0 
0 0 0 
-3.89142e+06 -980702 0 
-980702 -5.26392e+06 0 
0 0 0 
5.01086e+07 -6.85005e+06 0 
-6.85005e+06 2.29033e+07 0 
0 0 0 
-5.1095e+07 -1.17812e+06 0 
-1.17812e+06 -1.12913e+07 0 
0 0 0 
-4.03365e+07 -1.04173e+07 0 
-1.04173e+07 -6.06894e+06 0 
0 0 0 
3.68006e+07 -931560 0 
-931560 4.57934e+07 0 
0 0 0 
5.0965e+07 7.59397e+06 0 
7.59397e+06 5.38331e+07 0 
0 0 0 
5.20986e+06 -3.50855e+06 0 
-3.50855e+06 4.41618e+07 0 
0 0 0 
2.38905e+07 4.61762e+06 0 
4.61762e+06 -3.28179e+06 0 
0 0 0 
3.76945e+07 -1.0125e+07 0 
-1.0125e+07 4.16411e+07 0 
0 0 0 
0 0 0 
0 0 0 
0 0 0 
-1.55518e+07 -6.2902e+06 0 
-6.2902e+06 -4.18569e+07 0 
0 0 0 
2.31907e+07 -2.70939e+06 0 
-2.70939e+06 1.68808e+07 0 
0 0 0 
2.46541e+07 -5.47547e+06 0 
-5.47547e+06 1.00796e+07 0 
0 0 0 
4.34401e+06 -7.30689e+06 0 
-7.30689e+06 -1.809e+07 0 
0 0 0 
-1.24722e+06 -2.20528e+06 0 
-2.20528e+06 -1.27716e+06 0 
0 0 0 
-1.09662e+07 1.35196e+06 0 
1.35196e+06 -2.77058e+07 0 
0 0 0 
-1.14976e+07 8.03099e+06 0 
8.03099e+06 -9.88172e+06 0 
0 0 0 
-314011 5.78108e+06 0 
5.78108e+06 -1.85703e+07 0 
0 0 0 
2.46384e+07 5.74375e+06 0 
5.74375e+06 841148 0 
0 0 0 
-2.56787e+06 2.45434e+06 0 
2.45434e+06 -9.29571e+06 0 
0 0 0 
6.97443e+06 -4.11521e+06 0 
-4.11521e+06 1.63629e+07 0 
0 0 0 
5.12391e+06 -7.39406e+06 0 
-7.39406e+06 1.40122e+07 0 
0 0 0 
-1.8282e+07 -1.50371e+07 0 
-1.50371e+07 -2.1515e+07 0 
0 0 0 
-3.38879e+07 -8.5115e+06 0 
-8.5115e+06 -2.89992e+07 0 
0 0 0 
-2.35632e+07 -9.15684e+06 0 
-9.15684e+06 -2.96645e+07 0 
0 0 0 
678333 6.14033e+06 0 
6.14033e+06 -6.70349e+06 0 
0 0 0 
1.37257e+07 5.05684e+06 0 
5.05684e+06 1.97784e+07 0 
0 0 0 
8.5058e+06 1.88785e+06 0 
1.88785e+06 3.02945e+06 0 
0 0 0 
9.3239e+06 -7.8606e+06 0 
-7.8606e+06 778974 0 
0 0 0 
0 0 0 
0 0 0 
0 0 0 
-9.04022e+06 -1.64893e+07 0 
-1.64893e+07 -1.60429e+07 0 
0 0 0 
-1.73679e+07 7.50192e+06 0 
7.50192e+06 -1.6908e+07 0 
0 0 0 
-1.57158e+07 1.18063e+07 0 
1.18063e+07 -1.04794e+07 0 
0 0 0 
-5.47257e+07 660863 0 
660863 -1.8377e+07 0 
0 0 0 
-2.25483e+07 -9.21522e+06 0 
-9.21522e+06 7.28617e+06 0 
0 0 0 
8.89434e+07 -746043 0 
-746043 4.10369e+07 0 
0 0 0 
-6.51487e+07 -1.08863e+07 0 
-1.08863e+07 -1.57742e+07 0 
0 0 0 
-3.22707e+07 -1.16205e+07 0 
-1.16205e+07 -2.419e+07 0 
0 0 0 
-4.61917e+07 -7.23539e+06 0 
-7.23539e+06 -3.52604e+07 0 
0 0 0 
4.05035e+06 -3.35982e+06 0 
-3.35982e+06 6.22852e+06 0 
0 0 0 
1.15485e+07 7.58088e+06 0 
7.58088e+06 5.51902e+06 0 
0 0 0 
-1.5546e+07 -1.28323e+06 0 
-1.28323e+06 -1.62025e+07 0 
0 0 0 
6.19629e+07 7.63249e+06 0 
7.63249e+06 1.9953e+07 0 
0 0 0 
-6.23202e+07 5.20271e+06 0 
5.20271e+06 -6.94325e+06 0 
0 0 0 
-5.20576e+07 -2.86277e+06 0 
-2.86277e+06 -3.08223e+06 0 
0 0 0 
3.53966e+07 -1.33307e+07 0 
-1.33307e+07 5.09822e+06 0 
0 0 0 
3.37681e+07 -8.62989e+06 0 
-8.62989e+06 -1.97123e+07 0 
0 0 0 
-3.43446e+07 6.45579e+06 0 
6.45579e+06 -6.50662e+07 0 
0 0 0 
1.69436e+06 -1.05482e+07 0 
-1.05482e+07 -4.62989e+07 0 
0 0 0 
1.28276e+06 -5.51999e+06 0 
-5.51999e+06 8.04484e+06 0 
0 0 0 
-3.21864e+07 -1.64099e+07 0 
-1.64099e+07 -3.30572e+07 0 
0 0 0 
0 0 0 
0 0 0 
0 0 0 
-1.55191e+06 3.79902e+06 0 
3.79902e+06 -3.26429e+07 0 
0 0 0 
1.18923e+07 1.1503e+07 0 
1.1503e+07 7.73355e+06 0 
0 0 0 
6.70726e+06 -6.54882e+06 0 
-6.54882e+06 -5.94663e+06 0 
0 0 0 
9.93394e+06 215311 0 
215311 -5.19435e+06 0 
0 0 0 
1.06275e+07 331594 0 
331594 -3.98619e+06 0 
0 0 0 
3.95788e+06 2.10608e+06 0 
2.10608e+06 -8.76827e+06 0 
0 0 0 
-1.76669e+06 -3.9733e+06 0 
-3.9733e+06 -2.82623e+06 0 
0 0 0 
-1.94668e+07 1.41053e+07 0 
1.41053e+07 -2.11238e+07 0 
0 0 0 
-3.62988e+07 -3.94113e+06 0 
-3.94113e+06 -3.141e+07 0 
0 0 0 
-3.2641e+07 -1.48279e+06 0 
-1.48279e+06 -3.14446e+07 0 
0 0 0 
-2.10157e+07 -4.67089e+06 0 
-4.67089e+06 6.85892e+06 0 
0 0 0 
-596565 -3.1746e+06 0 
-3.1746e+06 1.0324e+07 0 
0 0 0 
8.01225e+06 -1.56395e+07 0 
-1.56395e+07 -1.82026e+07 0 
0 0 0 
3.01188e+07 -7.82433e+06 0 
-7.82433e+06 5.40478e+06 0 
0 0 0 
5.30792e+07 525196 0 
525196 2.34075e+06 0 
0 0 0 
4.6664e+07 -2.6143e+06 0 
-2.6143e+06 1.65042e+07 0 
0 0 0 
3.47472e+07 37209.5 0 
37209.5 2.03382e+07 0 
0 0 0 
1.24143e+07 -7.10054e+06 0 
-7.10054e+06 -9.15986e+06 0 
0 0 0 
-1.82223e+07 -5.37778e+06 0 
-5.37778e+06 -1.2417e+07 0 
0 0 0 
-3.95863e+07 -1.39731e+07 0 
-1.39731e+07 696868 0 
0 0 0 
0 0 0 
0 0 0 
0 0 0 
-2.03457e+07 -1.27123e+07 0 
-1.27123e+07 6.29534e+06 0 
0 0 0 
3.57661e+07 8.61627e+06 0 
8.61627e+06 2.469e+07 0 
0 0 0 
-2.80367e+07 1.22215e+07 0 
1.22215e+07 -1.30576e+06 0 
0 0 0 
-7.01498e+07 -2.90104e+06 0 
-2.90104e+06 -2.62524e+07 0 
0 0 0 
-2.1837e+07 -2.60453e+06 0 
-2.60453e+06 -1.90801e+07 0 
0 0 0 
6.24506e+07 -1.62268e+07 0 
-1.62268e+07 1.09359e+07 0 
0 0 0 
-7.06726e+07 -1.71435e+07 0 
-1.71435e+07 -3.45916e+07 0 
0 0 0 
-3.58801e+07 -6.28303e+06 0 
-6.28303e+06 -4.44716e+06 0 
0 0 0 
-1.08274e+07 -9.17658e+06 0 
-9.17658e+06 -5.46941e+06 0 
0 0 0 
1.63466e+07 9.71888e+06 0 
9.71888e+06 -5.68137e+06 0 
0 0 0 
3.66233e+06 5.46183e+06 0 
5.46183e+06 1.20849e+07 0 
0 0 0 
-3.19111e+06 7.08537e+06 0 
7.08537e+06 2.44349e+07 0 
0 0 0 
7.51702e+07 4.99408e+06 0 
4.99408e+06 5.11411e+07 0 
0 0 0 
-8.02475e+07 -4.99613e+06 0 
-4.99613e+06 -9.67444e+06 0 
0 0 0 
-5.45952e+07 -6.5715e+06 0 
-6.5715e+06 2.66235e+06 0 
0 0 0 
4.67774e+07 -1.07056e+07 0 
-1.07056e+07 4.44076e+07 0 
0 0 0 
6.55535e+07 -8.71494e+06 0 
-8.71494e+06 5.40123e+07 0 
0 0 0 
-6.6572e+06 -1.82523e+07 0 
-1.82523e+07 2.9413e+07 0 
0 0 0 
3.00038e+07 -1.02603e+07 0 
-1.02603e+07 3.71496e+07 0 
0 0 0 
-2.05591e+07 194501 0 
194501 1.18294e+07 0 
0 0 0 
-5.13338e+07 -1.07361e+07 0 
-1.07361e+07 -3.2789e+07 0 
0 0 0 
-5.59728e+07 -3.83957e+06 0 
-3.83957e+06 103119 0 
0 0 0 
0 0 0 
0 0 0 
0 0 0 
-8.43048e+06 1.75613e+06 0 
1.75613e+06 -2.67053e+07 0 
0 0 0 
-1.00108e+07 -3.24906e+06 0 
-3.24906e+06 -9.9923e+06 0 
0 0 0 
-1.15675e+07 -2.25234e+06 0 
-2.25234e+06 -1.95366e+07 0 
0 0 0 
-4.5307e+06 -1.28052e+07 0 
-1.28052e+07 -5.19453e+06 0 
0 0 0 
-6.9484e+06 -2.51558e+06 0 
-2.51558e+06 -3.72825e+06 0 
0 0 0 
-1.10718e+07 1.25091e+06 0 
1.25091e+06 -1.16392e+06 0 
0 0 0 
-1.67965e+07 3.90977e+06 0 
3.90977e+06 -1.73791e+07 0 
0 0 0 
-1.96822e+07 -2.4802e+06 0 
-2.4802e+06 -2.18316e+07 0 
0 0 0 
-2.78126e+07 -5.98924e+06 0 
-5.98924e+06 -3.85888e+07 0 
0 0 0 
-7.24443e+06 3.29418e+06 0 
3.29418e+06 -1.92174e+07 0 
0 0 0 
9.89383e+06 -2.76579e+06 0 
-2.76579e+06 8.72975e+06 0 
0 0 0 
-8.07996e+06 -1.70686e+06 0 
-1.70686e+06 6.70857e+06 0 
0 0 0 
-1.86974e+07 -1.36288e+07 0 
-1.36288e+07 -3.18338e+07 0 
0 0 0 
-2.11425e+07 -1.61017e+07 0 
-1.61017e+07 -1.70012e+07 0 
0 0 0 
-4.72191e+07 -5.63721e+06 0 
-5.63721e+06 68630.5 0 
0 0 0 
-6.01453e+07 -1.04046e+07 0 
-1.04046e+07 -2.9455e+07 0 
0 0 0 
-7.06312e+07 -4.35842e+06 0 
-4.35842e+06 -1.4053e+07 0 
0 0 0 
-8.50175e+07 -1.00368e+07 0 
-1.00368e+07 -4.45301e+07 0 
0 0 0 
-7.61874e+07 -1.58286e+07 0 
-1.58286e+07 -3.55217e+07 0 
0 0 0 
-4.85018e+07 -1.31866e+07 0 
-1.31866e+07 -334324 0 
0 0 0 
-2.26409e+07 -3.12089e+06 0 
-3.12089e+06 -2.73594e+06 0 
0 0 0 
0 0 0 
0 0 0 
0 0 0 
-3.28176e+07 -6.97854e+06 0 
-6.97854e+06 -1.17462e+07 0 
0 0 0 
4.88907e+07 3.59396e+06 0 
3.59396e+06 1.10121e+07 0 
0 0 0 
-5.09726e+07 8.66784e+06 0 
8.66784e+06 -1.91495e+07 0 
0 0 0 
-5.8896e+07 -6.82006e+06 0 
-6.82006e+06 -9.31776e+06 0 
0 0 0 
-1.78946e+07 -1.6446e+06 0 
-1.6446e+06 1.00923e+07 0 
0 0 0 
7.23322e+07 -3.47506e+06 0 
-3.47506e+06 5.44024e+07 0 
0 0 0 
-5.38244e+07 -5.88044e+06 0 
-5.88044e+06 2.29402e+07 0 
0 0 0 
-2.7947e+07 -7.29835e+06 0 
-7.29835e+06 1.486e+07 0 
0 0 0 
3.34868e+07 1.9211e+06 0 
1.9211e+06 5.17101e+07 0 
0 0 0 
2.84305e+07 3.54209e+06 0 
3.54209e+06 5.30771e+07 0 
0 0 0 
1.30259e+07 5.14223e+06 0 
5.14223e+06 1.68645e+07 0 
0 0 0 
-2.54945e+07 6.54199e+06 0 
6.54199e+06 1.10487e+06 0 
0 0 0 
6.05394e+07 -5.07769e+06 0 
-5.07769e+06 1.83386e+07 0 
0 0 0 
-9.67808e+07 3.2175e+06 0 
3.2175e+06 -3.38354e+07 0 
0 0 0 
-6.68543e+07 -7.70006e+06 0 
-7.70006e+06 -2.99975e+07 0 
0 0 0 
3.26581e+07 -1.25212e+07 0 
-1.25212e+07 484554 0 
0 0 0 
4.19096e+07 -1.83359e+07 0 
-1.83359e+07 1.30262e+07 0 
0 0 0 
-7.29949e+06 -4.90963e+06 0 
-4.90963e+06 3.07383e+06 0 
0 0 0 
4.62222e+07 -4.71304e+06 0 
-4.71304e+06 2.11288e+07 0 
0 0 0 
-3.29239e+07 -1.83143e+06 0 
-1.83143e+06 1.13319e+07 0 
0 0 0 
-4.49186e+07 2.36839e+06 0 
2.36839e+06 2.00607e+07 0 
0 0 0 
1.37426e+07 -5.9727e+06 0 
-5.9727e+06 1.13091e+07 0 
0 0 0 
2.48498e+07 4.45718e+06 0 
4.45718e+06 4.93429e+07 0 
0 0 0 
0 0 0 
0 0 0 
0 0 0 
-1.26259e+07 5.75808e+06 0 
5.75808e+06 -1.89328e+07 0 
0 0 0 
-9.65579e+06 4.93573e+06 0 
4.93573e+06 -2.97884e+07 0 
0 0 0 
-1.88695e+07 -7.54411e+06 0 
-7.54411e+06 -1.51045e+07 0 
0 0 0 
-2.5771e+07 2.55458e+06 0 
2.55458e+06 -1.41628e+07 0 
0 0 0 
-3.57385e+07 -7.89544e+06 0 
-7.89544e+06 -8.83538e+06 0 
0 0 0 
-4.31369e+07 -3.66133e+06 0 
-3.66133e+06 -3.60209e+06 0 
0 0 0 
-3.58541e+07 -4.73048e+06 0 
-4.73048e+06 -3.72806e+07 0 
0 0 0 
-3.98818e+07 -8.09375e+06 0 
-8.09375e+06 -3.0494e+07 0 
0 0 0 
-3.42898e+07 675485 0 
675485 -4.15891e+07 0 
0 0 0 
-1.56292e+07 6.95812e+06 0 
6.95812e+06 -557639 0 
0 0 0 
-1.55333e+07 6.84024e+06 0 
6.84024e+06 -1.87149e+07 0 
0 0 0 
2.59235e+07 -203568 0 
-203568 1.07301e+07 0 
0 0 0 
1.38845e+07 -1.05723e+07 0 
-1.05723e+07 -2.55919e+07 0 
0 0 0 
2.73465e+07 -9.58075e+06 0 
-9.58075e+06 6.23794e+06 0 
0 0 0 
2.28825e+07 -1.7326e+07 0 
-1.7326e+07 1.74266e+07 0 
0 0 0 
2.00801e+06 -1.07112e+07 0 
-1.07112e+07 1.27266e+07 0 
0 0 0 
9.84375e+06 -9.78739e+06 0 
-9.78739e+06 -149043 0 
0 0 0 
1.30638e+07 -3.37033e+06 0 
-3.37033e+06 -7.69136e+06 0 
0 0 0 
4.03393e+07 -2.65673e+06 0 
-2.65673e+06 9.70588e+06 0 
0 0 0 
5.56367e+07 4.51839e+06 0 
4.51839e+06 3.59483e+07 0 
0 0 0 
4.3833e+07 762472 0 
762472 1.8602e+07 0 
0 0 0 
3.14167e+07 735568 0 
735568 2.22245e+07 0 
0 0 0 
0 0 0 
0 0 0 
0 0 0 
-3.29089e+07 -3.06437e+06 0 
-3.06437e+06 161814 0 
0 0 0 
5.97038e+07 -1.06133e+06 0 
-1.06133e+06 4.90354e+07 0 
0 0 0 
-2.11701e+07 1.25216e+07 0 
1.25216e+07 7.03358e+06 0 
0 0 0 
-7.0687e+07 8.92217e+06 0 
8.92217e+06 -2.4668e+07 0 
0 0 0 
-3.24141e+07 6.18763e+06 0 
6.18763e+06 -2.01978e+06 0 
0 0 0 
5.73927e+07 -7.87174e+06 0 
-7.87174e+06 2.27382e+07 0 
0 0 0 
-6.56694e+07 -1.03059e+07 0 
-1.03059e+07 -1.40607e+07 0 
0 0 0 
-2.92099e+07 -5.19941e+06 0 
-5.19941e+06 1.53598e+07 0 
0 0 0 
4.18951e+07 -6.50032e+06 0 
-6.50032e+06 1.7334e+07 0 
0 0 0 
-2.32719e+06 -2.76227e+06 0 
-2.76227e+06 -1.09434e+07 0 
0 0 0 
1.65869e+07 382961 0 
382961 1.35179e+07 0 
0 0 0 
-3.50143e+07 4.8503e+06 0 
4.8503e+06 -5.6547e+06 0 
0 0 0 
4.84349e+07 -1.01902e+07 0 
-1.01902e+07 1.95705e+07 0 
0 0 0 
-9.4004e+07 -6.75556e+06 0 
-6.75556e+06 -4.40866e+07 0 
0 0 0 
-7.10237e+07 -3.74268e+06 0 
-3.74268e+06 -2.58376e+07 0 
0 0 0 
3.45341e+07 -6.90361e+06 0 
-6.90361e+06 2.19641e+07 0 
0 0 0 
5.0951e+07 -1.22657e+06 0 
-1.22657e+06 4.0586e+07 0 
0 0 0 
3.21966e+07 -8.0961e+06 0 
-8.0961e+06 4.2118e+07 0 
0 0 0 
3.60141e+07 -7.38299e+06 0 
-7.38299e+06 4.76637e+07 0 
0 0 0 
-2.30346e+07 164446 0 
164446 2.09601e+07 0 
0 0 0 
-4.3008e+07 -2.51268e+06 0 
-2.51268e+06 1.79048e+06 0 
0 0 0 
1.53548e+07 -1.67185e+06 0 
-1.67185e+06 1.63118e+07 0 
0 0 0 
3.08713e+07 -3.58634e+06 0 
-3.58634e+06 3.51148e+07 0 
0 0 0 
1.94877e+07 -2.81965e+06 0 
-2.81965e+06 2.12614e+07 0 
0 0 0 
0 0 0 
0 0 0 
0 0 0 
1.17062e+06 -2.22266e+06 0 
-2.22266e+06 -8.14899e+06 0 
0 0 0 
-1.4776e+07 4.38688e+06 0 
4.38688e+06 -3.37772e+07 0 
0 0 0 
-4.79538e+06 -9.46894e+06 0 
-9.46894e+06 -2.59708e+07 0 
0 0 0 
6.71906e+06 -9.02056e+06 0 
-9.02056e+06 1.86362e+06 0 
0 0 0 
1.71428e+07 -1.86495e+07 0 
-1.86495e+07 3.04422e+06 0 
0 0 0 
2.82269e+07 -3.7358e+06 0 
-3.7358e+06 1.82445e+07 0 
0 0 0 
-5.76739e+06 -6.61996e+06 0 
-6.61996e+06 -3.20049e+07 0 
0 0 0 
1.43787e+06 -1.17998e+07 0 
-1.17998e+07 -4.27201e+06 0 
0 0 0 
-2.44807e+07 5.97893e+06 0 
5.97893e+06 -3.34642e+07 0 
0 0 0 
-2.59252e+07 -365887 0 
-365887 -7.99418e+06 0 
0 0 0 
-3.23312e+07 1.36789e+06 0 
1.36789e+06 -2.35724e+07 0 
0 0 0 
-5.79304e+07 -1.29154e+06 0 
-1.29154e+06 -3.07954e+07 0 
0 0 0 
-5.31266e+07 -5.9927e+06 0 
-5.9927e+06 -3.33596e+07 0 
0 0 0 
-4.11214e+07 -9.11909e+06 0 
-9.11909e+06 -2.0741e+07 0 
0 0 0 
-8.64921e+06 -5.84142e+06 0 
-5.84142e+06 2.05624e+07 0 
0 0 0 
1.2773e+07 -2.67643e+06 0 
-2.67643e+06 -2.4998e+06 0 
0 0 0 
4.09201e+07 -1.4705e+06 0 
-1.4705e+06 2.96577e+07 0 
0 0 0 
3.94055e+07 -3.0839e+06 0 
-3.0839e+06 -1.33206e+07 0 
0 0 0 
3.88008e+07 -5.56492e+06 0 
-5.56492e+06 2.64132e+07 0 
0 0 0 
3.76532e+07 -1.07707e+07 0 
-1.07707e+07 2.68217e+07 0 
0 0 0 
1.1347e+07 -7.99706e+06 0 
-7.99706e+06 -3.62486e+06 0 
0 0 0 
2.38246e+06 -1.84674e+07 0 
-1.84674e+07 1.15716e+07 0 
0 0 0 
-4.42634e+06 -1.0295e+07 0 
-1.0295e+07 1.21576e+07 0 
0 0 0 
0 0 0 
0 0 0 
0 0 0 
-4.53362e+07 -1.77041e+06 0 
-1.77041e+06 -2.21406e+07 0 
0 0 0 
4.26958e+07 7.60693e+06 0 
7.60693e+06 -1.29239e+06 0 
0 0 0 
-1.55397e+07 -4.53197e+06 0 
-4.53197e+06 -6.68881e+06 0 
0 0 0 
-6.33768e+07 -6.02905e+06 0 
-6.02905e+06 -1.71798e+07 0 
0 0 0 
-5.09463e+07 -1.87481e+06 0 
-1.87481e+06 -2.8942e+07 0 
0 0 0 
4.21357e+07 -768053 0 
-768053 5.38659e+06 0 
0 0 0 
-5.47847e+07 992079 0 
992079 -2.12033e+07 0 
0 0 0 
-4.44644e+07 -3.11777e+06 0 
-3.11777e+06 -2.84511e+07 0 
0 0 0 
3.59472e+07 -1.60514e+06 0 
-1.60514e+06 1.65758e+07 0 
0 0 0 
1.89656e+07 -5.10585e+06 0 
-5.10585e+06 2.51786e+07 0 
0 0 0 
8.66978e+06 1.27304e+06 0 
1.27304e+06 3.93714e+06 0 
0 0 0 
-3.83504e+07 -1.79761e+06 0 
-1.79761e+06 -2.75414e+07 0 
0 0 0 
3.38798e+07 -1.66094e+06 0 
-1.66094e+06 -1.21126e+07 0 
0 0 0 
-1.0687e+08 1.37201e+06 0 
1.37201e+06 -3.95015e+07 0 
0 0 0 
-4.01742e+07 6.99909e+06 0 
6.99909e+06 -2.16152e+07 0 
0 0 0 
-412576 3.07282e+06 0 
3.07282e+06 -210724 0 
0 0 0 
3.92278e+07 -7.6714e+06 0 
-7.6714e+06 1.17257e+07 0 
0 0 0 
3.57668e+07 -7.96048e+06 0 
-7.96048e+06 1.39507e+07 0 
0 0 0 
2.28314e+07 -5.85734e+06 0 
-5.85734e+06 3.50171e+06 0 
0 0 0 
-3.0933e+07 2.58063e+06 0 
2.58063e+06 -2.12484e+07 0 
0 0 0 
-5.39663e+07 4.12453e+06 0 
4.12453e+06 -2.11544e+07 0 
0 0 0 
2.6926e+06 -1.96664e+06 0 
-1.96664e+06 145304 0 
0 0 0 
1.81756e+07 -9.15993e+06 0 
-9.15993e+06 1.37349e+07 0 
0 0 0 
-1.80326e+07 -1.62753e+07 0 
-1.62753e+07 1.09295e+07 0 
0 0 0 
-3.34308e+07 -1.51775e+07 0 
-1.51775e+07 -704463 0 
0 0 0 
0 0 0 
0 0 0 
0 0 0 
-9.45788e+06 936131 0 
936131 -1.62583e+07 0 
0 0 0 
-3.38573e+06 280416 0 
280416 -2.90937e+07 0 
0 0 0 
6.79177e+06 -8.63307e+06 0 
-8.63307e+06 -3.37308e+07 0 
0 0 0 
2.27248e+07 -9.63323e+06 0 
-9.63323e+06 -1.18077e+07 0 
0 0 0 
4.82927e+07 -1.28367e+07 0 
-1.28367e+07 2.6516e+07 0 
0 0 0 
4.00636e+07 -2.00488e+07 0 
-2.00488e+07 2.12034e+07 0 
0 0 0 
2.60937e+07 -2.29802e+06 0 
-2.29802e+06 -1.06083e+07 0 
0 0 0 
3.19015e+07 -1.20786e+07 0 
-1.20786e+07 1.05047e+07 0 
0 0 0 
-674667 -9.87722e+06 0 
-9.87722e+06 -2.09704e+07 0 
0 0 0 
-2.14031e+07 2.04178e+06 0 
2.04178e+06 -1.14442e+07 0 
0 0 0 
-4.97946e+07 5.60027e+06 0 
5.60027e+06 -1.79802e+07 0 
0 0 0 
-5.88645e+07 6.10518e+06 0 
6.10518e+06 -4.27366e+07 0 
0 0 0 
-4.64717e+07 3.63986e+06 0 
3.63986e+06 -2.24845e+07 0 
0 0 0 
-2.78747e+07 -117479 0 
-117479 -2.47101e+07 0 
0 0 0 
1.1336e+07 -4.495e+06 0 
-4.495e+06 4.09323e+07 0 
0 0 0 
-5.84407e+06 -569936 0 
-569936 -1.63595e+07 0 
0 0 0 
6.97811e+06 7.88096e+06 0 
7.88096e+06 2.04285e+07 0 
0 0 0 
-4.03654e+06 845918 0 
845918 -1.8673e+07 0 
0 0 0 
-2.12136e+06 -4.52153e+06 0 
-4.52153e+06 -1.12736e+07 0 
0 0 0 
-1.85997e+07 -1.83043e+07 0 
-1.83043e+07 3.42004e+06 0 
0 0 0 
-2.27442e+07 -1.72928e+07 0 
-1.72928e+07 -202820 0 
0 0 0 
-1.45062e+07 -7.02296e+06 0 
-7.02296e+06 -2.0621e+07 0 
0 0 0 
1.00047e+07 -1.17447e+07 0 
-1.17447e+07 4.72713e+07 0 
0 0 0 
-5.51376e+06 -4.11662e+06 0 
-4.11662e+06 -8.52591e+06 0 
0 0 0 
0 0 0 
0 0 0 
0 0 0 
-2.17283e+07 8.66496e+06 0 
8.66496e+06 7.79124e+06 0 
0 0 0 
2.8232e+07 852534 0 
852534 2.19461e+07 0 
0 0 0 
-7.77317e+06 1.24985e+07 0 
1.24985e+07 -6.57158e+06 0 
0 0 0 
-6.29223e+07 -1.59149e+06 0 
-1.59149e+06 -3.15256e+07 0 
0 0 0 
-5.7695e+07 2.18456e+06 0 
2.18456e+06 -3.27747e+07 0 
0 0 0 
2.83677e+07 -7.60723e+06 0 
-7.60723e+06 -1.17981e+07 0 
0 0 0 
-4.47575e+07 -5.40949e+06 0 
-5.40949e+06 -4.38052e+07 0 
0 0 0 
-3.94486e+07 2.6967e+06 0 
2.6967e+06 -2.64249e+07 0 
0 0 0 
4.3303e+06 -3.25036e+06 0 
-3.25036e+06 -2.12324e+07 0 
0 0 0 
892877 -6.05298e+06 0 
-6.05298e+06 -2.82017e+07 0 
0 0 0 
2.14595e+07 -5.32095e+06 0 
-5.32095e+06 -5.21631e+06 0 
0 0 0 
-4.62498e+07 -2.50903e+06 0 
-2.50903e+06 -2.34221e+07 0 
0 0 0 
3.5669e+07 -1.26375e+07 0 
-1.26375e+07 8.29559e+06 0 
0 0 0 
-7.55286e+07 9.0772e+06 0 
9.0772e+06 -3.09714e+07 0 
0 0 0 
-3.98762e+07 1.26197e+07 0 
1.26197e+07 -4.76641e+06 0 
0 0 0 
-1.14715e+07 1.08193e+07 0 
1.08193e+07 1.35121e+07 0 
0 0 0 
3.97151e+07 3.8384e+06 0 
3.8384e+06 4.9134e+07 0 
0 0 0 
4.71633e+07 -6.37447e+06 0 
-6.37447e+06 4.16458e+07 0 
0 0 0 
4.52753e+07 -1.84305e+07 0 
-1.84305e+07 3.00208e+07 0 
0 0 0 
-3.66867e+07 -4.80337e+06 0 
-4.80337e+06 -1.34546e+07 0 
0 0 0 
-4.05807e+07 1.30325e+06 0 
1.30325e+06 -1.43661e+07 0 
0 0 0 
-3.80657e+06 970442 0 
970442 7.713e+06 0 
0 0 0 
7.04831e+06 3.63875e+06 0 
3.63875e+06 4.17708e+06 0 
0 0 0 
-2.27914e+07 -1.14809e+07 0 
-1.14809e+07 5.68408e+06 0 
0 0 0 
4.05894e+07 2.03437e+06 0 
2.03437e+06 5.63986e+07 0 
0 0 0 
2.41781e+07 6.5642e+06 0 
6.5642e+06 1.63221e+06 0 
0 0 0 
0 0 0 
0 0 0 
0 0 0 
2.83687e+06 1.90557e+06 0 
1.90557e+06 -7.58746e+06 0 
0 0 0 
-2.82941e+07 2.37807e+06 0 
2.37807e+06 -5.88813e+07 0 
0 0 0 
-2.84791e+07 -1.83484e+06 0 
-1.83484e+06 -3.56635e+07 0 
0 0 0 
-1.6761e+07 3.00276e+06 0 
3.00276e+06 -3.36295e+07 0 
0 0 0 
-1.42049e+07 -2.73072e+06 0 
-2.73072e+06 4.10464e+06 0 
0 0 0 
3.6409e+06 -5.29566e+06 0 
-5.29566e+06 8.01305e+06 0 
0 0 0 
2.89042e+06 -9.5272e+06 0 
-9.5272e+06 -1.60799e+07 0 
0 0 0 
2.60142e+06 -1.9943e+07 0 
-1.9943e+07 -4.70541e+06 0 
0 0 0 
2.13127e+07 -1.93757e+07 0 
-1.93757e+07 -7.04193e+06 0 
0 0 0 
3.26587e+07 -9.44033e+06 0 
-9.44033e+06 2.03356e+07 0 
0 0 0 
3.82893e+07 -7.00396e+06 0 
-7.00396e+06 1.96408e+07 0 
0 0 0 
3.35784e+07 1.07644e+07 0 
1.07644e+07 -8.68892e+06 0 
0 0 0 
3.74273e+07 7.04235e+06 0 
7.04235e+06 6.91487e+06 0 
0 0 0 
2.20047e+07 1.12275e+07 0 
1.12275e+07 -2.11921e+07 0 
0 0 0 
3.55408e+07 -4.24347e+06 0 
-4.24347e+06 4.04681e+07 0 
0 0 0 
6.1934e+06 -5.29756e+06 0 
-5.29756e+06 -3.90817e+06 0 
0 0 0 
-9.01339e+06 -5.65888e+06 0 
-5.65888e+06 9.10964e+06 0 
0 0 0 
-4.48391e+07 -1.0097e+07 0 
-1.0097e+07 -2.94338e+07 0 
0 0 0 
-4.44294e+07 -1.11198e+07 0 
-1.11198e+07 -2.42224e+07 0 
0 0 0 
-1.63864e+07 -7.85226e+06 0 
-7.85226e+06 -1.81102e+07 0 
0 0 0 
3.91123e+07 -1.55318e+06 0 
-1.55318e+06 4.74743e+07 0 
0 0 0 
3.0662e+07 -880146 0 
-880146 -1.85205e+07 0 
0 0 0 
8.09965e+07 -373709 0 
-373709 8.46677e+07 0 
0 0 0 
8.3129e+07 3.89445e+06 0 
3.89445e+06 1.92264e+07 0 
0 0 0 
9.43195e+07 4.05708e+06 0 
4.05708e+06 9.4221e+07 0 
0 0 0 
0 0 0 
0 0 0 
0 0 0 
-2.56832e+07 -3.43235e+06 0 
-3.43235e+06 -3.21319e+07 0 
0 0 0 
4.08733e+06 5.65198e+06 0 
5.65198e+06 -1.93167e+07 0 
0 0 0 
-1.17846e+07 -3.91118e+06 0 
-3.91118e+06 -1.85866e+07 0 
0 0 0 
-7.13306e+07 -1.40534e+07 0 
-1.40534e+07 -4.6806e+07 0 
0 0 0 
-5.29057e+07 -4.92065e+06 0 
-4.92065e+06 -2.9669e+07 0 
0 0 0 
2.63552e+07 -3.7244e+06 0 
-3.7244e+06 -22824.7 0 
0 0 0 
-4.81248e+07 -7.96707e+06 0 
-7.96707e+06 -2.48116e+07 0 
0 0 0 
-1.16886e+07 -9.51668e+06 0 
-9.51668e+06 -2.33536e+07 0 
0 0 0 
-1.45101e+06 1.23316e+06 0 
1.23316e+06 -4.96999e+06 0 
0 0 0 
5.73256e+06 -699829 0 
-699829 7.57937e+06 0 
0 0 0 
3.48261e+07 -3.88898e+06 0 
-3.88898e+06 5.46766e+06 0 
0 0 0 
-4.34206e+07 -3.31317e+06 0 
-3.31317e+06 -1.79286e+07 0 
0 0 0 
4.25553e+07 8.83984e+06 0 
8.83984e+06 2.46161e+07 0 
0 0 0 
-5.32021e+07 2.32364e+06 0 
2.32364e+06 -1.04675e+07 0 
0 0 0 
-4.74717e+07 1.01514e+07 0 
1.01514e+07 -3.07618e+07 0 
0 0 0 
-4.9947e+07 8.7897e+06 0 
8.7897e+06 -3.47346e+07 0 
0 0 0 
2.51283e+07 3.36156e+06 0 
3.36156e+06 -1.28948e+07 0 
0 0 0 
1.37706e+07 -1.15839e+07 0 
-1.15839e+07 3.08603e+06 0 
0 0 0 
5.12308e+07 -1.68848e+07 0 
-1.68848e+07 2.07797e+07 0 
0 0 0 
-2.39162e+07 -6.16257e+06 0 
-6.16257e+06 1.95393e+07 0 
0 0 0 
-2.69755e+07 4.73701e+06 0 
4.73701e+06 1.61959e+07 0 
0 0 0 
6.57683e+06 -5.07304e+06 0 
-5.07304e+06 1.41761e+07 0 
0 0 0 
6.55775e+06 -3.43884e+06 0 
-3.43884e+06 9.38896e+06 0 
0 0 0 
-1.857e+07 920658 0 
920658 -1.22753e+07 0 
0 0 0 
2.10541e+07 6.59143e+06 0 
6.59143e+06 1.77254e+07 0 
0 0 0 
5.47975e+07 1.41591e+06 0 
1.41591e+06 -7.56245e+06 0 
0 0 0 
4.93245e+07 -2.91322e+06 0 
-2.91322e+06 2.06751e+07 0 
0 0 0 
0 0 0 
0 0 0 
0 0 0 
-4.6279e+06 2.29059e+06 0 
2.29059e+06 -6.59722e+06 0 
0 0 0 
-2.66325e+07 -960756 0 
-960756 -5.33142e+07 0 
0 0 0 
-1.97029e+07 1.35082e+07 0 
1.35082e+07 -4.33221e+07 0 
0 0 0 
-7.45129e+06 4.33519e+06 0 
4.33519e+06 -2.03947e+07 0 
0 0 0 
7.75015e+06 1.37757e+06 0 
1.37757e+06 6.86373e+06 0 
0 0 0 
3.32499e+06 5.23702e+06 0 
5.23702e+06 -1.48053e+06 0 
0 0 0 
-935040 -4.74303e+06 0 
-4.74303e+06 -3.22292e+07 0 
0 0 0 
1.19927e+07 -1.07235e+07 0 
-1.07235e+07 -7.6467e+06 0 
0 0 0 
2.2955e+06 -1.57446e+07 0 
-1.57446e+07 -1.05324e+07 0 
0 0 0 
1.74539e+07 -1.02595e+07 0 
-1.02595e+07 2.81472e+07 0 
0 0 0 
1.03964e+07 -4.44614e+06 0 
-4.44614e+06 1.57003e+07 0 
0 0 0 
-8.0008e+06 3.50075e+06 0 
3.50075e+06 2.51032e+06 0 
0 0 0 
-2.05622e+07 2.96459e+06 0 
2.96459e+06 -3.3385e+07 0 
0 0 0 
-1.75496e+07 785712 0 
785712 -1.66816e+07 0 
0 0 0 
-1.25845e+07 4.73879e+06 0 
4.73879e+06 6.97524e+06 0 
0 0 0 
-4.94488e+06 -5.57532e+06 0 
-5.57532e+06 -1.34484e+07 0 
0 0 0 
-7.44122e+06 -8.73216e+06 0 
-8.73216e+06 7.16884e+06 0 
0 0 0 
-2.67361e+07 -1.05156e+07 0 
-1.05156e+07 -2.46553e+07 0 
0 0 0 
-1.4531e+07 3.00281e+06 0 
3.00281e+06 1.42465e+06 0 
0 0 0 
-2.03762e+07 -228908 0 
-228908 -1.72506e+07 0 
0 0 0 
-1.49473e+07 1.11806e+07 0 
1.11806e+07 2.40426e+07 0 
0 0 0 
-1.79242e+07 5.53738e+06 0 
5.53738e+06 -1.6892e+07 0 
0 0 0 
-1.21521e+07 5.65914e+06 0 
5.65914e+06 4.15874e+07 0 
0 0 0 
-6.39922e+07 3.39091e+06 0 
3.39091e+06 -1.98087e+07 0 
0 0 0 
-4.87857e+07 -1.99301e+06 0 
-1.99301e+06 4.00016e+07 0 
0 0 0 
-8.12891e+07 1.96036e+06 0 
1.96036e+06 -5.84849e+07 0 
0 0 0 
0 0 0 
0 0 0 
0 0 0 
5.07692e+06 5.17089e+06 0 
5.17089e+06 1.93738e+07 0 
0 0 0 
-6.32968e+06 7.05159e+06 0 
7.05159e+06 1.44877e+07 0 
0 0 0 
-2.03548e+07 -1.31955e+07 0 
-1.31955e+07 -1.33753e+07 0 
0 0 0 
-4.42372e+07 -23101.4 0 
-23101.4 -3.01697e+07 0 
0 0 0 
-5.95358e+07 7.58766e+06 0 
7.58766e+06 -3.54024e+07 0 
0 0 0 
1.41909e+07 -1.08323e+07 0 
-1.08323e+07 -7.98988e+06 0 
0 0 0 
-4.60451e+07 -3.15111e+06 0 
-3.15111e+06 -2.0767e+07 0 
0 0 0 
3.44792e+07 1.0622e+07 0 
1.0622e+07 1.54847e+07 0 
0 0 0 
-1.30362e+07 1.35615e+07 0 
1.35615e+07 -131601 0 
0 0 0 
-2.13725e+06 1.65679e+06 0 
1.65679e+06 8.22154e+06 0 
0 0 0 
4.02567e+07 -4.66967e+06 0 
-4.66967e+06 1.93526e+07 0 
0 0 0 
-5.7714e+07 -1.03663e+06 0 
-1.03663e+06 -1.2656e+07 0 
0 0 0 
6.83428e+07 -1.14958e+07 0 
-1.14958e+07 2.60652e+07 0 
0 0 0 
-5.93181e+07 -1.22802e+06 0 
-1.22802e+06 -1.95479e+07 0 
0 0 0 
-3.67986e+07 2.59829e+06 0 
2.59829e+06 -1.8149e+07 0 
0 0 0 
-5.88128e+07 1.37827e+07 0 
1.37827e+07 -3.41691e+07 0 
0 0 0 
1.78785e+07 9.97158e+06 0 
9.97158e+06 -62265.5 0 
0 0 0 
6.73957e+06 -1.67052e+06 0 
-1.67052e+06 106669 0 
0 0 0 
7.15844e+07 -7.56687e+06 0 
-7.56687e+06 5.71894e+07 0 
0 0 0 
-2.03153e+07 1.09017e+06 0 
1.09017e+06 1.87834e+07 0 
0 0 0 
-2.82482e+07 2.40163e+06 0 
2.40163e+06 1.93089e+07 0 
0 0 0 
-2.44363e+06 -7.83933e+06 0 
-7.83933e+06 3.83283e+07 0 
0 0 0 
4.17789e+07 -1.08305e+07 0 
-1.08305e+07 5.46142e+07 0 
0 0 0 
1.62853e+07 -1.1171e+07 0 
-1.1171e+07 4.76864e+07 0 
0 0 0 
-1.42891e+06 -305555 0 
-305555 1.4564e+07 0 
0 0 0 
3.44422e+07 -1.32198e+07 0 
-1.32198e+07 2.80103e+07 0 
0 0 0 
-6.63426e+07 -1.10392e+07 0 
-1.10392e+07 -4.10585e+07 0 
0 0 0 
-4.53657e+07 -1.89427e+07 0 
-1.89427e+07 9.90713e+06 0 
0 0 0 
0 0 0 
0 0 0 
0 0 0 
-1.53936e+07 -4.44409e+06 0 
-4.44409e+06 -1.40472e+07 0 
0 0 0 
-3.51229e+07 -1.35887e+07 0 
-1.35887e+07 -5.75615e+07 0 
0 0 0 
-5.07441e+07 -6.14022e+06 0 
-6.14022e+06 -5.32436e+07 0 
0 0 0 
-5.66877e+07 3.26834e+06 0 
3.26834e+06 -1.97293e+07 0 
0 0 0 
-5.16156e+07 3.11711e+06 0 
3.11711e+06 -1.81508e+07 0 
0 0 0 
-5.7407e+07 -755498 0 
-755498 -2.71838e+07 0 
0 0 0 
-6.48779e+07 1.03457e+07 0 
1.03457e+07 -4.37565e+07 0 
0 0 0 
-2.64207e+07 9.07666e+06 0 
9.07666e+06 -4.05455e+07 0 
0 0 0 
2.90319e+07 -573043 0 
-573043 1.48459e+06 0 
0 0 0 
5.14462e+07 -3.85423e+06 0 
-3.85423e+06 2.59669e+07 0 
0 0 0 
6.34313e+07 -1.28476e+07 0 
-1.28476e+07 4.0568e+07 0 
0 0 0 
5.79484e+07 -1.05033e+07 0 
-1.05033e+07 3.3036e+07 0 
0 0 0 
7.03272e+06 -5.765e+06 0 
-5.765e+06 -2.59264e+07 0 
0 0 0 
-9.99005e+06 -3.24509e+06 0 
-3.24509e+06 667458 0 
0 0 0 
-2.39142e+07 -7.07563e+06 0 
-7.07563e+06 -2.0927e+07 0 
0 0 0 
-2.94427e+07 -9.8418e+06 0 
-9.8418e+06 -1.01137e+07 0 
0 0 0 
-1.96247e+07 -1.22453e+07 0 
-1.22453e+07 -86180.2 0 
0 0 0 
1.9097e+06 -1.62524e+06 0 
-1.62524e+06 -1.24878e+07 0 
0 0 0 
2.08993e+07 -8.25631e+06 0 
-8.25631e+06 1.78165e+07 0 
0 0 0 
3.17621e+07 8.82601e+06 0 
8.82601e+06 2.24571e+07 0 
0 0 0 
3.01956e+07 151268 0 
151268 1.96102e+07 0 
0 0 0 
1.03871e+07 1.27364e+07 0 
1.27364e+07 5.66426e+06 0 
0 0 0 
3.22892e+07 -1.59202e+07 0 
-1.59202e+07 3.73278e+07 0 
0 0 0 
2.0055e+07 -6.48452e+06 0 
-6.48452e+06 1.61688e+07 0 
0 0 0 
1.86973e+07 -1.29427e+07 0 
-1.29427e+07 5.14134e+07 0 
0 0 0 
-5.22336e+06 3.35567e+06 0 
3.35567e+06 -3.18359e+07 0 
0 0 0 
-1.0276e+07 -9.8991e+06 0 
-9.8991e+06 -3.13733e+07 0 
0 0 0 
0 0 0 
0 0 0 
0 0 0 
3.57997e+06 -6.57832e+06 0 
-6.57832e+06 -1.62479e+07 0 
0 0 0 
-5.95488e+07 -3.94507e+06 0 
-3.94507e+06 -5.43359e+07 0 
0 0 0 
-1.34237e+07 -1.15531e+07 0 
-1.15531e+07 -2.6462e+07 0 
0 0 0 
-2.34762e+07 -3.96381e+06 0 
-3.96381e+06 -2.76965e+06 0 
0 0 0 
-5.9888e+07 -7.9402e+06 0 
-7.9402e+06 -1.06044e+07 0 
0 0 0 
1.73657e+07 1.98978e+06 0 
1.98978e+06 2.49401e+07 0 
0 0 0 
209578 1.15253e+06 0 
1.15253e+06 2.74843e+07 0 
0 0 0 
5.02308e+07 5.36698e+06 0 
5.36698e+06 4.96302e+07 0 
0 0 0 
-4.16053e+06 4.94258e+06 0 
4.94258e+06 3.41931e+07 0 
0 0 0 
-2.3492e+07 497562 0 
497562 1.16734e+07 0 
0 0 0 
5.28014e+07 -1.10475e+07 0 
-1.10475e+07 4.29948e+07 0 
0 0 0 
-6.48406e+07 561552 0 
561552 -1.30829e+06 0 
0 0 0 
6.87383e+07 -1.06474e+06 0 
-1.06474e+06 3.96252e+07 0 
0 0 0 
-3.59871e+07 -1.41639e+07 0 
-1.41639e+07 -483923 0 
0 0 0 
-2.06886e+07 -3.80842e+06 0 
-3.80842e+06 -4.66775e+06 0 
0 0 0 
-6.07459e+07 8.15347e+06 0 
8.15347e+06 -3.48973e+07 0 
0 0 0 
-2.16329e+06 8.85309e+06 0 
8.85309e+06 -3.98978e+07 0 
0 0 0 
4.48111e+06 1.61663e+07 0 
1.61663e+07 -2.67104e+07 0 
0 0 0 
4.41848e+07 1.10836e+07 0 
1.10836e+07 -4.52484e+06 0 
0 0 0 
-3.04785e+07 -6.26536e+06 0 
-6.26536e+06 291781 0 
0 0 0 
-4.13022e+07 7.88682e+06 0 
7.88682e+06 -2.20135e+06 0 
0 0 0 
-1.82947e+07 -4.61118e+06 0 
-4.61118e+06 7.87391e+06 0 
0 0 0 
3.75134e+07 -3.12779e+06 0 
-3.12779e+06 2.69302e+07 0 
0 0 0 
1.24967e+07 -1.35399e+07 0 
-1.35399e+07 1.78465e+07 0 
0 0 0 
-8.72176e+06 -4.94904e+06 0 
-4.94904e+06 3.00113e+07 0 
0 0 0 
2.51827e+07 -8.59332e+06 0 
-8.59332e+06 3.48434e+07 0 
0 0 0 
-2.41697e+07 -8.37119e+06 0 
-8.37119e+06 1.88563e+07 0 
0 0 0 
2.32167e+07 1.01195e+06 0 
1.01195e+06 2.85358e+07 0 
0 0 0 
3.72691e+07 -7.24834e+06 0 
-7.24834e+06 4.00329e+07 0 
0 0 0 
0 0 0 
0 0 0 
0 0 0 
718514 -8.50549e+06 0 
-8.50549e+06 -2.80983e+07 0 
0 0 0 
1.71209e+07 -3.78505e+06 0 
-3.78505e+06 -3.48919e+07 0 
0 0 0 
3.62754e+07 -3.34602e+06 0 
-3.34602e+06 -2.08158e+07 0 
0 0 0 
5.81569e+07 3.70997e+06 0 
3.70997e+06 4.06289e+07 0 
0 0 0 
5.19545e+07 6.953e+06 0 
6.953e+06 1.0175e+07 0 
0 0 0 
7.68297e+07 1.00249e+07 0 
1.00249e+07 2.87109e+07 0 
0 0 0 
6.07407e+07 948611 0 
948611 -1.41567e+07 0 
0 0 0 
2.42972e+07 1.1958e+07 0 
1.1958e+07 -1.54169e+07 0 
0 0 0 
2.26333e+07 6.82009e+06 0 
6.82009e+06 -1.78834e+07 0 
0 0 0 
2.73073e+07 -1.00673e+07 0 
-1.00673e+07 2.18385e+06 0 
0 0 0 
2.06192e+07 -8.54032e+06 0 
-8.54032e+06 1.5846e+07 0 
0 0 0 
2.38567e+07 -2.03413e+07 0 
-2.03413e+07 2.56576e+07 0 
0 0 0 
1.97803e+07 -1.85981e+07 0 
-1.85981e+07 -3.15439e+06 0 
0 0 0 
3.13868e+07 -1.20517e+07 0 
-1.20517e+07 1.28245e+07 0 
0 0 0 
2.53594e+07 -1.87587e+06 0 
-1.87587e+06 -8.70234e+06 0 
0 0 0 
4.34748e+07 -4.236e+06 0 
-4.236e+06 1.70203e+07 0 
0 0 0 
5.07938e+07 -1.21757e+07 0 
-1.21757e+07 2.14596e+07 0 
0 0 0 
2.7543e+07 -4.3422e+06 0 
-4.3422e+06 2.23892e+06 0 
0 0 0 
2.69267e+07 -1.28893e+06 0 
-1.28893e+06 2.69506e+07 0 
0 0 0 
2.79812e+07 6.28156e+06 0 
6.28156e+06 2.96673e+07 0 
0 0 0 
2.77765e+07 -5.90874e+06 0 
-5.90874e+06 1.18773e+07 0 
0 0 0 
2.51451e+07 2.89656e+06 0 
2.89656e+06 2.83194e+06 0 
0 0 0 
2.60192e+07 -9.26855e+06 0 
-9.26855e+06 2.8072e+07 0 
0 0 0 
4.67262e+07 -7.23305e+06 0 
-7.23305e+06 3.48541e+07 0 
0 0 0 
6.55365e+07 -7.68963e+06 0 
-7.68963e+06 6.22611e+07 0 
0 0 0 
2.43587e+07 3.80621e+06 0 
3.80621e+06 -1.40645e+07 0 
0 0 0 
1.49795e+07 -3.73602e+06 0 
-3.73602e+06 -1.63818e+07 0 
0 0 0 
2.08001e+07 6.86082e+06 0 
6.86082e+06 1.10137e+07 0 
0 0 0 
0 0 0 
0 0 0 
0 0 0 
1.24716e+07 -850254 0 
-850254 1.66383e+07 0 
0 0 0 
-4.03989e+07 949860 0 
949860 8.4262e+06 0 
0 0 0 
4.4012e+06 6.41495e+06 0 
6.41495e+06 3.03658e+07 0 
0 0 0 
-8.26628e+06 5.3854e+06 0 
5.3854e+06 2.09236e+07 0 
0 0 0 
-4.90824e+07 1.16039e+07 0 
1.16039e+07 4.54952e+06 0 
0 0 0 
7.13537e+06 7.87475e+06 0 
7.87475e+06 1.81401e+07 0 
0 0 0 
6.55311e+06 54641.5 0 
54641.5 1.72601e+07 0 
0 0 0 
4.50512e+07 1.33042e+07 0 
1.33042e+07 3.60727e+07 0 
0 0 0 
4.34145e+06 1.5707e+06 0 
1.5707e+06 1.85807e+07 0 
0 0 0 
-6.13851e+07 -891741 0 
-891741 -6.5016e+06 0 
0 0 0 
3.55478e+07 -1.05931e+07 0 
-1.05931e+07 1.68744e+07 0 
0 0 0 
-5.06817e+07 -1.057e+07 0 
-1.057e+07 -1.037e+07 0 
0 0 0 
4.69292e+07 -6.98172e+06 0 
-6.98172e+06 1.62943e+07 0 
0 0 0 
-4.75858e+07 -1.5056e+07 0 
-1.5056e+07 -9.09047e+06 0 
0 0 0 
7.99106e+06 -1.65337e+07 0 
-1.65337e+07 1.17593e+07 0 
0 0 0 
-3.42169e+07 -1.75022e+06 0 
-1.75022e+06 580644 0 
0 0 0 
2.40011e+07 1.46306e+07 0 
1.46306e+07 2.88939e+07 0 
0 0 0 
1.42904e+07 8.47903e+06 0 
8.47903e+06 1.02852e+07 0 
0 0 0 
3.71144e+07 5.07685e+06 0 
5.07685e+06 7.58909e+06 0 
0 0 0 
-5.47936e+07 -1.06853e+06 0 
-1.06853e+06 -3.91051e+07 0 
0 0 0 
-4.9724e+07 -696558 0 
-696558 -4.2377e+07 0 
0 0 0 
-2.5842e+07 6.56975e+06 0 
6.56975e+06 -3.00698e+07 0 
0 0 0 
9.96399e+06 -1.26496e+07 0 
-1.26496e+07 -9.09333e+06 0 
0 0 0 
1.76003e+07 -8.78882e+06 0 
-8.78882e+06 460521 0 
0 0 0 
-1.89211e+07 2.8972e+06 0 
2.8972e+06 -4.54655e+06 0 
0 0 0 
2.01926e+07 2.63518e+06 0 
2.63518e+06 3.44073e+07 0 
0 0 0 
-2.04382e+07 -9.76817e+06 0 
-9.76817e+06 3.62634e+07 0 
0 0 0 
6.46913e+07 -258095 0 
-258095 7.21498e+07 0 
0 0 0 
2.50256e+07 -1.79624e+06 0 
-1.79624e+06 4.105e+07 0 
0 0 0 
2.15934e+07 5.61398e+06 0 
5.61398e+06 4.93047e+07 0 
0 0 0 
0 0 0 
0 0 0 
0 0 0 
-1.17106e+07 4.1756e+06 0 
4.1756e+06 -4.01207e+07 0 
0 0 0 
-1.47488e+07 3.13487e+06 0 
3.13487e+06 -3.61573e+07 0 
0 0 0 
-1.1181e+07 5.64044e+06 0 
5.64044e+06 -2.70849e+07 0 
0 0 0 
2.90824e+07 1.28006e+07 0 
1.28006e+07 2.36017e+07 0 
0 0 0 
3.4443e+07 3.72659e+06 0 
3.72659e+06 1.18397e+07 0 
0 0 0 
1.61441e+07 1.96731e+06 0 
1.96731e+06 9.07969e+06 0 
0 0 0 
-2.3953e+06 -998670 0 
-998670 -4.5498e+07 0 
0 0 0 
9.36068e+06 -1.37783e+06 0 
-1.37783e+06 -9.7306e+06 0 
0 0 0 
-4.41905e+07 3.33839e+06 0 
3.33839e+06 -5.81864e+07 0 
0 0 0 
-4.3357e+07 -8.12289e+06 0 
-8.12289e+06 -1.47898e+07 0 
0 0 0 
-3.94552e+07 1.0944e+06 0 
1.0944e+06 -2.60529e+07 0 
0 0 0 
1.22009e+06 -3.44992e+06 0 
-3.44992e+06 2.53133e+07 0 
0 0 0 
3.60385e+06 -1.34705e+07 0 
-1.34705e+07 -1.64479e+07 0 
0 0 0 
2.66055e+07 -7.61931e+06 0 
-7.61931e+06 3.00612e+07 0 
0 0 0 
2.72584e+07 -2.53267e+06 0 
-2.53267e+06 -7.41528e+06 0 
0 0 0 
1.88792e+07 -1.06778e+07 0 
-1.06778e+07 1.04903e+06 0 
0 0 0 
2.06504e+07 -7.1224e+06 0 
-7.1224e+06 1.24164e+07 0 
0 0 0 
2.15464e+07 -1.05836e+07 0 
-1.05836e+07 1.65455e+07 0 
0 0 0 
2.56222e+07 6.03548e+06 0 
6.03548e+06 3.93955e+07 0 
0 0 0 
1.19628e+06 2.48861e+06 0 
2.48861e+06 9.31379e+06 0 
0 0 0 
-6.03719e+06 9.03575e+06 0 
9.03575e+06 2.07053e+06 0 
0 0 0 
-2.72881e+06 3.55047e+06 0 
3.55047e+06 -799128 0 
0 0 0 
8.23868e+06 6.79049e+06 0 
6.79049e+06 60204 0 
0 0 0 
3.03801e+07 -1.01531e+07 0 
-1.01531e+07 3.75292e+07 0 
0 0 0 
4.1172e+07 -4.28251e+06 0 
-4.28251e+06 6.4292e+07 0 
0 0 0 
2.26864e+07 -3.29614e+06 0 
-3.29614e+06 -9.70548e+06 0 
0 0 0 
3.25148e+07 3.69147e+06 0 
3.69147e+06 -7.65443e+06 0 
0 0 0 
5.31663e+07 8.69509e+06 0 
8.69509e+06 2.50082e+07 0 
0 0 0 
5.97154e+07 5.6218e+06 0 
5.6218e+06 3.54068e+07 0 
0 0 0 
0 0 0 
0 0 0 
0 0 0 
1.10878e+07 -2.87922e+06 0 
-2.87922e+06 -1.55086e+06 0 
0 0 0 
-5.71681e+07 -1.01364e+06 0 
-1.01364e+06 -2.54991e+07 0 
0 0 0 
270496 6.25771e+06 0 
6.25771e+06 -1.84097e+06 0 
0 0 0 
-1.16196e+07 -1.98488e+06 0 
-1.98488e+06 862449 0 
0 0 0 
-3.08506e+07 3.91783e+06 0 
3.91783e+06 -1.47695e+07 0 
0 0 0 
-3.84608e+07 1.32549e+07 0 
1.32549e+07 -7.20461e+06 0 
0 0 0 
2.72068e+07 3.78385e+06 0 
3.78385e+06 2.38092e+07 0 
0 0 0 
2.57526e+07 5.07251e+06 0 
5.07251e+06 1.27193e+07 0 
0 0 0 
6.00743e+06 -5.13874e+06 0 
-5.13874e+06 3.58806e+06 0 
0 0 0 
-8.63328e+07 -8.88516e+06 0 
-8.88516e+06 -2.48487e+07 0 
0 0 0 
2.34817e+07 -1.01045e+07 0 
-1.01045e+07 1.58726e+07 0 
0 0 0 
-3.09737e+07 -5.7044e+06 0 
-5.7044e+06 -5.83205e+06 0 
0 0 0 
4.69019e+07 3.79825e+06 0 
3.79825e+06 2.83477e+07 0 
0 0 0 
-5.61934e+07 -4.38063e+06 0 
-4.38063e+06 1.08401e+07 0 
0 0 0 
3.92848e+07 -5.7335e+06 0 
-5.7335e+06 6.14457e+07 0 
0 0 0 
-7.053e+06 -3.77382e+06 0 
-3.77382e+06 3.98722e+07 0 
0 0 0 
1.70706e+07 -5.38322e+06 0 
-5.38322e+06 2.19634e+07 0 
0 0 0 
2.28228e+07 2.25001e+06 0 
2.25001e+06 1.45986e+07 0 
0 0 0 
1.79294e+07 -1.37591e+06 0 
-1.37591e+06 -4.63885e+06 0 
0 0 0 
-3.00895e+07 2.39037e+06 0 
2.39037e+06 -1.67001e+07 0 
0 0 0 
-4.61829e+07 1.21518e+07 0 
1.21518e+07 -9.44422e+06 0 
0 0 0 
-2.90315e+07 2.64686e+06 0 
2.64686e+06 -3.79759e+06 0 
0 0 0 
3.13042e+07 736398 0 
736398 2.88148e+07 0 
0 0 0 
3.74337e+07 673516 0 
673516 4.1334e+07 0 
0 0 0 
-2.71073e+06 9.75461e+06 0 
9.75461e+06 2.8349e+07 0 
0 0 0 
-1.03332e+06 2.80881e+06 0 
2.80881e+06 1.60159e+07 0 
0 0 0 
-1.92042e+07 4.59826e+06 0 
4.59826e+06 1.29017e+07 0 
0 0 0 
6.19052e+07 355411 0 
355411 4.36582e+07 0 
0 0 0 
-5.12688e+06 -9.7062e+06 0 
-9.7062e+06 1.77582e+07 0 
0 0 0 
4.94274e+07 -7.614e+06 0 
-7.614e+06 4.40403e+07 0 
0 0 0 
2.65931e+07 -1.05282e+07 0 
-1.05282e+07 2.98316e+07 0 
0 0 0 
0 0 0 
0 0 0 
0 0 0 
-9.29083e+06 2.02236e+06 0 
2.02236e+06 -3.52801e+07 0 
0 0 0 
-3.56141e+06 773748 0 
773748 -3.67124e+07 0 
0 0 0 
1.69073e+07 8.91834e+06 0 
8.91834e+06 5.86089e+06 0 
0 0 0 
-924527 1.41502e+07 0 
1.41502e+07 -4.56148e+06 0 
0 0 0 
-1.6827e+07 2.98791e+06 0 
2.98791e+06 -6.51255e+06 0 
0 0 0 
-3.25153e+07 -9.5323e+06 0 
-9.5323e+06 -2.59557e+07 0 
0 0 0 
-6.38489e+07 -1.33663e+07 0 
-1.33663e+07 -5.59468e+07 0 
0 0 0 
-8.39949e+07 -1.8243e+07 0 
-1.8243e+07 -4.34163e+07 0 
0 0 0 
-1.01076e+08 -6.89357e+06 0 
-6.89357e+06 -5.89394e+07 0 
0 0 0 
-8.71795e+07 364978 0 
364978 -4.08918e+07 0 
0 0 0 
-6.30038e+07 4.86698e+06 0 
4.86698e+06 -2.95195e+07 0 
0 0 0 
-4.73475e+07 9.70551e+06 0 
9.70551e+06 7.50869e+06 0 
0 0 0 
-3.20048e+07 6.12617e+06 0 
6.12617e+06 -2.68125e+07 0 
0 0 0 
2.29215e+06 5.55318e+06 0 
5.55318e+06 2.43376e+07 0 
0 0 0 
-3.02789e+07 2.09977e+06 0 
2.09977e+06 -3.10398e+07 0 
0 0 0 
-1.51222e+07 -3.98582e+06 0 
-3.98582e+06 -2.46462e+07 0 
0 0 0 
-4.23071e+06 -9.05136e+06 0 
-9.05136e+06 2.58115e+07 0 
0 0 0 
-5.67283e+06 -2.45226e+06 0 
-2.45226e+06 163832 0 
0 0 0 
2.19432e+07 -5.2287e+06 0 
-5.2287e+06 5.58105e+07 0 
0 0 0 
1.1825e+07 -2.99556e+06 0 
-2.99556e+06 190560 0 
0 0 0 
1.06881e+07 -1.16071e+06 0 
-1.16071e+06 1.99342e+07 0 
0 0 0 
-1.2509e+07 -469384 0 
-469384 -1.17698e+07 0 
0 0 0 
-1.24169e+07 2.92528e+06 0 
2.92528e+06 -1.35247e+07 0 
0 0 0 
-1.47546e+07 -7.30213e+06 0 
-7.30213e+06 9.82879e+06 0 
0 0 0 
-6.87351e+06 -1.55867e+07 0 
-1.55867e+07 5.15502e+07 0 
0 0 0 
-3.05894e+07 -1.00217e+07 0 
-1.00217e+07 -7.62122e+06 0 
0 0 0 
-2.60884e+07 9.95663e+06 0 
9.95663e+06 -1.19207e+07 0 
0 0 0 
-7.51079e+06 1.13189e+07 0 
1.13189e+07 4.33188e+06 0 
0 0 0 
2.0661e+07 1.54398e+07 0 
1.54398e+07 1.81643e+07 0 
0 0 0 
4.09399e+07 1.06915e+06 0 
1.06915e+06 1.7406e+07 0 
0 0 0 
0 0 0 
0 0 0 
0 0 0 
7.38664e+06 -2.83593e+06 0 
-2.83593e+06 4.77121e+06 0 
0 0 0 
-4.01059e+07 3.44646e+06 0 
3.44646e+06 -541973 0 
0 0 0 
-5.04182e+06 3.34972e+06 0 
3.34972e+06 5.15254e+06 0 
0 0 0 
-274632 159422 0 
159422 -7.82184e+06 0 
0 0 0 
-2.37771e+07 3.45727e+06 0 
3.45727e+06 1.34251e+06 0 
0 0 0 
-4.7021e+07 2.87092e+06 0 
2.87092e+06 -2.42598e+07 0 
0 0 0 
2.30523e+07 9.37511e+06 0 
9.37511e+06 -1.00554e+07 0 
0 0 0 
-5.58298e+06 2.43651e+06 0 
2.43651e+06 -8.83651e+06 0 
0 0 0 
6.75954e+06 -6.26803e+06 0 
-6.26803e+06 -6.72688e+06 0 
0 0 0 
-1.02518e+08 -9.88174e+06 0 
-9.88174e+06 -3.93166e+07 0 
0 0 0 
2.79622e+07 -6.20555e+06 0 
-6.20555e+06 1.0398e+07 0 
0 0 0 
-1.34007e+07 -4.93734e+06 0 
-4.93734e+06 1.19026e+07 0 
0 0 0 
3.64861e+07 -4.33103e+06 0 
-4.33103e+06 1.93245e+07 0 
0 0 0 
-7.07744e+07 -898298 0 
-898298 -3.08977e+07 0 
0 0 0 
1.26633e+07 -7.75268e+06 0 
-7.75268e+06 -1.09703e+07 0 
0 0 0 
-2.96247e+07 -1.35743e+07 0 
-1.35743e+07 -9.56507e+06 0 
0 0 0 
2.7574e+07 -6.85229e+06 0 
-6.85229e+06 2.04522e+07 0 
0 0 0 
2.74999e+07 -4.6597e+06 0 
-4.6597e+06 9.39202e+06 0 
0 0 0 
1.43107e+07 -1.0316e+07 0 
-1.0316e+07 -3.87736e+06 0 
0 0 0 
-3.67208e+07 -1.34982e+06 0 
-1.34982e+06 -3.82368e+07 0 
0 0 0 
-4.09101e+07 2.11403e+06 0 
2.11403e+06 -3.9286e+07 0 
0 0 0 
-4.81772e+07 1.42728e+07 0 
1.42728e+07 -3.7022e+07 0 
0 0 0 
1.14111e+07 6.40961e+06 0 
6.40961e+06 -1.51042e+07 0 
0 0 0 
3.24486e+07 -9.95818e+06 0 
-9.95818e+06 81073.7 0 
0 0 0 
-1.26134e+07 5.41086e+06 0 
5.41086e+06 -1.90224e+07 0 
0 0 0 
-2.2462e+07 6.00037e+06 0 
6.00037e+06 -1.15929e+07 0 
0 0 0 
-8.33156e+06 4.49474e+06 0 
4.49474e+06 3.3221e+06 0 
0 0 0 
5.27116e+07 2.28541e+06 0 
2.28541e+06 3.60882e+07 0 
0 0 0 
-6.63078e+06 4.05148e+06 0 
4.05148e+06 2.90102e+07 0 
0 0 0 
2.22035e+07 381896 0 
381896 4.13211e+07 0 
0 0 0 
6.93386e+07 -3.91474e+06 0 
-3.91474e+06 3.9335e+07 0 
0 0 0 
7.04479e+07 -5.25394e+06 0 
-5.25394e+06 6.71696e+07 0 
0 0 0 
0 0 0 
0 0 0 
0 0 0 
-1.26547e+07 6.34114e+06 0 
6.34114e+06 -3.12025e+07 0 
0 0 0 
-1.84436e+07 8.02476e+06 0 
8.02476e+06 -3.61433e+07 0 
0 0 0 
-4.78307e+06 1.13949e+07 0 
1.13949e+07 930060 0 
0 0 0 
421385 4.89852e+06 0 
4.89852e+06 -1.06856e+07 0 
0 0 0 
-1.83433e+07 -9.63234e+06 0 
-9.63234e+06 -2.01221e+07 0 
0 0 0 
-5.05642e+07 -2.04147e+07 0 
-2.04147e+07 -6.00513e+07 0 
0 0 0 
-4.82933e+07 -2.38934e+07 0 
-2.38934e+07 -4.58289e+07 0 
0 0 0 
-2.58522e+07 -2.02605e+07 0 
-2.02605e+07 -6.24916e+06 0 
0 0 0 
-1.19192e+07 -1.08053e+07 0 
-1.08053e+07 -2.32203e+07 0 
0 0 0 
8.14945e+06 1.13997e+06 0 
1.13997e+06 -659165 0 
0 0 0 
359625 8.89218e+06 0 
8.89218e+06 -1.68914e+06 0 
0 0 0 
-343976 7.11513e+06 0 
7.11513e+06 1.53427e+07 0 
0 0 0 
-2.02593e+07 7.55878e+06 0 
7.55878e+06 -9.70173e+06 0 
0 0 0 
-2.54634e+07 -4.27705e+06 0 
-4.27705e+06 7.26923e+06 0 
0 0 0 
-3.67293e+07 -1.9022e+06 0 
-1.9022e+06 -3.9926e+07 0 
0 0 0 
-3.66441e+07 3.16423e+06 0 
3.16423e+06 -2.48384e+07 0 
0 0 0 
-1.92144e+07 -1.163e+07 0 
-1.163e+07 5.46424e+06 0 
0 0 0 
-3.04122e+07 -6.23583e+06 0 
-6.23583e+06 3.16776e+06 0 
0 0 0 
-1.23281e+07 -366169 0 
-366169 4.14225e+07 0 
0 0 0 
-1.52371e+07 2.40456e+06 0 
2.40456e+06 -1.46578e+06 0 
0 0 0 
-3.227e+06 -5.54647e+06 0 
-5.54647e+06 1.33352e+07 0 
0 0 0 
-1.27788e+07 -1.4163e+06 0 
-1.4163e+06 -1.73356e+07 0 
0 0 0 
-3.01792e+07 -31480.9 0 
-31480.9 -1.00957e+07 0 
0 0 0 
-3.4327e+07 -6.30892e+06 0 
-6.30892e+06 -1.56128e+07 0 
0 0 0 
-1.68557e+06 -6.34285e+06 0 
-6.34285e+06 5.47721e+07 0 
0 0 0 
-1.46074e+07 -6.69665e+06 0 
-6.69665e+06 9.74672e+06 0 
0 0 0 
-1.18504e+07 8.08339e+06 0 
8.08339e+06 2.32904e+07 0 
0 0 0 
-1.03287e+07 2.26771e+07 0 
2.26771e+07 759371 0 
0 0 0 
-2.66735e+07 1.20004e+07 0 
1.20004e+07 8.05032e+06 0 
0 0 0 
-2.81738e+07 1.66529e+07 0 
1.66529e+07 -2.36234e+07 0 
0 0 0 
-4.04932e+06 1.79862e+06 0 
1.79862e+06 3.39137e+06 0 
0 0 0 
0 0 0 
0 0 0 
0 0 0 
-3.1864e+06 -4.14448e+06 0 
-4.14448e+06 -1.93825e+06 0 
0 0 0 
-4.85103e+07 -2.55801e+06 0 
-2.55801e+06 -3.01332e+07 0 
0 0 0 
1.46211e+06 196976 0 
196976 -1.66999e+07 0 
0 0 0 
-1.56935e+07 -1.77979e+06 0 
-1.77979e+06 -1.23314e+07 0 
0 0 0 
-1.29792e+07 901280 0 
901280 -2.0546e+07 0 
0 0 0 
-5.79652e+07 -271941 0 
-271941 -2.65639e+07 0 
0 0 0 
3.73202e+07 4.16916e+06 0 
4.16916e+06 -2.02232e+06 0 
0 0 0 
-3.13689e+07 837556 0 
837556 -3.53323e+07 0 
0 0 0 
-5.18881e+06 -2.57653e+06 0 
-2.57653e+06 -2.146e+07 0 
0 0 0 
-8.35459e+07 1.3724e+06 0 
1.3724e+06 -3.27151e+07 0 
0 0 0 
1.88662e+06 589579 0 
589579 1.15781e+07 0 
0 0 0 
-5.70814e+06 -1.36493e+07 0 
-1.36493e+07 8.98885e+06 0 
0 0 0 
3.4193e+07 -1.23936e+07 0 
-1.23936e+07 1.95552e+07 0 
0 0 0 
-4.13921e+07 -4.51408e+06 0 
-4.51408e+06 -1.6788e+07 0 
0 0 0 
-6.48078e+06 5.0338e+06 0 
5.0338e+06 1.23758e+06 0 
0 0 0 
-1.58999e+07 2.00347e+06 0 
2.00347e+06 -2.35246e+06 0 
0 0 0 
3.38721e+07 2.05823e+06 0 
2.05823e+06 2.43434e+07 0 
0 0 0 
2.14206e+07 -8.14026e+06 0 
-8.14026e+06 2.91973e+07 0 
0 0 0 
2.97e+07 -1.35129e+07 0 
-1.35129e+07 2.95389e+07 0 
0 0 0 
-1.12644e+07 3.28349e+06 0 
3.28349e+06 4.09118e+07 0 
0 0 0 
2.56631e+07 1.91776e+07 0 
1.91776e+07 5.89903e+07 0 
0 0 0 
-3.68343e+07 1.01253e+07 0 
1.01253e+07 3.11491e+07 0 
0 0 0 
7.57821e+06 1.1682e+07 0 
1.1682e+07 4.59194e+07 0 
0 0 0 
6.04017e+07 -3.0081e+06 0 
-3.0081e+06 6.82242e+07 0 
0 0 0 
1.84629e+07 -4.21729e+06 0 
-4.21729e+06 5.3314e+07 0 
0 0 0 
-3.67978e+06 5.25008e+06 0 
5.25008e+06 2.69878e+07 0 
0 0 0 
-8.50884e+06 6.06865e+06 0 
6.06865e+06 1.16002e+07 0 
0 0 0 
4.9144e+07 6.27552e+06 0 
6.27552e+06 2.92066e+07 0 
0 0 0 
-1.30779e+07 -1.18439e+07 0 
-1.18439e+07 5.15973e+06 0 
0 0 0 
9.44192e+06 1.05525e+06 0 
1.05525e+06 1.63924e+07 0 
0 0 0 
3.35689e+07 -2.88883e+06 0 
-2.88883e+06 3.16337e+07 0 
0 0 0 
2.36967e+07 -2.5291e+06 0 
-2.5291e+06 4.83872e+07 0 
0 0 0 
3.36784e+07 -1.47942e+07 0 
-1.47942e+07 2.4255e+07 0 
0 0 0 
0 0 0 
0 0 0 
0 0 0 
8136.34 5.83453e+06 0 
5.83453e+06 -1.48555e+07 0 
0 0 0 
981643 2.09031e+06 0 
2.09031e+06 -4.06351e+07 0 
0 0 0 
3.6948e+06 -1.89264e+06 0 
-1.89264e+06 2.96027e+06 0 
0 0 0 
-3.45785e+07 -3.15067e+06 0 
-3.15067e+06 -3.54881e+07 0 
0 0 0 
-3.36025e+07 -2.00843e+07 0 
-2.00843e+07 -2.78381e+07 0 
0 0 0 
-2.30771e+07 -6.35991e+06 0 
-6.35991e+06 -6.02569e+07 0 
0 0 0 
1.50751e+07 -8.92517e+06 0 
-8.92517e+06 -2.02038e+07 0 
0 0 0 
6.28584e+07 580393 0 
580393 4.15223e+07 0 
0 0 0 
6.30028e+07 1.19433e+06 0 
1.19433e+06 -1.70041e+06 0 
0 0 0 
6.43012e+07 5.77074e+06 0 
5.77074e+06 2.44974e+07 0 
0 0 0 
4.57518e+07 -7.71758e+06 0 
-7.71758e+06 1.5322e+07 0 
0 0 0 
1.64396e+07 728786 0 
728786 1.45018e+07 0 
0 0 0 
-4.60448e+06 830789 0 
830789 5.65237e+06 0 
0 0 0 
2.4222e+06 764331 0 
764331 7.71616e+06 0 
0 0 0 
2.44252e+07 8.9208e+06 0 
8.9208e+06 -8.365e+06 0 
0 0 0 
3.47594e+07 -2.71405e+06 0 
-2.71405e+06 -3.33778e+06 0 
0 0 0 
4.2488e+07 -1.64958e+06 0 
-1.64958e+06 1.21719e+07 0 
0 0 0 
6.53074e+07 -7.83699e+06 0 
-7.83699e+06 4.62793e+07 0 
0 0 0 
2.91765e+07 -6.88621e+06 0 
-6.88621e+06 3.52252e+07 0 
0 0 0 
-9381.23 -8.96327e+06 0 
-8.96327e+06 2.34025e+07 0 
0 0 0 
-3.04259e+07 -1.01302e+07 0 
-1.01302e+07 -8.3783e+06 0 
0 0 0 
-3.32808e+07 -3.24415e+06 0 
-3.24415e+06 -1.33183e+07 0 
0 0 0 
-1.43373e+07 -4.83707e+06 0 
-4.83707e+06 -4.20127e+06 0 
0 0 0 
2.10409e+06 4.01351e+06 0 
4.01351e+06 -1.00972e+07 0 
0 0 0 
4.07064e+07 -8.53068e+06 0 
-8.53068e+06 7.44158e+07 0 
0 0 0 
1.38469e+07 -7.2236e+06 0 
-7.2236e+06 2.06404e+07 0 
0 0 0 
1.31505e+07 7.1186e+06 0 
7.1186e+06 5.14548e+07 0 
0 0 0 
-3.85902e+07 8.44323e+06 0 
8.44323e+06 366023 0 
0 0 0 
-4.4855e+07 7.97792e+06 0 
7.97792e+06 -2.555e+06 0 
0 0 0 
-6.28567e+07 2.02796e+07 0 
2.02796e+07 -3.54723e+07 0 
0 0 0 
-6.49244e+07 5.07387e+06 0 
5.07387e+06 -2.50916e+07 0 
0 0 0 
-5.29252e+07 7.54898e+06 0 
7.54898e+06 7.31365e+06 0 
0 0 0 
0 0 0 
0 0 0 
0 0 0 
-7.90783e+06 -2.00171e+06 0 
-2.00171e+06 -7.16953e+06 0 
0 0 0 
-4.34953e+07 3.44268e+06 0 
3.44268e+06 -1.89119e+07 0 
0 0 0 
990543 -1.85884e+06 0 
-1.85884e+06 -1.46857e+07 0 
0 0 0 
-2.03772e+07 1.06691e+06 0 
1.06691e+06 -3.29623e+07 0 
0 0 0 
-1.26765e+07 2.5635e+06 0 
2.5635e+06 -2.21415e+07 0 
0 0 0 
-3.26185e+07 6.08117e+06 0 
6.08117e+06 -3.43685e+07 0 
0 0 0 
8.68576e+06 1.39973e+07 0 
1.39973e+07 -1.15134e+07 0 
0 0 0 
-3.39544e+07 -1.59605e+06 0 
-1.59605e+06 -2.15631e+07 0 
0 0 0 
6.38314e+06 2.56995e+06 0 
2.56995e+06 -1.19322e+07 0 
0 0 0 
-7.80187e+07 9.13452e+06 0 
9.13452e+06 -3.96936e+07 0 
0 0 0 
-2.51533e+07 9.84877e+06 0 
9.84877e+06 -1.46601e+07 0 
0 0 0 
-2.36638e+07 2.99648e+06 0 
2.99648e+06 5.28858e+06 0 
0 0 0 
4.44069e+07 -1.80899e+07 0 
-1.80899e+07 3.08768e+07 0 
0 0 0 
-1.75037e+07 -8.80816e+06 0 
-8.80816e+06 1.3798e+07 0 
0 0 0 
1.50575e+07 -276276 0 
-276276 1.29679e+07 0 
0 0 0 
-2.16104e+07 8.37918e+06 0 
8.37918e+06 9.67105e+06 0 
0 0 0 
1.91578e+07 -3.24328e+06 0 
-3.24328e+06 2.62586e+07 0 
0 0 0 
2.13051e+07 -1.22483e+07 0 
-1.22483e+07 2.55751e+07 0 
0 0 0 
4.25836e+07 -4.29228e+06 0 
-4.29228e+06 5.24763e+07 0 
0 0 0 
1.85954e+06 6.90562e+06 0 
6.90562e+06 1.64274e+07 0 
0 0 0 
1.47987e+07 1.29371e+07 0 
1.29371e+07 1.66672e+07 0 
0 0 0 
-4.27577e+07 9.46055e+06 0 
9.46055e+06 8.66638e+06 0 
0 0 0 
-2.75319e+07 1.46312e+07 0 
1.46312e+07 1.07344e+07 0 
0 0 0 
3.12669e+07 -1.2657e+07 0 
-1.2657e+07 2.29074e+07 0 
0 0 0 
1.79229e+07 -7.00177e+06 0 
-7.00177e+06 1.31027e+07 0 
0 0 0 
-3.56018e+06 -4.52906e+06 0 
-4.52906e+06 8.29735e+06 0 
0 0 0 
1.31464e+07 8.12554e+06 0 
8.12554e+06 2.12886e+07 0 
0 0 0 
3.7698e+07 1.39755e+07 0 
1.39755e+07 3.75788e+07 0 
0 0 0 
-3.91386e+06 1.87421e+06 0 
1.87421e+06 2.38187e+07 0 
0 0 0 
-3.33642e+06 6.36235e+06 0 
6.36235e+06 2.51067e+07 0 
0 0 0 
1.19817e+07 -1.34973e+07 0 
-1.34973e+07 1.13328e+07 0 
0 0 0 
3.66116e+07 -6.55758e+06 0 
-6.55758e+06 2.4774e+07 0 
0 0 0 
-5.45435e+07 -2.3419e+06 0 
-2.3419e+06 -6.43225e+06 0 
0 0 0 
-3.75883e+07 -3.24131e+06 0 
-3.24131e+06 1.09146e+07 0 
0 0 0 
0 0 0 
0 0 0 
0 0 0 
-1.29397e+07 2.90314e+06 0 
2.90314e+06 -1.70587e+07 0 
0 0 0 
-3.39615e+07 6.24964e+06 0 
6.24964e+06 -5.42571e+07 0 
0 0 0 
-1.59029e+07 -2.66013e+06 0 
-2.66013e+06 -1.65209e+07 0 
0 0 0 
-2.9834e+07 -1.18292e+07 0 
-1.18292e+07 -3.64711e+07 0 
0 0 0 
3.25662e+06 4.4906e+06 0 
4.4906e+06 -7.06351e+06 0 
0 0 0 
8.59455e+06 -6.63255e+06 0 
-6.63255e+06 -4.83492e+07 0 
0 0 0 
3.1185e+07 1.01312e+07 0 
1.01312e+07 -1.49381e+06 0 
0 0 0 
5.67513e+07 4.96479e+06 0 
4.96479e+06 3.7315e+07 0 
0 0 0 
4.43186e+07 2.4791e+06 0 
2.4791e+06 -7.31372e+06 0 
0 0 0 
5.97657e+07 -450047 0 
-450047 1.5417e+07 0 
0 0 0 
4.94183e+07 -1.00631e+07 0 
-1.00631e+07 9.96525e+06 0 
0 0 0 
5.54347e+07 -8.04359e+06 0 
-8.04359e+06 3.68899e+07 0 
0 0 0 
4.29329e+07 -492172 0 
-492172 2.69073e+07 0 
0 0 0 
2.90996e+07 5.16169e+06 0 
5.16169e+06 1.71646e+07 0 
0 0 0 
1.88083e+07 1.75241e+07 0 
1.75241e+07 -5.18704e+06 0 
0 0 0 
2.15537e+07 -4.51979e+06 0 
-4.51979e+06 -1.43637e+07 0 
0 0 0 
2.69469e+07 2.11106e+06 0 
2.11106e+06 -3.46875e+06 0 
0 0 0 
3.66924e+07 -1.83958e+07 0 
-1.83958e+07 4.05906e+07 0 
0 0 0 
3.48262e+07 -1.43549e+07 0 
-1.43549e+07 1.64975e+07 0 
0 0 0 
2.56728e+07 -1.77383e+07 0 
-1.77383e+07 3.9831e+07 0 
0 0 0 
3.145e+07 -7.42332e+06 0 
-7.42332e+06 1.7676e+07 0 
0 0 0 
3.11201e+07 -8.08096e+06 0 
-8.08096e+06 9.72216e+06 0 
0 0 0 
2.43946e+07 2.69974e+06 0 
2.69974e+06 1.86417e+07 0 
0 0 0 
1.94148e+07 8.2969e+06 0 
8.2969e+06 1.65448e+06 0 
0 0 0 
4.72733e+07 4.62296e+06 0 
4.62296e+06 6.55633e+07 0 
0 0 0 
6.40231e+07 -8.06961e+06 0 
-8.06961e+06 4.41501e+07 0 
0 0 0 
7.11647e+07 -3.83533e+06 0 
-3.83533e+06 6.31973e+07 0 
0 0 0 
4.88968e+07 -1.83863e+07 0 
-1.83863e+07 2.96544e+07 0 
0 0 0 
9.17192e+06 -8.77111e+06 0 
-8.77111e+06 2.51685e+07 0 
0 0 0 
-2.67708e+07 1.58575e+06 0 
1.58575e+06 -1.93937e+07 0 
0 0 0 
-3.62357e+07 3.2129e+06 0 
3.2129e+06 -5.12721e+06 0 
0 0 0 
-3.5138e+07 1.11211e+07 0 
1.11211e+07 1.05893e+07 0 
0 0 0 
-3.12234e+07 8.16803e+06 0 
8.16803e+06 -1.46294e+07 0 
0 0 0 
0 0 0 
0 0 0 
0 0 0 
-1.17733e+07 -8.34455e+06 0 
-8.34455e+06 -3.62156e+06 0 
0 0 0 
-4.40811e+07 -7.82105e+06 0 
-7.82105e+06 -2.11789e+07 0 
0 0 0 
-2.03307e+06 -6.48718e+06 0 
-6.48718e+06 1.27124e+06 0 
0 0 0 
-3.83767e+06 -1.02228e+07 0 
-1.02228e+07 1.96517e+06 0 
0 0 0 
5.94495e+06 -24.2109 0 
-24.2109 -9.57635e+06 0 
0 0 0 
-2.37108e+07 -2.42842e+06 0 
-2.42842e+06 -8.83201e+06 0 
0 0 0 
1.4329e+07 -3.38599e+06 0 
-3.38599e+06 -4.65832e+06 0 
0 0 0 
-3.583e+07 8.49141e+06 0 
8.49141e+06 -2.58654e+07 0 
0 0 0 
1.64806e+07 1.01597e+07 0 
1.01597e+07 182417 0 
0 0 0 
-7.5872e+07 8.70581e+06 0 
8.70581e+06 -3.32949e+07 0 
0 0 0 
-2.9962e+07 1.89236e+07 0 
1.89236e+07 -1.89824e+07 0 
0 0 0 
-5.57825e+07 2.04731e+06 0 
2.04731e+06 -3.26858e+07 0 
0 0 0 
1.4308e+07 -8.28223e+06 0 
-8.28223e+06 -613669 0 
0 0 0 
1.79134e+07 -3.27821e+06 0 
-3.27821e+06 1.25532e+07 0 
0 0 0 
1.98716e+07 4.98838e+06 0 
4.98838e+06 2.54555e+07 0 
0 0 0 
-2.20655e+07 9.33649e+06 0 
9.33649e+06 8.08478e+06 0 
0 0 0 
6.57226e+06 6.53988e+06 0 
6.53988e+06 1.8125e+07 0 
0 0 0 
1.44286e+07 3.21306e+06 0 
3.21306e+06 3.2844e+07 0 
0 0 0 
4.47912e+07 -1.08654e+07 0 
-1.08654e+07 3.17423e+07 0 
0 0 0 
4.88274e+06 -6.5639e+06 0 
-6.5639e+06 3.49117e+07 0 
0 0 0 
4.64495e+07 9.00008e+06 0 
9.00008e+06 3.33526e+07 0 
0 0 0 
-4.10287e+07 1.77132e+07 0 
1.77132e+07 -9.86307e+06 0 
0 0 0 
-5.52816e+07 1.38016e+07 0 
1.38016e+07 -1.4997e+07 0 
0 0 0 
-1.49854e+07 -1.59389e+06 0 
-1.59389e+06 -5.93315e+06 0 
0 0 0 
3.6431e+07 -9.18309e+06 0 
-9.18309e+06 3.1219e+07 0 
0 0 0 
2.74349e+07 -2.77325e+06 0 
-2.77325e+06 3.11441e+07 0 
0 0 0 
2.95892e+07 1.63041e+07 0 
1.63041e+07 3.05285e+07 0 
0 0 0 
3.76552e+07 1.21826e+07 0 
1.21826e+07 3.25075e+07 0 
0 0 0 
-3.2916e+07 -7.54091e+06 0 
-7.54091e+06 1.25039e+07 0 
0 0 0 
820040 -1.32889e+06 0 
-1.32889e+06 1.30284e+07 0 
0 0 0 
-2.08913e+07 -6.46135e+06 0 
-6.46135e+06 1.00146e+07 0 
0 0 0 
5.06982e+07 -7.74249e+06 0 
-7.74249e+06 2.91304e+07 0 
0 0 0 
-3.46838e+07 -789793 0 
-789793 -4.77876e+06 0 
0 0 0 
6.40555e+06 1.91092e+06 0 
1.91092e+06 2.21188e+07 0 
0 0 0 
2.05452e+07 -665516 0 
-665516 1.28151e+07 0 
0 0 0 
0 0 0 
0 0 0 
0 0 0 
6.193e+06 6.75263e+06 0 
6.75263e+06 -5.10191e+06 0 
0 0 0 
-1.30123e+07 -568743 0 
-568743 -5.65616e+07 0 
0 0 0 
-1.01294e+07 -275586 0 
-275586 -1.2727e+07 0 
0 0 0 
1.07913e+06 -2.61379e+06 0 
-2.61379e+06 -3.20476e+07 0 
0 0 0 
375500 7.94172e+06 0 
7.94172e+06 7.38712e+06 0 
0 0 0 
-1.45095e+07 8.54081e+06 0 
8.54081e+06 -6.13689e+07 0 
0 0 0 
1.94896e+07 1.0355e+07 0 
1.0355e+07 8.89136e+06 0 
0 0 0 
1.60024e+07 6.60536e+06 0 
6.60536e+06 -744836 0 
0 0 0 
1.9771e+07 -2.28494e+06 0 
-2.28494e+06 -3.89713e+06 0 
0 0 0 
-8.80083e+06 -8.38687e+06 0 
-8.38687e+06 -3.38584e+07 0 
0 0 0 
1.87419e+07 -1.75961e+07 0 
-1.75961e+07 1.52479e+07 0 
0 0 0 
1.44634e+07 -1.73869e+07 0 
-1.73869e+07 1.53464e+07 0 
0 0 0 
1.02873e+07 -1.4636e+07 0 
-1.4636e+07 2.5439e+07 0 
0 0 0 
-4.38715e+06 -1.23637e+07 0 
-1.23637e+07 1.11137e+07 0 
0 0 0 
-4.91921e+07 5.10768e+06 0 
5.10768e+06 -1.43059e+07 0 
0 0 0 
-6.8337e+07 -57764.1 0 
-57764.1 -6.01904e+07 0 
0 0 0 
-4.291e+07 -1.71571e+06 0 
-1.71571e+06 -1.78085e+07 0 
0 0 0 
-7.5396e+06 1.51697e+06 0 
1.51697e+06 6.2962e+06 0 
0 0 0 
1.65657e+07 -1.95676e+07 0 
-1.95676e+07 1.15137e+07 0 
0 0 0 
4.10968e+07 -1.58376e+07 0 
-1.58376e+07 3.32515e+07 0 
0 0 0 
3.98751e+07 -6.7823e+06 0 
-6.7823e+06 4.2503e+07 0 
0 0 0 
3.68899e+07 -2.11563e+06 0 
-2.11563e+06 1.35917e+07 0 
0 0 0 
6.89859e+07 8.94186e+06 0 
8.94186e+06 4.69241e+07 0 
0 0 0 
7.11857e+07 1.11568e+07 0 
1.11568e+07 1.8551e+07 0 
0 0 0 
1.05231e+08 2.76628e+06 0 
2.76628e+06 6.43843e+07 0 
0 0 0 
1.07862e+08 -1.31535e+07 0 
-1.31535e+07 5.21226e+07 0 
0 0 0 
1.00911e+08 -1.73329e+07 0 
-1.73329e+07 7.00611e+07 0 
0 0 0 
5.25943e+07 -3.07366e+07 0 
-3.07366e+07 1.05783e+07 0 
0 0 0 
8.20093e+07 -2.10111e+07 0 
-2.10111e+07 7.19704e+07 0 
0 0 0 
5.24992e+07 -9.9873e+06 0 
-9.9873e+06 1.86173e+07 0 
0 0 0 
4.10136e+07 -5.67365e+06 0 
-5.67365e+06 4.121e+07 0 
0 0 0 
2.79605e+07 1.56511e+06 0 
1.56511e+06 2.65746e+07 0 
0 0 0 
-9.62543e+06 2.25138e+06 0 
2.25138e+06 -1.54976e+06 0 
0 0 0 
-4.64905e+07 1.06944e+07 0 
1.06944e+07 -1.6679e+07 0 
0 0 0 
0 0 0 
0 0 0 
0 0 0 
-1.86993e+07 -1.83276e+06 0 
-1.83276e+06 982150 0 
0 0 0 
-3.26724e+07 1.4876e+06 0 
1.4876e+06 1.28931e+07 0 
0 0 0 
-4.79718e+06 -3.78575e+06 0 
-3.78575e+06 1.56563e+07 0 
0 0 0 
1.07842e+07 293722 0 
293722 3.24833e+07 0 
0 0 0 
2.71265e+07 -9.23781e+06 0 
-9.23781e+06 4.95601e+07 0 
0 0 0 
-1.85079e+07 -3.12169e+06 0 
-3.12169e+06 1.89572e+07 0 
0 0 0 
4.17137e+07 -2.54122e+06 0 
-2.54122e+06 4.83621e+07 0 
0 0 0 
-4.807e+06 -6.24248e+06 0 
-6.24248e+06 3.16407e+07 0 
0 0 0 
1.87586e+07 -6.62822e+06 0 
-6.62822e+06 1.6723e+07 0 
0 0 0 
-5.24236e+07 5.80375e+06 0 
5.80375e+06 -1.87076e+07 0 
0 0 0 
-2.38819e+07 2.24425e+07 0 
2.24425e+07 -8.16223e+06 0 
0 0 0 
-8.0143e+07 1.04173e+07 0 
1.04173e+07 -2.26732e+07 0 
0 0 0 
3.18264e+07 6.91524e+06 0 
6.91524e+06 1.70314e+07 0 
0 0 0 
1.97936e+07 1.09984e+07 0 
1.09984e+07 2.38207e+07 0 
0 0 0 
2.33983e+07 1.70454e+06 0 
1.70454e+06 3.01199e+07 0 
0 0 0 
-1.2415e+07 9.68226e+06 0 
9.68226e+06 1.28572e+07 0 
0 0 0 
-1.14391e+07 3.68011e+06 0 
3.68011e+06 4.34454e+06 0 
0 0 0 
-4.1434e+06 -4.10255e+06 0 
-4.10255e+06 -6.38432e+06 0 
0 0 0 
2.95505e+07 -3.83276e+06 0 
-3.83276e+06 1.66418e+07 0 
0 0 0 
-5.99127e+06 -261037 0 
-261037 -9.8993e+06 0 
0 0 0 
6.67706e+07 -202396 0 
-202396 1.07378e+07 0 
0 0 0 
-4.59546e+07 1.15019e+07 0 
1.15019e+07 -2.51861e+07 0 
0 0 0 
-6.86592e+07 3.6425e+06 0 
3.6425e+06 -3.87187e+07 0 
0 0 0 
-5.17854e+07 -561839 0 
-561839 -2.39748e+07 0 
0 0 0 
2.30071e+07 118596 0 
118596 -3.59973e+06 0 
0 0 0 
6.40931e+07 735338 0 
735338 2.02719e+07 0 
0 0 0 
2.31605e+07 1.3475e+07 0 
1.3475e+07 1.04352e+07 0 
0 0 0 
1.94486e+07 8.40757e+06 0 
8.40757e+06 336709 0 
0 0 0 
-6.41792e+07 174849 0 
174849 -3.07622e+07 0 
0 0 0 
-6.79366e+06 -6.78244e+06 0 
-6.78244e+06 -6.04291e+06 0 
0 0 0 
-3.48894e+07 -8.74221e+06 0 
-8.74221e+06 -1.75707e+07 0 
0 0 0 
4.42203e+07 -1.98724e+06 0 
-1.98724e+06 1.59731e+07 0 
0 0 0 
-2.5798e+07 668536 0 
668536 -1.5049e+06 0 
0 0 0 
5.19827e+07 2.69284e+06 0 
2.69284e+06 3.33974e+07 0 
0 0 0 
-4.35573e+07 7.522e+06 0 
7.522e+06 7.36295e+06 0 
0 0 0 
-5.25657e+07 2.08062e+07 0 
2.08062e+07 -3.63476e+06 0 
0 0 0 
0 0 0 
0 0 0 
0 0 0 
-1.81055e+07 483032 0 
483032 -7.62781e+06 0 
0 0 0 
-5.12107e+07 1.26444e+06 0 
1.26444e+06 -7.59518e+07 0 
0 0 0 
-2.68674e+07 547704 0 
547704 -1.52958e+07 0 
0 0 0 
-3.87878e+07 2.98313e+06 0 
2.98313e+06 -4.14217e+07 0 
0 0 0 
-1.87901e+06 8.54601e+06 0 
8.54601e+06 1.26729e+07 0 
0 0 0 
-3.17275e+07 1.27959e+07 0 
1.27959e+07 -6.56149e+07 0 
0 0 0 
-2.33473e+07 4.7466e+06 0 
4.7466e+06 -6.84782e+06 0 
0 0 0 
-5.84289e+07 5.98334e+06 0 
5.98334e+06 -4.65263e+07 0 
0 0 0 
-5.7239e+07 181660 0 
181660 -1.3119e+07 0 
0 0 0 
-5.90061e+07 2.98976e+06 0 
2.98976e+06 -6.82079e+07 0 
0 0 0 
-3.02454e+07 4.39038e+06 0 
4.39038e+06 5.15559e+06 0 
0 0 0 
-3.59564e+06 -1.09433e+07 0 
-1.09433e+07 -6.64692e+06 0 
0 0 0 
1.39452e+07 -1.17894e+07 0 
-1.17894e+07 2.90668e+07 0 
0 0 0 
9.4796e+06 -1.14774e+07 0 
-1.14774e+07 2.00681e+07 0 
0 0 0 
1.62475e+07 -9.81906e+06 0 
-9.81906e+06 2.39116e+07 0 
0 0 0 
-2.91621e+07 3.72946e+06 0 
3.72946e+06 -5.2764e+07 0 
0 0 0 
-7.15009e+06 4.82491e+06 0 
4.82491e+06 8.55008e+06 0 
0 0 0 
-2.46101e+07 4.39721e+06 0 
4.39721e+06 -1.97616e+07 0 
0 0 0 
-9.43251e+06 -4.87843e+06 0 
-4.87843e+06 688015 0 
0 0 0 
1.15289e+07 -3.71685e+06 0 
-3.71685e+06 2.33776e+07 0 
0 0 0 
1.81956e+07 -7.50894e+06 0 
-7.50894e+06 3.63579e+07 0 
0 0 0 
1.59286e+07 2.89681e+06 0 
2.89681e+06 1.73395e+07 0 
0 0 0 
7.56597e+06 600361 0 
600361 3.97796e+07 0 
0 0 0 
-3.39467e+07 1.37737e+07 0 
1.37737e+07 -2.56252e+07 0 
0 0 0 
-3.45025e+07 9.20325e+06 0 
9.20325e+06 2.56625e+06 0 
0 0 0 
-5.60221e+07 -9.17665e+06 0 
-9.17665e+06 -1.12845e+07 0 
0 0 0 
-4.29174e+07 -1.47052e+07 0 
-1.47052e+07 1.83909e+07 0 
0 0 0 
-1.84455e+07 -1.99477e+07 0 
-1.99477e+07 -2.54739e+07 0 
0 0 0 
2.96319e+07 -7.35254e+06 0 
-7.35254e+06 7.02614e+07 0 
0 0 0 
2.99834e+07 -1.22982e+07 0 
-1.22982e+07 2.11562e+07 0 
0 0 0 
7.72038e+07 4.77776e+06 0 
4.77776e+06 7.5566e+07 0 
0 0 0 
7.19966e+07 78810.7 0 
78810.7 2.97483e+07 0 
0 0 0 
8.34766e+07 -1.86657e+06 0 
-1.86657e+06 4.39359e+07 0 
0 0 0 
8.77901e+07 1.97721e+06 0 
1.97721e+06 9.59791e+06 0 
0 0 0 
1.0073e+08 3.59037e+06 0 
3.59037e+06 7.10506e+07 0 
0 0 0 
0 0 0 
0 0 0 
0 0 0 
-2.33085e+07 368787 0 
368787 -6.13465e+06 0 
0 0 0 
-4.05049e+07 699914 0 
699914 -1.48697e+07 0 
0 0 0 
-6.38669e+06 294082 0 
294082 -879866 0 
0 0 0 
-1.19253e+07 9.31824e+06 0 
9.31824e+06 -9.52754e+06 0 
0 0 0 
2.52611e+06 -4.32966e+06 0 
-4.32966e+06 1.69056e+06 0 
0 0 0 
-1.99187e+07 -3.687e+06 0 
-3.687e+06 1.94295e+06 0 
0 0 0 
3.21984e+07 -4.91886e+06 0 
-4.91886e+06 1.58658e+06 0 
0 0 0 
-2.38723e+07 625565 0 
625565 -2.0623e+07 0 
0 0 0 
3.15073e+07 -610762 0 
-610762 1.15405e+07 0 
0 0 0 
-3.53828e+07 1.01286e+07 0 
1.01286e+07 7.08641e+06 0 
0 0 0 
668388 1.47542e+07 0 
1.47542e+07 1.48873e+07 0 
0 0 0 
-9.99148e+07 1.27024e+07 0 
1.27024e+07 -2.77124e+07 0 
0 0 0 
3.01329e+07 5.462e+06 0 
5.462e+06 2.40717e+07 0 
0 0 0 
-1.96129e+06 -4.55234e+06 0 
-4.55234e+06 5.35017e+06 0 
0 0 0 
3.33462e+07 2.73089e+06 0 
2.73089e+06 1.93167e+06 0 
0 0 0 
-2.64639e+07 899229 0 
899229 -2.66559e+07 0 
0 0 0 
-3.92968e+07 2.49928e+06 0 
2.49928e+06 -4.0879e+07 0 
0 0 0 
-9.59314e+06 2.47165e+06 0 
2.47165e+06 -1.96225e+07 0 
0 0 0 
1.49415e+07 -2.75919e+06 0 
-2.75919e+06 -6.69562e+06 0 
0 0 0 
2.60846e+07 1.89592e+06 0 
1.89592e+06 2.49599e+07 0 
0 0 0 
6.79413e+07 4.61334e+06 0 
4.61334e+06 4.15813e+07 0 
0 0 0 
-3.08367e+07 5.15254e+06 0 
5.15254e+06 -7.48886e+06 0 
0 0 0 
-7.19844e+07 7.77931e+06 0 
7.77931e+06 -1.97699e+07 0 
0 0 0 
-5.44638e+07 6.19131e+06 0 
6.19131e+06 -1.1299e+07 0 
0 0 0 
3.60792e+07 5.10459e+06 0 
5.10459e+06 2.91706e+07 0 
0 0 0 
7.93861e+07 4.18396e+06 0 
4.18396e+06 3.76384e+07 0 
0 0 0 
3.95168e+07 6.84346e+06 0 
6.84346e+06 1.48726e+07 0 
0 0 0 
-6.34716e+06 4.05485e+06 0 
4.05485e+06 -9.7281e+06 0 
0 0 0 
-5.86625e+07 -4.83708e+06 0 
-4.83708e+06 -2.22713e+07 0 
0 0 0 
-2.59318e+07 -3.3707e+06 0 
-3.3707e+06 2.9322e+06 0 
0 0 0 
-1.11864e+07 -7.93298e+06 0 
-7.93298e+06 1.68822e+07 0 
0 0 0 
5.78106e+07 -2.46351e+06 0 
-2.46351e+06 3.44032e+07 0 
0 0 0 
-1.87031e+07 8.23928e+06 0 
8.23928e+06 2.96996e+06 0 
0 0 0 
6.02077e+07 1.03881e+07 0 
1.03881e+07 3.77741e+07 0 
0 0 0 
-4.43535e+07 2.18092e+06 0 
2.18092e+06 1.01134e+07 0 
0 0 0 
5.15997e+07 -3.89515e+06 0 
-3.89515e+06 2.85304e+07 0 
0 0 0 
1.83853e+07 9.82373e+06 0 
9.82373e+06 1.82768e+07 0 
0 0 0 
0 0 0 
0 0 0 
0 0 0 
-6.65418e+06 -8.75036e+06 0 
-8.75036e+06 -1.57059e+07 0 
0 0 0 
-2.02033e+07 -6.17813e+06 0 
-6.17813e+06 -5.45817e+07 0 
0 0 0 
-3.29369e+06 -1.02177e+06 0 
-1.02177e+06 -4.65185e+06 0 
0 0 0 
-1.83487e+07 1.25794e+06 0 
1.25794e+06 -3.11382e+07 0 
0 0 0 
-1.52147e+07 9.16352e+06 0 
9.16352e+06 1.06661e+07 0 
0 0 0 
-6.24834e+07 -6.16007e+06 0 
-6.16007e+06 -8.81849e+07 0 
0 0 0 
-6.30453e+07 -6.89156e+06 0 
-6.89156e+06 -2.13956e+07 0 
0 0 0 
-6.49152e+07 -9.05429e+06 0 
-9.05429e+06 -5.98566e+07 0 
0 0 0 
-2.0744e+07 5.14941e+06 0 
5.14941e+06 2.52526e+07 0 
0 0 0 
-4.33402e+07 1.13786e+06 0 
1.13786e+06 -6.40502e+07 0 
0 0 0 
-1.94234e+07 287559 0 
287559 -8.36154e+06 0 
0 0 0 
-2.6548e+07 -1.50566e+06 0 
-1.50566e+06 -7.66168e+06 0 
0 0 0 
-1.60124e+07 -1.17651e+07 0 
-1.17651e+07 -4.64466e+06 0 
0 0 0 
2.8792e+06 -1.17683e+07 0 
-1.17683e+07 2.87901e+07 0 
0 0 0 
-8.23372e+06 -1.43982e+07 0 
-1.43982e+07 1.2396e+07 0 
0 0 0 
-2.4631e+07 -1.1064e+07 0 
-1.1064e+07 -4.38722e+07 0 
0 0 0 
-1.95186e+07 -4.38753e+06 0 
-4.38753e+06 1.2904e+07 0 
0 0 0 
-4.75016e+07 -6.50192e+06 0 
-6.50192e+06 -4.17106e+07 0 
0 0 0 
-3.6911e+07 -3.88117e+06 0 
-3.88117e+06 -5.61203e+06 0 
0 0 0 
-2.02758e+07 -9.59165e+06 0 
-9.59165e+06 1.81659e+07 0 
0 0 0 
-1.83013e+07 -6.84357e+06 0 
-6.84357e+06 1.5761e+07 0 
0 0 0 
-5.26374e+07 -8.96746e+06 0 
-8.96746e+06 2.49333e+06 0 
0 0 0 
-7.42143e+07 -7.20237e+06 0 
-7.20237e+06 2.03098e+07 0 
0 0 0 
-1.02486e+08 4.37414e+06 0 
4.37414e+06 -4.41821e+07 0 
0 0 0 
-1.24818e+08 2.7968e+06 0 
2.7968e+06 -2.81175e+07 0 
0 0 0 
-1.19635e+08 1.05347e+06 0 
1.05347e+06 -4.2936e+07 0 
0 0 0 
-9.29095e+07 -3.59691e+06 0 
-3.59691e+06 -2.59984e+06 0 
0 0 0 
-1.03851e+08 3.69983e+06 0 
3.69983e+06 -5.72414e+07 0 
0 0 0 
-4.45363e+07 -1.28659e+06 0 
-1.28659e+06 4.56762e+07 0 
0 0 0 
-4.93404e+07 -618024 0 
-618024 -5.90664e+06 0 
0 0 0 
-2.88496e+07 -446242 0 
-446242 6.07771e+07 0 
0 0 0 
-6.0278e+07 -3.7846e+06 0 
-3.7846e+06 -1.65117e+07 0 
0 0 0 
-5.01575e+07 1.69758e+06 0 
1.69758e+06 -3.86334e+06 0 
0 0 0 
-6.72068e+07 43612.8 0 
43612.8 -5.28397e+07 0 
0 0 0 
-4.28128e+07 -6.88978e+06 0 
-6.88978e+06 2.86416e+07 0 
0 0 0 
-3.80712e+07 -1.13152e+07 0 
-1.13152e+07 -8.10828e+06 0 
0 0 0 
0 0 0 
0 0 0 
0 0 0 
-2.51765e+07 3.75892e+06 0 
3.75892e+06 -4.22102e+06 0 
0 0 0 
-2.1722e+07 8.14283e+06 0 
8.14283e+06 6.3747e+06 0 
0 0 0 
-1.85859e+06 1.01367e+06 0 
1.01367e+06 1.55799e+07 0 
0 0 0 
-1.81557e+07 5.09686e+06 0 
5.09686e+06 1.31501e+07 0 
0 0 0 
1.53562e+06 -2.25859e+06 0 
-2.25859e+06 1.30748e+07 0 
0 0 0 
2.78856e+06 3.03691e+06 0 
3.03691e+06 2.194e+07 0 
0 0 0 
2.5984e+07 -3.16461e+06 0 
-3.16461e+06 4.15106e+07 0 
0 0 0 
2.05833e+07 -3.42378e+06 0 
-3.42378e+06 3.72543e+07 0 
0 0 0 
2.62667e+07 -2.84798e+06 0 
-2.84798e+06 3.17846e+07 0 
0 0 0 
-3.5903e+07 323563 0 
323563 -7.45426e+06 0 
0 0 0 
1.28663e+07 7.9387e+06 0 
7.9387e+06 1.13946e+07 0 
0 0 0 
-9.92429e+07 3.0049e+06 0 
3.0049e+06 -2.73932e+07 0 
0 0 0 
449510 6.6795e+06 0 
6.6795e+06 -1.43692e+07 0 
0 0 0 
-1.6079e+07 -506816 0 
-506816 -3.0793e+07 0 
0 0 0 
2.6738e+07 -5.92518e+06 0 
-5.92518e+06 -2.61865e+07 0 
0 0 0 
-4.57337e+07 -8.2116e+06 0 
-8.2116e+06 -4.7492e+07 0 
0 0 0 
-4.53983e+06 929893 0 
929893 -1.16834e+07 0 
0 0 0 
-1.55191e+07 8.44987e+06 0 
8.44987e+06 -7.40665e+06 0 
0 0 0 
1.78597e+07 5.91568e+06 0 
5.91568e+06 8.92446e+06 0 
0 0 0 
7.42533e+06 -888378 0 
-888378 -1.98976e+07 0 
0 0 0 
5.99362e+07 -5.42075e+06 0 
-5.42075e+06 1.7099e+06 0 
0 0 0 
-4.16429e+07 -2.12715e+06 0 
-2.12715e+06 -1.40161e+07 0 
0 0 0 
-5.84235e+07 -1.59352e+06 0 
-1.59352e+06 -3.92143e+07 0 
0 0 0 
-5.86235e+07 1.78375e+07 0 
1.78375e+07 -4.87131e+07 0 
0 0 0 
8.34867e+06 1.8532e+07 0 
1.8532e+07 -2.33026e+07 0 
0 0 0 
6.1098e+07 5.482e+06 0 
5.482e+06 7.79661e+06 0 
0 0 0 
4.03092e+07 1.21016e+06 0 
1.21016e+06 9.25074e+06 0 
0 0 0 
-2.68002e+07 -9.91572e+06 0 
-9.91572e+06 -1.52736e+07 0 
0 0 0 
-5.16446e+07 907792 0 
907792 -2.68401e+07 0 
0 0 0 
-2.60212e+07 3.138e+06 0 
3.138e+06 -1.83305e+07 0 
0 0 0 
-1.77681e+07 8.07587e+06 0 
8.07587e+06 -5.07073e+06 0 
0 0 0 
5.37523e+07 1.45335e+06 0 
1.45335e+06 3.61066e+07 0 
0 0 0 
767208 -179650 0 
-179650 2.15642e+07 0 
0 0 0 
5.11613e+07 9.53988e+06 0 
9.53988e+06 2.56917e+07 0 
0 0 0 
-4.90603e+07 6.87598e+06 0 
6.87598e+06 -2.67409e+07 0 
0 0 0 
-4.76573e+06 1.91329e+06 0 
1.91329e+06 -4.77274e+06 0 
0 0 0 
-1.85339e+07 -5.95158e+06 0 
-5.95158e+06 1.76833e+07 0 
0 0 0 
-3.91504e+07 -4.47405e+06 0 
-4.47405e+06 -3.54254e+06 0 
0 0 0 
0 0 0 
0 0 0 
0 0 0 
1.35603e+06 -1.43322e+06 0 
-1.43322e+06 -2.04744e+07 0 
0 0 0 
-3.56896e+06 369563 0 
369563 -5.51794e+07 0 
0 0 0 
1.43469e+07 -5.69736e+06 0 
-5.69736e+06 1.93099e+07 0 
0 0 0 
-1.62911e+07 -9.43418e+06 0 
-9.43418e+06 -4.73723e+07 0 
0 0 0 
-1.40366e+07 -3.0228e+06 0 
-3.0228e+06 2.25792e+07 0 
0 0 0 
-5.47952e+07 -3.15134e+06 0 
-3.15134e+06 -9.23632e+07 0 
0 0 0 
5.42166e+06 4.47586e+06 0 
4.47586e+06 -2.59322e+06 0 
0 0 0 
8.86265e+06 9.99881e+06 0 
9.99881e+06 -3.49182e+07 0 
0 0 0 
1.5638e+07 -1.96594e+06 0 
-1.96594e+06 4.92981e+07 0 
0 0 0 
-4.10348e+07 4.24715e+06 0 
4.24715e+06 -6.40659e+07 0 
0 0 0 
-2.84586e+07 3.55651e+06 0 
3.55651e+06 -1.12834e+07 0 
0 0 0 
-4.31862e+07 -5.54748e+06 0 
-5.54748e+06 -2.53422e+07 0 
0 0 0 
-3.86973e+07 -5.96083e+06 0 
-5.96083e+06 -2.0313e+07 0 
0 0 0 
-1.0998e+07 -5.0284e+06 0 
-5.0284e+06 2.77285e+07 0 
0 0 0 
6.53028e+06 -5.66512e+06 0 
-5.66512e+06 2.1153e+07 0 
0 0 0 
-1.43747e+07 -3.7542e+06 0 
-3.7542e+06 -4.89505e+07 0 
0 0 0 
1.08096e+07 -7.62574e+06 0 
-7.62574e+06 2.33132e+07 0 
0 0 0 
-145235 -5.82104e+06 0 
-5.82104e+06 -1.2767e+07 0 
0 0 0 
-1.78736e+07 394722 0 
394722 -1.01797e+07 0 
0 0 0 
-1.4175e+07 -1.61563e+06 0 
-1.61563e+06 2.25638e+07 0 
0 0 0 
-2.17352e+07 -1.43193e+07 0 
-1.43193e+07 1.44217e+07 0 
0 0 0 
-1.71881e+07 -1.14266e+07 0 
-1.14266e+07 2.43073e+07 0 
0 0 0 
-2.2085e+07 -1.6087e+07 0 
-1.6087e+07 2.93517e+07 0 
0 0 0 
-5.79924e+07 -442388 0 
-442388 -1.39991e+07 0 
0 0 0 
-4.09896e+07 -3.44742e+06 0 
-3.44742e+06 2.89084e+06 0 
0 0 0 
-3.52859e+07 1.57206e+07 0 
1.57206e+07 -5.21856e+06 0 
0 0 0 
-1.09492e+07 1.22084e+06 0 
1.22084e+06 1.91879e+07 0 
0 0 0 
-1.40082e+07 2.16846e+07 0 
2.16846e+07 -2.13504e+07 0 
0 0 0 
7.12716e+06 8.96595e+06 0 
8.96595e+06 4.34566e+07 0 
0 0 0 
-8.09406e+06 6.50887e+06 0 
6.50887e+06 8.61896e+06 0 
0 0 0 
-4.65584e+06 -4.88096e+06 0 
-4.88096e+06 6.42857e+07 0 
0 0 0 
-2.93211e+07 -4.00045e+06 0 
-4.00045e+06 -6.06082e+06 0 
0 0 0 
-7.83797e+06 1.73016e+06 0 
1.73016e+06 2.7584e+07 0 
0 0 0 
-2.22169e+07 1.34451e+07 0 
1.34451e+07 -5.12973e+07 0 
0 0 0 
4.34004e+07 9.0823e+06 0 
9.0823e+06 5.93973e+07 0 
0 0 0 
5.25455e+07 3.24e+06 0 
3.24e+06 658101 0 
0 0 0 
8.32438e+07 -3.38563e+06 0 
-3.38563e+06 7.35688e+07 0 
0 0 0 
0 0 0 
0 0 0 
0 0 0 
-2.64391e+07 6.18607e+06 0 
6.18607e+06 -5.52393e+06 0 
0 0 0 
-1.48315e+07 -279332 0 
-279332 -1.51544e+07 0 
0 0 0 
-2.05635e+07 6.25802e+06 0 
6.25802e+06 -2.30804e+07 0 
0 0 0 
-3.20088e+07 1.00196e+07 0 
1.00196e+07 -2.27552e+07 0 
0 0 0 
-1.70728e+07 3.34064e+06 0 
3.34064e+06 -1.67107e+07 0 
0 0 0 
1.33373e+06 5.52661e+06 0 
5.52661e+06 -1.42176e+07 0 
0 0 0 
8.14838e+06 1.37654e+06 0 
1.37654e+06 -903913 0 
0 0 0 
3.32278e+06 947320 0 
947320 7.38814e+06 0 
0 0 0 
1.60619e+07 -1.03402e+07 0 
-1.03402e+07 1.37287e+07 0 
0 0 0 
-2.58095e+07 1.42428e+06 0 
1.42428e+06 1.69251e+07 0 
0 0 0 
3.07979e+07 4.82748e+06 0 
4.82748e+06 2.93395e+07 0 
0 0 0 
-1.00848e+08 -6.10572e+06 0 
-6.10572e+06 -2.52375e+07 0 
0 0 0 
1.02768e+07 -4.0264e+06 0 
-4.0264e+06 5.94108e+06 0 
0 0 0 
-1.88237e+07 -1.29813e+07 0 
-1.29813e+07 -1.42735e+07 0 
0 0 0 
3.63194e+07 -988818 0 
-988818 9.68539e+06 0 
0 0 0 
-2.5199e+07 7.37182e+06 0 
7.37182e+06 2.55946e+06 0 
0 0 0 
2.87278e+07 1.79918e+07 0 
1.79918e+07 2.00383e+07 0 
0 0 0 
-1.52429e+07 1.73727e+07 0 
1.73727e+07 2.28432e+07 0 
0 0 0 
2.57807e+07 3.35891e+06 0 
3.35891e+06 4.38816e+07 0 
0 0 0 
2.30272e+07 3.72372e+06 0 
3.72372e+06 6.33182e+07 0 
0 0 0 
6.74249e+07 -2.57179e+06 0 
-2.57179e+06 6.47432e+07 0 
0 0 0 
-1.52731e+07 -1.52179e+06 0 
-1.52179e+06 1.42778e+07 0 
0 0 0 
-3.28355e+07 -3.01453e+06 0 
-3.01453e+06 8.63156e+06 0 
0 0 0 
-3.10656e+07 4.94402e+06 0 
4.94402e+06 -9.69605e+06 0 
0 0 0 
4.09797e+06 1.11951e+07 0 
1.11951e+07 -9.4888e+06 0 
0 0 0 
4.21729e+07 9.7485e+06 0 
9.7485e+06 5.39082e+06 0 
0 0 0 
1.58898e+07 -9.67853e+06 0 
-9.67853e+06 -4.76973e+06 0 
0 0 0 
-1.6476e+07 -9.88845e+06 0 
-9.88845e+06 -2.48115e+07 0 
0 0 0 
-3.12243e+07 7.73726e+06 0 
7.73726e+06 -2.83162e+07 0 
0 0 0 
-3.63317e+07 7.27008e+06 0 
7.27008e+06 -2.03432e+07 0 
0 0 0 
5.67887e+06 9.97652e+06 0 
9.97652e+06 5.5049e+06 0 
0 0 0 
2.23184e+07 4.90633e+06 0 
4.90633e+06 1.24274e+07 0 
0 0 0 
4.97883e+06 3.72759e+06 0 
3.72759e+06 -2.17354e+06 0 
0 0 0 
4.55736e+07 7.55701e+06 0 
7.55701e+06 8.38695e+06 0 
0 0 0 
-4.83918e+07 -2.5046e+06 0 
-2.5046e+06 -3.92064e+06 0 
0 0 0 
-8.65911e+06 6.19928e+06 0 
6.19928e+06 8.06892e+06 0 
0 0 0 
-2.84638e+07 1.21202e+07 0 
1.21202e+07 5.46898e+06 0 
0 0 0 
9.45472e+07 -1.46535e+06 0 
-1.46535e+06 3.85866e+07 0 
0 0 0 
9.269e+07 -3.66733e+06 0 
-3.66733e+06 5.99911e+07 0 
0 0 0 
0 0 0 
0 0 0 
0 0 0 
-9.34162e+06 -2.94065e+06 0 
-2.94065e+06 -3.31892e+07 0 
0 0 0 
-1.06895e+07 -2.45657e+06 0 
-2.45657e+06 -5.2595e+07 0 
0 0 0 
1.93926e+07 -5.67043e+06 0 
-5.67043e+06 1.46136e+07 0 
0 0 0 
6.93943e+06 -7.9534e+06 0 
-7.9534e+06 -3.88356e+07 0 
0 0 0 
4.34388e+07 -3.22468e+06 0 
-3.22468e+06 4.76371e+07 0 
0 0 0 
2.27481e+07 7.30558e+06 0 
7.30558e+06 -5.68298e+07 0 
0 0 0 
3.5159e+07 5.6298e+06 0 
5.6298e+06 4.81476e+06 0 
0 0 0 
-1.51697e+07 3.19169e+06 0 
3.19169e+06 -3.73503e+07 0 
0 0 0 
5.4608e+06 1.4125e+06 0 
1.4125e+06 3.43144e+07 0 
0 0 0 
-2.77093e+07 -2.07364e+06 0 
-2.07364e+06 -5.12346e+07 0 
0 0 0 
-4.01795e+07 -4.42677e+06 0 
-4.42677e+06 -2.28944e+07 0 
0 0 0 
-2.51298e+07 -1.0519e+06 0 
-1.0519e+06 -3.17914e+07 0 
0 0 0 
-1.08401e+07 -3.98671e+06 0 
-3.98671e+06 -1.09053e+07 0 
0 0 0 
-24300.3 -4.43425e+06 0 
-4.43425e+06 3.35594e+07 0 
0 0 0 
-4.84897e+06 -3.70187e+06 0 
-3.70187e+06 1.84201e+07 0 
0 0 0 
-1.62395e+07 -5.81965e+06 0 
-5.81965e+06 -3.71327e+07 0 
0 0 0 
-2.91958e+07 -5.18035e+06 0 
-5.18035e+06 -1.30499e+07 0 
0 0 0 
-5.08152e+07 -4.54039e+06 0 
-4.54039e+06 2.30097e+06 0 
0 0 0 
-4.29749e+07 6.30702e+06 0 
6.30702e+06 -3.03874e+07 0 
0 0 0 
-1.16218e+07 8.90007e+06 0 
8.90007e+06 2.5836e+07 0 
0 0 0 
1.79468e+07 6.84017e+06 0 
6.84017e+06 1.72569e+07 0 
0 0 0 
5.20914e+07 -1.3111e+07 0 
-1.3111e+07 4.46078e+07 0 
0 0 0 
8.77321e+07 -9.42364e+06 0 
-9.42364e+06 5.76128e+07 0 
0 0 0 
1.16288e+08 -9.89314e+06 0 
-9.89314e+06 5.85243e+07 0 
0 0 0 
1.21362e+08 7.72561e+06 0 
7.72561e+06 6.04768e+07 0 
0 0 0 
1.16424e+08 -4.08339e+06 0 
-4.08339e+06 6.23378e+07 0 
0 0 0 
1.02178e+08 1.38825e+07 0 
1.38825e+07 5.62962e+07 0 
0 0 0 
1.1143e+08 1.54145e+07 0 
1.54145e+07 4.28728e+07 0 
0 0 0 
9.55112e+07 1.19494e+07 0 
1.19494e+07 4.11302e+07 0 
0 0 0 
6.88299e+07 -5.86656e+06 0 
-5.86656e+06 2.95754e+07 0 
0 0 0 
7.48012e+07 -7.59598e+06 0 
-7.59598e+06 7.85546e+07 0 
0 0 0 
3.46992e+07 -1.12463e+07 0 
-1.12463e+07 1.88218e+07 0 
0 0 0 
1.37437e+07 1.67969e+06 0 
1.67969e+06 4.62634e+07 0 
0 0 0 
-3.13153e+07 3.76452e+06 0 
3.76452e+06 -3.72683e+07 0 
0 0 0 
-3.28426e+07 1.78856e+07 0 
1.78856e+07 1.70167e+07 0 
0 0 0 
-5.79504e+07 1.05252e+07 0 
1.05252e+07 -2.63628e+07 0 
0 0 0 
-2.64401e+07 1.03187e+07 0 
1.03187e+07 1.95535e+07 0 
0 0 0 
-3.01766e+07 -1.69155e+06 0 
-1.69155e+06 1.3982e+06 0 
0 0 0 
0 0 0 
0 0 0 
0 0 0 
-3.02713e+07 6.72467e+06 0 
6.72467e+06 -1.2962e+07 0 
0 0 0 
1.69673e+07 6.80412e+06 0 
6.80412e+06 1.50298e+07 0 
0 0 0 
-1.69719e+07 1.15034e+07 0 
1.15034e+07 1.82524e+07 0 
0 0 0 
-3.18322e+07 -449356 0 
-449356 5.08531e+06 0 
0 0 0 
1.18674e+07 9.29404e+06 0 
9.29404e+06 2.42635e+07 0 
0 0 0 
7.00039e+06 9.90778e+06 0 
9.90778e+06 3.6504e+07 0 
0 0 0 
2.89162e+07 1.06954e+07 0 
1.06954e+07 3.93635e+07 0 
0 0 0 
8.52846e+06 1.07435e+06 0 
1.07435e+06 3.40917e+07 0 
0 0 0 
5.31121e+06 2.11381e+06 0 
2.11381e+06 2.18062e+07 0 
0 0 0 
-2.89746e+07 3.5453e+06 0 
3.5453e+06 -1.10171e+07 0 
0 0 0 
-3.3506e+06 -7.148e+06 0 
-7.148e+06 -1.9636e+07 0 
0 0 0 
-9.6791e+07 -9.67269e+06 0 
-9.67269e+06 -5.69025e+07 0 
0 0 0 
-1.15784e+07 -1.26693e+07 0 
-1.26693e+07 -3.0327e+07 0 
0 0 0 
-1.9624e+07 -1.03409e+07 0 
-1.03409e+07 -2.78172e+07 0 
0 0 0 
5.32878e+07 2.80437e+06 0 
2.80437e+06 1.27043e+07 0 
0 0 0 
-7.75358e+06 1.26366e+07 0 
1.26366e+07 117816 0 
0 0 0 
3.32851e+07 1.92305e+07 0 
1.92305e+07 2.78621e+07 0 
0 0 0 
-4.16902e+07 1.24773e+07 0 
1.24773e+07 -1.68444e+07 0 
0 0 0 
5.23088e+06 1.15664e+07 0 
1.15664e+07 -2.73135e+06 0 
0 0 0 
-6.72112e+06 -518991 0 
-518991 -1.45034e+07 0 
0 0 0 
3.17219e+07 -5.74122e+06 0 
-5.74122e+06 -2.27614e+06 0 
0 0 0 
-3.35194e+07 -8.2319e+06 0 
-8.2319e+06 -1.70452e+07 0 
0 0 0 
-2.0929e+07 -1.51152e+07 0 
-1.51152e+07 -9.23209e+06 0 
0 0 0 
-1.72992e+07 2.99601e+06 0 
2.99601e+06 1.87106e+07 0 
0 0 0 
4.59706e+07 1.61139e+07 0 
1.61139e+07 5.01175e+07 0 
0 0 0 
2.95464e+07 1.53082e+07 0 
1.53082e+07 3.55927e+07 0 
0 0 0 
7.08426e+06 5.29151e+06 0 
5.29151e+06 2.67015e+07 0 
0 0 0 
2.2183e+07 -3.77251e+06 0 
-3.77251e+06 5.04812e+07 0 
0 0 0 
5.58993e+06 1.37555e+06 0 
1.37555e+06 3.95172e+07 0 
0 0 0 
-2.37768e+07 1.57055e+07 0 
1.57055e+07 2.68823e+07 0 
0 0 0 
1.37893e+07 7.64863e+06 0 
7.64863e+06 3.55366e+07 0 
0 0 0 
1.84935e+07 -2.02414e+06 0 
-2.02414e+06 2.90909e+07 0 
0 0 0 
2.52176e+07 -9.9152e+06 0 
-9.9152e+06 2.87198e+07 0 
0 0 0 
3.07015e+07 -4.64254e+06 0 
-4.64254e+06 7.38547e+06 0 
0 0 0 
-5.98739e+07 1.19738e+06 0 
1.19738e+06 -4.9534e+07 0 
0 0 0 
-7.6335e+06 4.47102e+06 0 
4.47102e+06 -2.97193e+07 0 
0 0 0 
-4.51301e+07 9.0767e+06 0 
9.0767e+06 -5.32707e+07 0 
0 0 0 
4.90976e+07 1.12723e+07 0 
1.12723e+07 -1.41576e+07 0 
0 0 0 
-1.34913e+07 375980 0 
375980 3.17818e+07 0 
0 0 0 
-1.76804e+07 1.55085e+06 0 
1.55085e+06 -2.94308e+07 0 
0 0 0 
0 0 0 
0 0 0 
0 0 0 
-1.54801e+07 5.39257e+06 0 
5.39257e+06 -3.42677e+07 0 
0 0 0 
-3.17282e+07 7.52149e+06 0 
7.52149e+06 -5.77395e+07 0 
0 0 0 
-1.41086e+07 900299 0 
900299 -6.89354e+06 0 
0 0 0 
-1.25858e+07 -3.19379e+06 0 
-3.19379e+06 -3.66301e+07 0 
0 0 0 
1.06057e+07 -6.21119e+06 0 
-6.21119e+06 1.96337e+07 0 
0 0 0 
-2.24871e+07 -3.04207e+06 0 
-3.04207e+06 -5.57092e+07 0 
0 0 0 
-1.03876e+07 -4.09869e+06 0 
-4.09869e+06 -1.16605e+07 0 
0 0 0 
-1.39824e+07 -1.52532e+07 0 
-1.52532e+07 -4.24864e+07 0 
0 0 0 
3.79369e+06 -7.7959e+06 0 
-7.7959e+06 3.35388e+07 0 
0 0 0 
-1.8644e+07 -1.37497e+07 0 
-1.37497e+07 -3.88584e+07 0 
0 0 0 
4.81506e+06 226089 0 
226089 -1.80042e+07 0 
0 0 0 
-6.09271e+06 -2.15763e+06 0 
-2.15763e+06 -2.77325e+07 0 
0 0 0 
1.03424e+07 1.13866e+06 0 
1.13866e+06 -792186 0 
0 0 0 
4.86977e+07 2.5077e+06 0 
2.5077e+06 4.66715e+07 0 
0 0 0 
2.3104e+07 -1.37465e+07 0 
-1.37465e+07 2.08762e+07 0 
0 0 0 
-1.30131e+07 -7.56916e+06 0 
-7.56916e+06 -2.36425e+07 0 
0 0 0 
-2.23607e+06 -2.03944e+07 0 
-2.03944e+07 -655003 0 
0 0 0 
1.79659e+07 -3.97642e+06 0 
-3.97642e+06 2.11472e+07 0 
0 0 0 
6.02777e+06 1.55546e+06 0 
1.55546e+06 2.63625e+06 0 
0 0 0 
8.878e+06 7.97179e+06 0 
7.97179e+06 3.65619e+07 0 
0 0 0 
-4.2257e+07 3.00955e+06 0 
3.00955e+06 -1.93312e+07 0 
0 0 0 
-3.14467e+07 -616004 0 
-616004 371597 0 
0 0 0 
-1.28573e+07 -3.74919e+06 0 
-3.74919e+06 2.9065e+07 0 
0 0 0 
-2.92337e+07 -4.47958e+06 0 
-4.47958e+06 1.81384e+07 0 
0 0 0 
-4.77566e+07 744141 0 
744141 7.90628e+06 0 
0 0 0 
-5.28051e+07 1.74679e+06 0 
1.74679e+06 2.24426e+07 0 
0 0 0 
-4.59324e+07 1.19664e+07 0 
1.19664e+07 1.16617e+07 0 
0 0 0 
-7.30309e+07 8.64375e+06 0 
8.64375e+06 -1.48695e+07 0 
0 0 0 
-5.68668e+07 1.16624e+06 0 
1.16624e+06 -2.40665e+07 0 
0 0 0 
-1.69249e+07 -2.22031e+06 0 
-2.22031e+06 3.45799e+06 0 
0 0 0 
1.90226e+07 -3.20098e+06 0 
-3.20098e+06 3.70376e+07 0 
0 0 0 
4.3049e+07 -1.6949e+07 0 
-1.6949e+07 3.77203e+07 0 
0 0 0 
5.80757e+07 -7.50171e+06 0 
-7.50171e+06 4.89193e+07 0 
0 0 0 
4.04906e+07 -3.74614e+06 0 
-3.74614e+06 2.02668e+07 0 
0 0 0 
1.95199e+07 6.9348e+06 0 
6.9348e+06 2.86221e+07 0 
0 0 0 
8.07924e+06 1.34724e+07 0 
1.34724e+07 -22814 0 
0 0 0 
1.82152e+07 1.12562e+07 0 
1.12562e+07 2.43724e+07 0 
0 0 0 
1.32926e+07 4.35436e+06 0 
4.35436e+06 1.22087e+07 0 
0 0 0 
3.04903e+07 -561399 0 
-561399 4.6535e+07 0 
0 0 0 
0 0 0 
0 0 0 
0 0 0 
-1.85135e+07 8.07333e+06 0 
8.07333e+06 -1.20764e+07 0 
0 0 0 
-2.59806e+06 2.13445e+06 0 
2.13445e+06 -1.79184e+07 0 
0 0 0 
-4.46412e+07 -3.42241e+06 0 
-3.42241e+06 -3.53146e+07 0 
0 0 0 
-2.24977e+07 -616782 0 
-616782 -2.88051e+07 0 
0 0 0 
2.20567e+06 2.06005e+07 0 
2.06005e+07 -2.21088e+07 0 
0 0 0 
-668750 1.61142e+07 0 
1.61142e+07 -9.12703e+06 0 
0 0 0 
-830714 9.15119e+06 0 
9.15119e+06 -468386 0 
0 0 0 
-4.71186e+06 1.80954e+06 0 
1.80954e+06 -922423 0 
0 0 0 
-6.0649e+06 -1.55306e+07 0 
-1.55306e+07 1.35981e+07 0 
0 0 0 
-3.92873e+07 -1.18826e+07 0 
-1.18826e+07 -8.0962e+06 0 
0 0 0 
-8.05504e+06 -1.28893e+07 0 
-1.28893e+07 -5.44628e+06 0 
0 0 0 
-5.13881e+07 -17274 0 
-17274 -8.48815e+06 0 
0 0 0 
-9.76216e+06 -3.28393e+06 0 
-3.28393e+06 1.32104e+07 0 
0 0 0 
9.31199e+06 2.9963e+06 0 
2.9963e+06 3.00016e+07 0 
0 0 0 
7.76143e+07 1.12297e+07 0 
1.12297e+07 4.77304e+07 0 
0 0 0 
1.0734e+06 1.52507e+07 0 
1.52507e+07 2.43338e+07 0 
0 0 0 
3.61285e+07 1.16969e+07 0 
1.16969e+07 2.586e+07 0 
0 0 0 
-5.11605e+07 4.52912e+06 0 
4.52912e+06 -1.65569e+06 0 
0 0 0 
1.00982e+07 7.97838e+06 0 
7.97838e+06 2.13066e+07 0 
0 0 0 
1.18187e+07 -2.86525e+06 0 
-2.86525e+06 2.9067e+07 0 
0 0 0 
2.94735e+07 -2.39777e+06 0 
-2.39777e+06 2.93522e+07 0 
0 0 0 
-3.96342e+07 -6.00395e+06 0 
-6.00395e+06 -5.29399e+06 0 
0 0 0 
-1.40754e+06 6.08329e+06 0 
6.08329e+06 8.21786e+06 0 
0 0 0 
-1.3357e+07 6.69524e+06 0 
6.69524e+06 -1.61503e+06 0 
0 0 0 
5.72598e+07 1.31858e+07 0 
1.31858e+07 1.21983e+07 0 
0 0 0 
-1.24467e+07 7.89471e+06 0 
7.89471e+06 -9.13413e+06 0 
0 0 0 
-3.81594e+06 1.4849e+06 0 
1.4849e+06 -1.46075e+06 0 
0 0 0 
7.75493e+06 3.25794e+06 0 
3.25794e+06 -6.42144e+06 0 
0 0 0 
-1.32398e+07 5.10311e+06 0 
5.10311e+06 3.01473e+06 0 
0 0 0 
-3.15188e+07 -2.24897e+06 0 
-2.24897e+06 -1.56357e+07 0 
0 0 0 
-1.83889e+06 5.2921e+06 0 
5.2921e+06 -2.74155e+07 0 
0 0 0 
-1.91723e+07 4.58341e+06 0 
4.58341e+06 -2.23736e+07 0 
0 0 0 
2.03166e+07 -8.18852e+06 0 
-8.18852e+06 4.18315e+06 0 
0 0 0 
5.05215e+07 -5.29201e+06 0 
-5.29201e+06 2.57416e+07 0 
0 0 0 
-4.71902e+07 6.32479e+06 0 
6.32479e+06 5.20091e+06 0 
0 0 0 
1.55858e+07 3.9473e+06 0 
3.9473e+06 2.55513e+07 0 
0 0 0 
-1.28422e+07 7.55679e+06 0 
7.55679e+06 2.56698e+07 0 
0 0 0 
6.20992e+07 9.3011e+06 0 
9.3011e+06 3.75928e+07 0 
0 0 0 
-5.04698e+06 436135 0 
436135 7.81976e+06 0 
0 0 0 
1.56158e+07 9.0574e+06 0 
9.0574e+06 -2.0123e+07 0 
0 0 0 
3.95341e+07 380195 0 
380195 2.0709e+07 0 
0 0 0 
0 0 0 
0 0 0 
0 0 0 
-8.73307e+06 -3.03979e+06 0 
-3.03979e+06 -2.49278e+07 0 
0 0 0 
-2.6163e+07 -2.53257e+06 0 
-2.53257e+06 -5.55697e+07 0 
0 0 0 
-1.14062e+07 7.90839e+06 0 
7.90839e+06 -1.19474e+07 0 
0 0 0 
-1.10671e+07 -1.45525e+06 0 
-1.45525e+06 -4.59481e+07 0 
0 0 0 
1.00698e+07 -6.07384e+06 0 
-6.07384e+06 1.22958e+07 0 
0 0 0 
-1.68514e+07 955023 0 
955023 -4.19344e+07 0 
0 0 0 
-3.69391e+07 -1.07034e+07 0 
-1.07034e+07 -3.72188e+07 0 
0 0 0 
-4.18218e+07 -7.21674e+06 0 
-7.21674e+06 -4.03237e+07 0 
0 0 0 
-5.31374e+06 -2.23291e+06 0 
-2.23291e+06 2.25994e+07 0 
0 0 0 
6.6741e+06 -2.39018e+06 0 
-2.39018e+06 -2.29188e+07 0 
0 0 0 
3.72552e+07 617062 0 
617062 1.20051e+07 0 
0 0 0 
1.44207e+07 2.41761e+06 0 
2.41761e+06 -3.43751e+07 0 
0 0 0 
3.10094e+07 1.83793e+07 0 
1.83793e+07 2.20851e+07 0 
0 0 0 
7.37047e+06 -4.53851e+06 0 
-4.53851e+06 2.55361e+06 0 
0 0 0 
1.08598e+07 -1.83038e+07 0 
-1.83038e+07 1.13088e+07 0 
0 0 0 
5.41638e+06 -1.82509e+07 0 
-1.82509e+07 -1.30549e+07 0 
0 0 0 
2.70576e+07 -1.06594e+07 0 
-1.06594e+07 2.43345e+07 0 
0 0 0 
3.50851e+07 -7.0948e+06 0 
-7.0948e+06 1.97924e+07 0 
0 0 0 
3.09584e+07 644548 0 
644548 3.1759e+07 0 
0 0 0 
2.19187e+07 951291 0 
951291 4.01673e+07 0 
0 0 0 
2.23968e+07 4.92414e+06 0 
4.92414e+06 4.02443e+06 0 
0 0 0 
1.26621e+07 9.02538e+06 0 
9.02538e+06 28085.3 0 
0 0 0 
1.20129e+07 -547442 0 
-547442 3.48074e+07 0 
0 0 0 
2.51929e+07 -3.97641e+06 0 
-3.97641e+06 3.96072e+07 0 
0 0 0 
1.19175e+07 -6.88246e+06 0 
-6.88246e+06 3.6507e+07 0 
0 0 0 
6.5399e+06 3.34251e+06 0 
3.34251e+06 4.49547e+07 0 
0 0 0 
-1.36924e+07 4.06996e+06 0 
4.06996e+06 3.93583e+07 0 
0 0 0 
-2.60358e+07 2.03506e+07 0 
2.03506e+07 -1.74695e+06 0 
0 0 0 
-2.71983e+07 2.77636e+07 0 
2.77636e+07 -9.52303e+06 0 
0 0 0 
-9.66574e+06 1.9351e+07 0 
1.9351e+07 -1.62581e+06 0 
0 0 0 
2.7151e+06 8.63238e+06 0 
8.63238e+06 1.68856e+07 0 
0 0 0 
2.01085e+06 856446 0 
856446 1.65576e+07 0 
0 0 0 
1.42469e+07 -5.08904e+06 0 
-5.08904e+06 2.16857e+07 0 
0 0 0 
1.51367e+07 -1.32542e+07 0 
-1.32542e+07 3.16115e+07 0 
0 0 0 
6.54037e+06 -1.0971e+07 0 
-1.0971e+07 2.62427e+07 0 
0 0 0 
-2.07944e+07 1.10328e+07 0 
1.10328e+07 2.92975e+06 0 
0 0 0 
-3.50195e+07 9.69611e+06 0 
9.69611e+06 1.24639e+07 0 
0 0 0 
-5.8e+07 3.14877e+06 0 
3.14877e+06 -2.8291e+07 0 
0 0 0 
-3.94376e+07 6.40465e+06 0 
6.40465e+06 2.72916e+07 0 
0 0 0 
-6.66444e+07 9.31991e+06 0 
9.31991e+06 -4.13006e+07 0 
0 0 0 
0 0 0 
0 0 0 
0 0 0 
-4.3982e+06 928473 0 
928473 -1.94681e+06 0 
0 0 0 
-1.72916e+07 6.68029e+06 0 
6.68029e+06 -1.63341e+06 0 
0 0 0 
-2.28252e+07 9.27937e+06 0 
9.27937e+06 -3.71425e+06 0 
0 0 0 
-3.36866e+06 943600 0 
943600 5.94298e+06 0 
0 0 0 
2.8177e+07 1.28578e+07 0 
1.28578e+07 2.23799e+07 0 
0 0 0 
-5.20222e+06 1.22834e+07 0 
1.22834e+07 -2.65927e+06 0 
0 0 0 
3.55153e+06 6.34435e+06 0 
6.34435e+06 -4.91506e+06 0 
0 0 0 
-4.13809e+07 2.75255e+06 0 
2.75255e+06 -1.69376e+07 0 
0 0 0 
-1.7532e+07 -8.88044e+06 0 
-8.88044e+06 -6.6544e+06 0 
0 0 0 
-2.65732e+07 -1.39552e+07 0 
-1.39552e+07 5.62755e+06 0 
0 0 0 
-3.57188e+06 -2.2451e+06 0 
-2.2451e+06 7.96718e+06 0 
0 0 0 
-3.73068e+07 -3.82457e+06 0 
-3.82457e+06 -2.30176e+07 0 
0 0 0 
-1.58023e+07 1.87892e+06 0 
1.87892e+06 -1.2363e+07 0 
0 0 0 
8.96063e+06 9.36329e+06 0 
9.36329e+06 6.93542e+06 0 
0 0 0 
5.30883e+07 -1.12075e+06 0 
-1.12075e+06 2.30679e+07 0 
0 0 0 
1.23831e+06 8.29999e+06 0 
8.29999e+06 -1.09277e+07 0 
0 0 0 
1.10242e+07 4.69124e+06 0 
4.69124e+06 -1.33598e+07 0 
0 0 0 
-6.53082e+07 -689820 0 
-689820 -5.12351e+07 0 
0 0 0 
-1.45508e+07 1.09145e+07 0 
1.09145e+07 -5.12912e+07 0 
0 0 0 
-2.0743e+07 -1.79636e+06 0 
-1.79636e+06 -5.37607e+07 0 
0 0 0 
1.92843e+07 -4.26273e+06 0 
-4.26273e+06 -1.94094e+07 0 
0 0 0 
-3.84252e+07 6.01652e+06 0 
6.01652e+06 -1.0835e+07 0 
0 0 0 
2.90595e+07 1.50417e+07 0 
1.50417e+07 4.19545e+07 0 
0 0 0 
-1.27054e+07 1.52073e+07 0 
1.52073e+07 4.35253e+07 0 
0 0 0 
7.2438e+07 3.93348e+06 0 
3.93348e+06 6.90569e+07 0 
0 0 0 
-9.3878e+06 3.10377e+06 0 
3.10377e+06 3.7304e+07 0 
0 0 0 
1.66114e+07 -813754 0 
-813754 2.93463e+07 0 
0 0 0 
2.96603e+07 3.63486e+06 0 
3.63486e+06 3.30555e+07 0 
0 0 0 
-3.54526e+07 3.27999e+06 0 
3.27999e+06 -367199 0 
0 0 0 
5.19791e+06 5.94682e+06 0 
5.94682e+06 1.59681e+07 0 
0 0 0 
9.51206e+06 1.00403e+07 0 
1.00403e+07 2.76685e+07 0 
0 0 0 
-695141 1.48608e+07 0 
1.48608e+07 2.50086e+07 0 
0 0 0 
2.00799e+07 7.07335e+06 0 
7.07335e+06 3.97291e+07 0 
0 0 0 
4.7037e+07 -1.03522e+07 0 
-1.03522e+07 5.37578e+07 0 
0 0 0 
-4.44779e+07 -1.21019e+07 0 
-1.21019e+07 1.40628e+07 0 
0 0 0 
3.69485e+07 -2.41227e+06 0 
-2.41227e+06 2.14156e+07 0 
0 0 0 
-3.63864e+07 7.70521e+06 0 
7.70521e+06 -2.21659e+07 0 
0 0 0 
4.74183e+07 -2.76338e+06 0 
-2.76338e+06 2.36599e+06 0 
0 0 0 
-4.04296e+06 1.33474e+06 0 
1.33474e+06 -2.34745e+07 0 
0 0 0 
2.04336e+07 2.46285e+06 0 
2.46285e+06 -9.8992e+06 0 
0 0 0 
-6.33257e+07 7.73555e+06 0 
7.73555e+06 -2.27008e+07 0 
0 0 0 
-4.90966e+07 3.01195e+06 0 
3.01195e+06 -2.44388e+07 0 
0 0 0 
0 0 0 
0 0 0 
0 0 0 
-2.63142e+07 -9.5588e+06 0 
-9.5588e+06 -4.89782e+07 0 
0 0 0 
-2.66401e+07 -1.00682e+07 0 
-1.00682e+07 -4.16518e+07 0 
0 0 0 
-2.18096e+07 730.25 0 
730.25 -5.27234e+06 0 
0 0 0 
-5.88404e+07 4.38419e+06 0 
4.38419e+06 -7.64054e+07 0 
0 0 0 
-1.42579e+07 -590749 0 
-590749 1.8757e+06 0 
0 0 0 
-3.4475e+06 -8.06615e+06 0 
-8.06615e+06 -3.29738e+07 0 
0 0 0 
1.70955e+07 -7.95106e+06 0 
-7.95106e+06 -2.85245e+07 0 
0 0 0 
3.82154e+07 -2.11266e+06 0 
-2.11266e+06 2.56172e+06 0 
0 0 0 
6.57554e+07 8.11008e+06 0 
8.11008e+06 4.56015e+07 0 
0 0 0 
3.14955e+07 2.19966e+06 0 
2.19966e+06 -2.75725e+07 0 
0 0 0 
2.1345e+07 -2.59565e+06 0 
-2.59565e+06 2.96631e+07 0 
0 0 0 
-1.6046e+06 -5.55001e+06 0 
-5.55001e+06 -4.3872e+07 0 
0 0 0 
3.82543e+06 8.66724e+06 0 
8.66724e+06 2.64612e+07 0 
0 0 0 
-3.34753e+07 -8.97694e+06 0 
-8.97694e+06 -6.12127e+07 0 
0 0 0 
-1.54613e+06 -1.2375e+07 0 
-1.2375e+07 1.83437e+07 0 
0 0 0 
-8.88224e+06 -1.66681e+07 0 
-1.66681e+07 -2.22981e+07 0 
0 0 0 
1.68199e+07 -4.77941e+06 0 
-4.77941e+06 3.85033e+07 0 
0 0 0 
2.50691e+06 -1.47721e+07 0 
-1.47721e+07 474254 0 
0 0 0 
1.2227e+07 -6.73904e+06 0 
-6.73904e+06 3.52112e+07 0 
0 0 0 
7.80592e+06 -1.86623e+07 0 
-1.86623e+07 2.65241e+07 0 
0 0 0 
-5.97479e+06 2.1595e+06 0 
2.1595e+06 3.51242e+07 0 
0 0 0 
-3.12786e+07 4.4285e+06 0 
4.4285e+06 -2.02364e+07 0 
0 0 0 
6.7443e+06 1.86752e+07 0 
1.86752e+07 4.7566e+06 0 
0 0 0 
4.25243e+07 -9.64605e+06 0 
-9.64605e+06 4.47316e+07 0 
0 0 0 
6.92475e+07 -7.06801e+06 0 
-7.06801e+06 6.68702e+07 0 
0 0 0 
6.43067e+07 -1.00887e+07 0 
-1.00887e+07 5.63966e+07 0 
0 0 0 
6.78426e+07 -2.88832e+06 0 
-2.88832e+06 8.75226e+07 0 
0 0 0 
2.73031e+07 2.70297e+06 0 
2.70297e+06 3.60926e+07 0 
0 0 0 
-5.26161e+06 1.68397e+07 0 
1.68397e+07 -8.88894e+06 0 
0 0 0 
-2.13252e+07 6.97031e+06 0 
6.97031e+06 -1.52051e+07 0 
0 0 0 
-2.37526e+07 7.63158e+06 0 
7.63158e+06 1.77825e+07 0 
0 0 0 
-2.61158e+07 5.03411e+06 0 
5.03411e+06 -2.29067e+07 0 
0 0 0 
-4.06158e+06 2.35955e+06 0 
2.35955e+06 1.14149e+07 0 
0 0 0 
1.80695e+07 -8.10437e+06 0 
-8.10437e+06 2.55972e+07 0 
0 0 0 
5.76087e+07 -442688 0 
-442688 5.61729e+07 0 
0 0 0 
6.10821e+07 -3.11304e+06 0 
-3.11304e+06 4.14156e+07 0 
0 0 0 
5.90964e+07 3.19619e+06 0 
3.19619e+06 4.20247e+07 0 
0 0 0 
5.82714e+07 -54037.6 0 
-54037.6 2.20359e+07 0 
0 0 0 
5.56892e+07 8.23691e+06 0 
8.23691e+06 4.82299e+07 0 
0 0 0 
1.72242e+07 -355851 0 
-355851 -2.53152e+06 0 
0 0 0 
4.29435e+06 1.38405e+07 0 
1.38405e+07 -1.12749e+07 0 
0 0 0 
0 0 0 
0 0 0 
0 0 0 
572176 2.25597e+06 0 
2.25597e+06 -3.87982e+06 0 
0 0 0 
-2.31855e+07 5.32706e+06 0 
5.32706e+06 -2.58594e+07 0 
0 0 0 
-4.04266e+07 2.17257e+06 0 
2.17257e+06 -3.30965e+07 0 
0 0 0 
-1.40742e+07 -3.28156e+06 0 
-3.28156e+06 -2.62622e+07 0 
0 0 0 
1.69e+07 6.67168e+06 0 
6.67168e+06 -3.64563e+07 0 
0 0 0 
-2.35556e+07 5.48199e+06 0 
5.48199e+06 -5.89919e+07 0 
0 0 0 
-2.39594e+07 611565 0 
611565 -6.23401e+07 0 
0 0 0 
-5.52091e+07 2.13527e+06 0 
2.13527e+06 -6.64989e+07 0 
0 0 0 
-4.23451e+07 966364 0 
966364 -5.14917e+07 0 
0 0 0 
-2.20472e+07 2.56904e+06 0 
2.56904e+06 -2.83445e+07 0 
0 0 0 
-1.51103e+07 -8.15674e+06 0 
-8.15674e+06 -4.86301e+06 0 
0 0 0 
-2.16555e+07 -1.80104e+06 0 
-1.80104e+06 -1.45297e+06 0 
0 0 0 
1.17175e+07 1.48663e+07 0 
1.48663e+07 2.06269e+07 0 
0 0 0 
8.98989e+06 1.02919e+07 0 
1.02919e+07 3.71076e+07 0 
0 0 0 
4.4937e+07 2.72228e+06 0 
2.72228e+06 5.07774e+07 0 
0 0 0 
2.27135e+07 1.07276e+06 0 
1.07276e+06 4.61524e+07 0 
0 0 0 
1.8245e+07 -5.63012e+06 0 
-5.63012e+06 2.49546e+07 0 
0 0 0 
-2.30258e+07 4.18188e+06 0 
4.18188e+06 6.73014e+06 0 
0 0 0 
3.79051e+06 1.04498e+07 0 
1.04498e+07 3.08035e+07 0 
0 0 0 
2.6448e+06 8.71684e+06 0 
8.71684e+06 3.55374e+07 0 
0 0 0 
4.55481e+07 6.98354e+06 0 
6.98354e+06 5.77807e+07 0 
0 0 0 
5.94694e+06 9.12771e+06 0 
9.12771e+06 4.49754e+07 0 
0 0 0 
1.50682e+07 2.09739e+07 0 
2.09739e+07 3.35757e+07 0 
0 0 0 
-1.19101e+07 7.25784e+06 0 
7.25784e+06 2.44964e+07 0 
0 0 0 
3.85929e+07 1.00401e+07 0 
1.00401e+07 4.13425e+07 0 
0 0 0 
-1.79231e+07 360093 0 
360093 -271622 0 
0 0 0 
-15162.7 -4.64924e+06 0 
-4.64924e+06 2.08013e+06 0 
0 0 0 
2.39338e+07 -8.08066e+06 0 
-8.08066e+06 2.08427e+06 0 
0 0 0 
-2.59694e+07 4.81492e+06 0 
4.81492e+06 -1.70227e+07 0 
0 0 0 
2.49597e+06 3.95537e+06 0 
3.95537e+06 -9.38199e+06 0 
0 0 0 
1.05678e+07 1.4145e+07 0 
1.4145e+07 -1.68706e+06 0 
0 0 0 
-1.39326e+07 1.81875e+07 0 
1.81875e+07 -6.89744e+06 0 
0 0 0 
-2.48999e+07 2.45941e+06 0 
2.45941e+06 -9.79223e+06 0 
0 0 0 
1.05218e+07 -8.64308e+06 0 
-8.64308e+06 1.5087e+07 0 
0 0 0 
-2.729e+07 -7.11899e+06 0 
-7.11899e+06 -2.37996e+06 0 
0 0 0 
3.15527e+07 -5.56509e+06 0 
-5.56509e+06 2.14818e+07 0 
0 0 0 
5.78106e+06 2.3758e+06 0 
2.3758e+06 3.02852e+07 0 
0 0 0 
4.06258e+07 6.3675e+06 0 
6.3675e+06 4.73288e+07 0 
0 0 0 
2.81908e+07 -8.72651e+06 0 
-8.72651e+06 5.35128e+07 0 
0 0 0 
4.02709e+07 -2.16383e+06 0 
-2.16383e+06 5.53811e+07 0 
0 0 0 
6.40195e+06 9.81116e+06 0 
9.81116e+06 4.61888e+07 0 
0 0 0 
1.70197e+07 7.99318e+06 0 
7.99318e+06 1.18501e+07 0 
0 0 0 
5.08364e+06 1.74365e+07 0 
1.74365e+07 3.7636e+07 0 
0 0 0 
0 0 0 
0 0 0 
0 0 0 
-5.7246e+06 -2.07881e+06 0 
-2.07881e+06 -4.77764e+07 0 
0 0 0 
1.56664e+07 8.9042e+06 0 
8.9042e+06 -1.94932e+07 0 
0 0 0 
1.55029e+07 -5.30297e+06 0 
-5.30297e+06 -2.19223e+06 0 
0 0 0 
575266 3.87019e+06 0 
3.87019e+06 -4.5279e+07 0 
0 0 0 
8.41762e+06 7.51107e+06 0 
7.51107e+06 -4.19479e+06 0 
0 0 0 
-1.04651e+07 4.28474e+06 0 
4.28474e+06 -3.27905e+07 0 
0 0 0 
1.40743e+07 8.2929e+06 0 
8.2929e+06 -1.76754e+07 0 
0 0 0 
3.63405e+07 636196 0 
636196 -9.44119e+06 0 
0 0 0 
3.6572e+07 -1.59025e+06 0 
-1.59025e+06 2.97065e+07 0 
0 0 0 
3.06891e+06 -1.54843e+07 0 
-1.54843e+07 -2.89042e+07 0 
0 0 0 
-1.77455e+07 -2.6374e+07 0 
-2.6374e+07 -1.03499e+07 0 
0 0 0 
-4.44406e+07 -1.17225e+07 0 
-1.17225e+07 -2.44547e+07 0 
0 0 0 
-2.90708e+07 -1.0902e+07 0 
-1.0902e+07 726283 0 
0 0 0 
-5.4649e+07 -8.48178e+06 0 
-8.48178e+06 -6.56673e+07 0 
0 0 0 
-2.69671e+07 -4.75229e+06 0 
-4.75229e+06 5.94776e+06 0 
0 0 0 
-3.10172e+07 -1.02955e+07 0 
-1.02955e+07 -2.91325e+07 0 
0 0 0 
-1.29006e+07 -4.01128e+06 0 
-4.01128e+06 3.84752e+07 0 
0 0 0 
-1.5876e+07 -1.64845e+06 0 
-1.64845e+06 -1.19127e+07 0 
0 0 0 
1.08811e+07 -6.19634e+06 0 
-6.19634e+06 3.20765e+07 0 
0 0 0 
2.148e+07 950068 0 
950068 3.22162e+07 0 
0 0 0 
2.23365e+07 -1.85404e+07 0 
-1.85404e+07 6.32546e+07 0 
0 0 0 
1.42483e+07 1.28494e+07 0 
1.28494e+07 2.14409e+07 0 
0 0 0 
1.74898e+07 2.87989e+07 0 
2.87989e+07 3.64595e+06 0 
0 0 0 
2.95608e+07 2.40246e+07 0 
2.40246e+07 1.59457e+07 0 
0 0 0 
7.57737e+07 5.13962e+06 0 
5.13962e+06 6.56772e+07 0 
0 0 0 
9.77869e+07 -5.68598e+06 0 
-5.68598e+06 6.04216e+07 0 
0 0 0 
9.59265e+07 -1.88346e+07 0 
-1.88346e+07 9.33895e+07 0 
0 0 0 
7.29048e+07 -1.37146e+07 0 
-1.37146e+07 6.81293e+07 0 
0 0 0 
4.68257e+07 3.29224e+06 0 
3.29224e+06 1.04208e+07 0 
0 0 0 
4.05363e+07 6.82444e+06 0 
6.82444e+06 2.25916e+07 0 
0 0 0 
4.50908e+07 2.12882e+06 0 
2.12882e+06 3.1371e+07 0 
0 0 0 
2.51299e+07 5.91263e+06 0 
5.91263e+06 -1.39469e+07 0 
0 0 0 
3.64361e+07 5.67735e+06 0 
5.67735e+06 2.94822e+07 0 
0 0 0 
3.20448e+07 9.36348e+06 0 
9.36348e+06 3.19436e+07 0 
0 0 0 
2.44077e+07 8.99693e+06 0 
8.99693e+06 4.41877e+07 0 
0 0 0 
1.878e+07 2.89926e+06 0 
2.89926e+06 1.72292e+07 0 
0 0 0 
2.70915e+07 3.07255e+06 0 
3.07255e+06 3.68767e+07 0 
0 0 0 
1.60356e+07 -2.19556e+06 0 
-2.19556e+06 1.81923e+07 0 
0 0 0 
1.57317e+07 -8.92813e+06 0 
-8.92813e+06 1.89588e+07 0 
0 0 0 
299663 -1.34486e+07 0 
-1.34486e+07 6.65527e+06 0 
0 0 0 
-1.69577e+07 7.58737e+06 0 
7.58737e+06 -1.77145e+07 0 
0 0 0 
-1.87264e+07 6.6403e+06 0 
6.6403e+06 1.33976e+07 0 
0 0 0 
0 0 0 
0 0 0 
0 0 0 
6.63729e+06 -3.98281e+06 0 
-3.98281e+06 -2.97631e+06 0 
0 0 0 
-3.21451e+07 -1.77118e+06 0 
-1.77118e+06 -1.57934e+07 0 
0 0 0 
-4.02113e+07 -13228.1 0 
-13228.1 -2.83624e+07 0 
0 0 0 
-2.84248e+06 638368 0 
638368 -1.27116e+07 0 
0 0 0 
4.63313e+07 4.37443e+06 0 
4.37443e+06 2.20436e+07 0 
0 0 0 
-9.74017e+06 4.92264e+06 0 
4.92264e+06 -4.91694e+06 0 
0 0 0 
-1.32758e+07 6.25454e+06 0 
6.25454e+06 -7.11821e+06 0 
0 0 0 
-2.63073e+07 7.48425e+06 0 
7.48425e+06 -1.36934e+07 0 
0 0 0 
-3.49929e+07 5.65786e+06 0 
5.65786e+06 -1.37585e+07 0 
0 0 0 
-3.23653e+06 6.79321e+06 0 
6.79321e+06 7.34812e+06 0 
0 0 0 
-2.27026e+07 -100111 0 
-100111 3.94651e+06 0 
0 0 0 
6.02426e+06 1.38137e+06 0 
1.38137e+06 2.42579e+07 0 
0 0 0 
5.29629e+06 8.21828e+06 0 
8.21828e+06 1.41281e+07 0 
0 0 0 
-1.41735e+07 7.8526e+06 0 
7.8526e+06 -1.19761e+07 0 
0 0 0 
1.8583e+07 -4.68984e+06 0 
-4.68984e+06 726092 0 
0 0 0 
221322 -94729.2 0 
-94729.2 -1.9254e+07 0 
0 0 0 
2.90717e+06 -4.77732e+06 0 
-4.77732e+06 -1.8832e+07 0 
0 0 0 
-3.10887e+06 5.68351e+06 0 
5.68351e+06 -1.38414e+07 0 
0 0 0 
-2.3046e+07 1.42312e+07 0 
1.42312e+07 -2.62709e+07 0 
0 0 0 
-1.05846e+07 1.10698e+07 0 
1.10698e+07 -2.33122e+07 0 
0 0 0 
-2.05378e+06 9.54557e+06 0 
9.54557e+06 -2.42819e+07 0 
0 0 0 
-1.36632e+06 1.22456e+06 0 
1.22456e+06 -2.4236e+07 0 
0 0 0 
-1.12035e+06 8.89122e+06 0 
8.89122e+06 -2.2861e+07 0 
0 0 0 
-2.78122e+07 1.9318e+07 0 
1.9318e+07 -3.14815e+07 0 
0 0 0 
1.7084e+07 2.12746e+06 0 
2.12746e+06 -1.36885e+07 0 
0 0 0 
-4.842e+07 -4.79549e+06 0 
-4.79549e+06 -3.01762e+07 0 
0 0 0 
2.75248e+06 3.23516e+06 0 
3.23516e+06 -4.32152e+06 0 
0 0 0 
3.07612e+07 -452045 0 
-452045 2.05292e+07 0 
0 0 0 
-7.92105e+06 -781845 0 
-781845 1.26479e+06 0 
0 0 0 
2.21277e+07 7.63849e+06 0 
7.63849e+06 6.41126e+06 0 
0 0 0 
6.32366e+06 1.19311e+07 0 
1.19311e+07 -8.15684e+06 0 
0 0 0 
-1.44357e+07 9.90322e+06 0 
9.90322e+06 -1.56681e+07 0 
0 0 0 
-5.0921e+07 1.13315e+07 0 
1.13315e+07 -3.08865e+07 0 
0 0 0 
-1.99291e+07 -426151 0 
-426151 -4.32614e+07 0 
0 0 0 
-2.92151e+07 -5.93599e+06 0 
-5.93599e+06 -3.28585e+07 0 
0 0 0 
2.00431e+06 -4.64307e+06 0 
-4.64307e+06 -2.37865e+07 0 
0 0 0 
6.67528e+06 4.97492e+06 0 
4.97492e+06 -3.97467e+07 0 
0 0 0 
-4.79839e+06 1.2903e+06 0 
1.2903e+06 -2.61248e+07 0 
0 0 0 
1.13061e+07 -5.36072e+06 0 
-5.36072e+06 -1.61801e+07 0 
0 0 0 
2.351e+07 2.09703e+06 0 
2.09703e+06 -1.60711e+07 0 
0 0 0 
-2.33277e+06 2.56599e+06 0 
2.56599e+06 -1.94641e+07 0 
0 0 0 
-1.24479e+07 -2.66673e+06 0 
-2.66673e+06 -2.28978e+07 0 
0 0 0 
-1.04058e+07 7.31316e+06 0 
7.31316e+06 2.74023e+07 0 
0 0 0 
-5.11025e+07 4.21727e+06 0 
4.21727e+06 -5.29753e+07 0 
0 0 0 
0 0 0 
0 0 0 
0 0 0 
-1.91641e+07 -3.95723e+06 0 
-3.95723e+06 -5.17001e+07 0 
0 0 0 
-1.00776e+07 765317 0 
765317 -1.37419e+07 0 
0 0 0 
2.45481e+06 -2.55991e+06 0 
-2.55991e+06 -3.80485e+07 0 
0 0 0 
1.02863e+07 -3.86109e+06 0 
-3.86109e+06 -3.12065e+07 0 
0 0 0 
2.19395e+07 2.51824e+06 0 
2.51824e+06 1.34449e+07 0 
0 0 0 
1.37563e+07 5.05008e+06 0 
5.05008e+06 -1.98117e+07 0 
0 0 0 
-2.01528e+07 9.04847e+06 0 
9.04847e+06 -3.58924e+07 0 
0 0 0 
-5.7369e+07 -7.11235e+06 0 
-7.11235e+06 -5.34068e+07 0 
0 0 0 
-5.62011e+07 -1.58326e+06 0 
-1.58326e+06 -1.42523e+07 0 
0 0 0 
-6.83382e+07 -1.73004e+07 0 
-1.73004e+07 -5.40829e+07 0 
0 0 0 
-5.2869e+07 -2.8562e+07 0 
-2.8562e+07 -2.66634e+07 0 
0 0 0 
-4.97108e+07 -9.01015e+06 0 
-9.01015e+06 -1.91156e+07 0 
0 0 0 
-4.73565e+07 -1.02942e+07 0 
-1.02942e+07 -8.79368e+06 0 
0 0 0 
-4.42072e+07 -3.83724e+06 0 
-3.83724e+06 -3.4091e+07 0 
0 0 0 
-2.20026e+07 -1.35029e+06 0 
-1.35029e+06 -1.20172e+07 0 
0 0 0 
1.54905e+07 3.71376e+06 0 
3.71376e+06 9.49114e+06 0 
0 0 0 
4.35405e+07 -4.26199e+06 0 
-4.26199e+06 4.86284e+07 0 
0 0 0 
1.79796e+07 5.18268e+06 0 
5.18268e+06 1.31532e+06 0 
0 0 0 
1.5731e+07 -1.19434e+07 0 
-1.19434e+07 2.27377e+07 0 
0 0 0 
1.39629e+07 -3.40346e+06 0 
-3.40346e+06 1.99536e+07 0 
0 0 0 
-1.98552e+07 -1.1595e+06 0 
-1.1595e+06 1.66216e+07 0 
0 0 0 
-1.34364e+07 1.63762e+07 0 
1.63762e+07 1.00882e+07 0 
0 0 0 
1.85706e+07 1.95616e+07 0 
1.95616e+07 -1.9733e+07 0 
0 0 0 
4.528e+06 2.14469e+07 0 
2.14469e+07 5.97305e+06 0 
0 0 0 
-1.08818e+07 7.55115e+06 0 
7.55115e+06 -2.20247e+06 0 
0 0 0 
-4.74464e+06 -2.87001e+06 0 
-2.87001e+06 2.70904e+07 0 
0 0 0 
3.39974e+07 -1.6415e+07 0 
-1.6415e+07 6.03088e+07 0 
0 0 0 
5.06923e+07 -7.13882e+06 0 
-7.13882e+06 7.96722e+07 0 
0 0 0 
1.73381e+07 3.58256e+06 0 
3.58256e+06 5.87513e+06 0 
0 0 0 
4.0583e+07 6.86479e+06 0 
6.86479e+06 3.93099e+07 0 
0 0 0 
4.59922e+07 2.58797e+06 0 
2.58797e+06 1.72395e+07 0 
0 0 0 
4.38054e+07 7.4444e+06 0 
7.4444e+06 -1.16492e+06 0 
0 0 0 
4.62879e+07 1.42601e+06 0 
1.42601e+06 3.28389e+07 0 
0 0 0 
3.98212e+07 -1.32124e+06 0 
-1.32124e+06 4.14749e+07 0 
0 0 0 
3.69473e+07 -65542.7 0 
-65542.7 3.99554e+07 0 
0 0 0 
1.46372e+07 6.67973e+06 0 
6.67973e+06 3.23322e+07 0 
0 0 0 
6.57699e+06 1.35546e+07 0 
1.35546e+07 7.9579e+06 0 
0 0 0 
2.67639e+07 -1.48104e+06 0 
-1.48104e+06 1.84977e+07 0 
0 0 0 
2.35438e+07 -1.19121e+07 0 
-1.19121e+07 1.92095e+06 0 
0 0 0 
5.36315e+07 -1.53644e+07 0 
-1.53644e+07 3.86696e+07 0 
0 0 0 
3.84866e+07 -6.48439e+06 0 
-6.48439e+06 1.36581e+07 0 
0 0 0 
2.39018e+07 -1.13769e+06 0 
-1.13769e+06 3.83119e+07 0 
0 0 0 
1.65343e+07 9.58194e+06 0 
9.58194e+06 3.33673e+07 0 
0 0 0 
0 0 0 
0 0 0 
0 0 0 
6.94417e+06 -2.83861e+06 0 
-2.83861e+06 1.32343e+07 0 
0 0 0 
-1.84767e+07 927305 0 
927305 4.17691e+06 0 
0 0 0 
-3.894e+07 127426 0 
127426 -1.31366e+07 0 
0 0 0 
-3.51378e+06 5.88413e+06 0 
5.88413e+06 -6.65076e+06 0 
0 0 0 
4.0136e+07 -4.39462e+06 0 
-4.39462e+06 -5.14435e+06 0 
0 0 0 
-1.93325e+07 -6.08824e+06 0 
-6.08824e+06 -2.62327e+07 0 
0 0 0 
-7.76945e+06 1.57511e+06 0 
1.57511e+06 -2.60278e+07 0 
0 0 0 
-2.29816e+07 8.92734e+06 0 
8.92734e+06 -2.97817e+07 0 
0 0 0 
-3.85121e+07 1.73849e+07 0 
1.73849e+07 -2.66116e+07 0 
0 0 0 
-1.19176e+07 1.37197e+07 0 
1.37197e+07 -2.25394e+07 0 
0 0 0 
-3.48867e+07 1.0442e+07 0 
1.0442e+07 -1.96861e+07 0 
0 0 0 
-6.53993e+06 1.86936e+06 0 
1.86936e+06 -5.01625e+06 0 
0 0 0 
1.15229e+07 1.10824e+07 0 
1.10824e+07 7.36275e+06 0 
0 0 0 
-1.38293e+07 1.27912e+07 0 
1.27912e+07 1.27361e+07 0 
0 0 0 
5.89068e+06 2.07676e+06 0 
2.07676e+06 8.57474e+06 0 
0 0 0 
1.12546e+07 -7.90635e+06 0 
-7.90635e+06 9.06388e+06 0 
0 0 0 
1.08525e+07 -3.96456e+06 0 
-3.96456e+06 1.0409e+07 0 
0 0 0 
4.46802e+07 1.16995e+07 0 
1.16995e+07 3.03042e+07 0 
0 0 0 
-2.27604e+07 1.00184e+07 0 
1.00184e+07 8.8301e+06 0 
0 0 0 
-8.19794e+06 7.52113e+06 0 
7.52113e+06 6.54578e+06 0 
0 0 0 
-4.53755e+06 -164473 0 
-164473 1.02699e+07 0 
0 0 0 
2.17533e+07 941981 0 
941981 6.98778e+06 0 
0 0 0 
-1.20928e+06 6.21025e+06 0 
6.21025e+06 -1.82548e+07 0 
0 0 0 
-2.0861e+07 3.42496e+06 0 
3.42496e+06 -3.87076e+07 0 
0 0 0 
-4.70936e+06 2.51341e+06 0 
2.51341e+06 -3.05677e+07 0 
0 0 0 
-5.052e+07 -5.91399e+06 0 
-5.91399e+06 -3.0692e+07 0 
0 0 0 
-1.78067e+06 -1.07382e+06 0 
-1.07382e+06 -1.6593e+07 0 
0 0 0 
1.65234e+07 -1.1301e+07 0 
-1.1301e+07 -1.92752e+07 0 
0 0 0 
-907017 -4.57411e+06 0 
-4.57411e+06 -2.40779e+07 0 
0 0 0 
1.91402e+07 -1.00699e+06 0 
-1.00699e+06 -2.13248e+07 0 
0 0 0 
-4.7481e+06 1.49968e+06 0 
1.49968e+06 -1.97714e+07 0 
0 0 0 
7.94703e+06 1.03779e+07 0 
1.03779e+07 -3.69513e+07 0 
0 0 0 
-8.59135e+07 8.46878e+06 0 
8.46878e+06 -8.15175e+07 0 
0 0 0 
-3.10151e+07 -3.37855e+06 0 
-3.37855e+06 -4.4855e+07 0 
0 0 0 
-4.48761e+07 5.26273e+06 0 
5.26273e+06 -5.33818e+07 0 
0 0 0 
1.87648e+07 -317138 0 
-317138 -1.12291e+07 0 
0 0 0 
2.0258e+07 1.05224e+07 0 
1.05224e+07 7.51987e+06 0 
0 0 0 
-1.1911e+07 1.5443e+07 0 
1.5443e+07 -2.06279e+07 0 
0 0 0 
2.10679e+07 -2.07686e+06 0 
-2.07686e+06 -1.13868e+07 0 
0 0 0 
1.79846e+07 -335466 0 
-335466 -2.07727e+06 0 
0 0 0 
2.22704e+06 -5843.32 0 
-5843.32 -2.42783e+07 0 
0 0 0 
-2.75401e+07 -4.16584e+06 0 
-4.16584e+06 -5.49315e+07 0 
0 0 0 
-3.90918e+07 -1.79364e+06 0 
-1.79364e+06 -5.12376e+07 0 
0 0 0 
-1.99086e+06 -7.92822e+06 0 
-7.92822e+06 -4.62889e+07 0 
0 0 0 
-1.68187e+07 2.16071e+06 0 
2.16071e+06 -3.41947e+07 0 
0 0 0 
0 0 0 
0 0 0 
0 0 0 
-1.1555e+07 -98323.6 0 
-98323.6 -5.77478e+07 0 
0 0 0 
1.05842e+07 -4.08402e+06 0 
-4.08402e+06 -7.18178e+06 0 
0 0 0 
-9.37032e+06 718607 0 
718607 -3.89061e+07 0 
0 0 0 
703076 6.39705e+06 0 
6.39705e+06 -2.77967e+07 0 
0 0 0 
1.29493e+07 7.46197e+06 0 
7.46197e+06 1.04187e+07 0 
0 0 0 
-1.59074e+07 -1.01302e+07 0 
-1.01302e+07 -3.07633e+07 0 
0 0 0 
-2.56747e+07 -8.54093e+06 0 
-8.54093e+06 -3.85375e+07 0 
0 0 0 
-2.24694e+07 -5.48055e+06 0 
-5.48055e+06 -4.75379e+07 0 
0 0 0 
-8.97499e+06 -6.50382e+06 0 
-6.50382e+06 709605 0 
0 0 0 
-3.02598e+07 -3.96525e+06 0 
-3.96525e+06 -5.21927e+07 0 
0 0 0 
2.83516e+07 -1.1547e+07 0 
-1.1547e+07 1.36622e+07 0 
0 0 0 
6.27119e+07 4.10724e+06 0 
4.10724e+06 1.9935e+07 0 
0 0 0 
6.85956e+07 6.966e+06 0 
6.966e+06 3.03281e+07 0 
0 0 0 
5.77631e+07 3.23283e+06 0 
3.23283e+06 3.24743e+06 0 
0 0 0 
3.99858e+07 2.11838e+06 0 
2.11838e+06 5.79094e+06 0 
0 0 0 
7.20536e+06 7.12168e+06 0 
7.12168e+06 1.82708e+07 0 
0 0 0 
2.78004e+07 4.31367e+06 0 
4.31367e+06 3.40504e+07 0 
0 0 0 
1.76075e+07 -1.3153e+07 0 
-1.3153e+07 -2.03006e+07 0 
0 0 0 
1.90823e+07 -1.64367e+07 0 
-1.64367e+07 2.91333e+07 0 
0 0 0 
-2.01344e+07 -808072 0 
-808072 2.13701e+07 0 
0 0 0 
-6.80103e+07 1.07761e+07 0 
1.07761e+07 -204086 0 
0 0 0 
-5.07032e+07 7.09986e+06 0 
7.09986e+06 -2.04046e+06 0 
0 0 0 
-4.27343e+07 8.03419e+06 0 
8.03419e+06 -4.12566e+07 0 
0 0 0 
-2.263e+07 1.02552e+07 0 
1.02552e+07 -1.7276e+07 0 
0 0 0 
-1.62801e+07 9.12584e+06 0 
9.12584e+06 -7.60381e+06 0 
0 0 0 
1.49845e+07 1.08133e+07 0 
1.08133e+07 2.52555e+07 0 
0 0 0 
3.70141e+07 4.70683e+06 0 
4.70683e+06 6.59738e+07 0 
0 0 0 
7.16622e+07 1.14726e+06 0 
1.14726e+06 9.15167e+07 0 
0 0 0 
4.29371e+07 -277108 0 
-277108 1.65842e+07 0 
0 0 0 
4.14954e+06 8.56586e+06 0 
8.56586e+06 2.65361e+07 0 
0 0 0 
-2.03508e+07 6.15613e+06 0 
6.15613e+06 -1.79585e+06 0 
0 0 0 
-3.20829e+07 6.57514e+06 0 
6.57514e+06 -2.88214e+07 0 
0 0 0 
-1.5187e+07 3.70907e+06 0 
3.70907e+06 1.62644e+07 0 
0 0 0 
-1.39104e+06 6.05984e+06 0 
6.05984e+06 1.73063e+07 0 
0 0 0 
6.45652e+06 632554 0 
632554 4.16001e+07 0 
0 0 0 
1.63861e+07 1.58559e+06 0 
1.58559e+06 4.0798e+07 0 
0 0 0 
1.39594e+06 1.12528e+07 0 
1.12528e+07 -1.36183e+06 0 
0 0 0 
-2.14488e+07 3.21426e+06 0 
3.21426e+06 -1.17318e+07 0 
0 0 0 
-1.06e+07 5.02814e+06 0 
5.02814e+06 -1.3072e+07 0 
0 0 0 
1.68521e+07 1.15057e+06 0 
1.15057e+06 1.82837e+07 0 
0 0 0 
3.44305e+07 -7.38926e+06 0 
-7.38926e+06 2.82288e+07 0 
0 0 0 
6.83324e+07 4.51631e+06 0 
4.51631e+06 6.1113e+07 0 
0 0 0 
6.01799e+07 -3.31527e+06 0 
-3.31527e+06 3.06339e+07 0 
0 0 0 
3.13332e+07 -3.31025e+06 0 
-3.31025e+06 -2.59448e+07 0 
0 0 0 
0 0 0 
0 0 0 
0 0 0 
-8.55089e+06 -2.74519e+06 0 
-2.74519e+06 -1.62561e+07 0 
0 0 0 
-6.78203e+06 1.06827e+06 0 
1.06827e+06 -1.44448e+07 0 
0 0 0 
-5.24322e+07 776752 0 
776752 -8.21179e+06 0 
0 0 0 
1.59964e+07 7.15198e+06 0 
7.15198e+06 2.16938e+07 0 
0 0 0 
3.06188e+07 3.18164e+06 0 
3.18164e+06 4.14768e+07 0 
0 0 0 
1.57376e+07 -3.62635e+06 0 
-3.62635e+06 4.36238e+07 0 
0 0 0 
2.60466e+07 964100 0 
964100 4.0435e+07 0 
0 0 0 
-1.66699e+06 1.96944e+06 0 
1.96944e+06 1.20786e+07 0 
0 0 0 
-1.64439e+07 1.07797e+07 0 
1.07797e+07 -2.11304e+07 0 
0 0 0 
-3.88855e+07 7.87996e+06 0 
7.87996e+06 -3.54222e+07 0 
0 0 0 
-2.92395e+07 9.21825e+06 0 
9.21825e+06 -3.84499e+07 0 
0 0 0 
-2.58457e+07 8.12356e+06 0 
8.12356e+06 -2.47359e+07 0 
0 0 0 
1.71068e+07 8.69783e+06 0 
8.69783e+06 110662 0 
0 0 0 
-2.83702e+07 3.44949e+06 0 
3.44949e+06 -3.68173e+07 0 
0 0 0 
-3.1468e+07 -2.54941e+06 0 
-2.54941e+06 -3.98789e+07 0 
0 0 0 
4.85444e+06 294149 0 
294149 -1.9215e+07 0 
0 0 0 
1.02741e+07 6.33239e+06 0 
6.33239e+06 -6.88479e+06 0 
0 0 0 
3.88429e+07 2.45229e+06 0 
2.45229e+06 -5.40206e+06 0 
0 0 0 
-3.6251e+07 3.39935e+06 0 
3.39935e+06 -2.91716e+07 0 
0 0 0 
-2.87712e+07 2.43146e+06 0 
2.43146e+06 -1.71426e+07 0 
0 0 0 
-2.72795e+07 -4.15985e+06 0 
-4.15985e+06 -3.72964e+07 0 
0 0 0 
2.15056e+07 -9.07877e+06 0 
-9.07877e+06 -2.62248e+07 0 
0 0 0 
-3.36682e+06 -4.20169e+06 0 
-4.20169e+06 -3.73543e+07 0 
0 0 0 
-3.0594e+07 7.57907e+06 0 
7.57907e+06 -5.58815e+07 0 
0 0 0 
-424620 9.04186e+06 0 
9.04186e+06 -4.12034e+07 0 
0 0 0 
-5.47242e+07 9.29317e+06 0 
9.29317e+06 -5.17885e+07 0 
0 0 0 
-2.9597e+07 6.23861e+06 0 
6.23861e+06 -2.70965e+07 0 
0 0 0 
3.10365e+07 -1.22707e+06 0 
-1.22707e+06 1.41508e+07 0 
0 0 0 
2.83855e+07 -7.20978e+06 0 
-7.20978e+06 3.25563e+07 0 
0 0 0 
3.3016e+07 -5.47483e+06 0 
-5.47483e+06 5.07584e+07 0 
0 0 0 
2.88458e+07 -7.07909e+06 0 
-7.07909e+06 1.93865e+07 0 
0 0 0 
3.23426e+07 -8.5463e+06 0 
-8.5463e+06 9.39651e+06 0 
0 0 0 
-6.34304e+07 4.72221e+06 0 
4.72221e+06 -2.1883e+07 0 
0 0 0 
-1.81552e+07 9.79479e+06 0 
9.79479e+06 -9.06144e+06 0 
0 0 0 
-2.90017e+07 1.126e+07 0 
1.126e+07 8.32357e+06 0 
0 0 0 
2.25182e+07 8.33501e+06 0 
8.33501e+06 1.56078e+07 0 
0 0 0 
3.22041e+07 8.27074e+06 0 
8.27074e+06 1.34998e+07 0 
0 0 0 
4.47898e+06 1.46708e+07 0 
1.46708e+07 1.74427e+07 0 
0 0 0 
4.93354e+06 2.35507e+06 0 
2.35507e+06 2.02708e+07 0 
0 0 0 
2.76689e+07 -782995 0 
-782995 1.39038e+07 0 
0 0 0 
1.46404e+07 -5.2835e+06 0 
-5.2835e+06 1.002e+07 0 
0 0 0 
-1.06568e+07 -5.96813e+06 0 
-5.96813e+06 9.76713e+06 0 
0 0 0 
-2.36922e+06 9.2801e+06 0 
9.2801e+06 1.78914e+07 0 
0 0 0 
9.48155e+06 7.72993e+06 0 
7.72993e+06 3.82038e+07 0 
0 0 0 
5.53863e+07 -3.64469e+06 0 
-3.64469e+06 -167770 0 
0 0 0 
7.03414e+07 1.30864e+07 0 
1.30864e+07 6.13917e+07 0 
0 0 0 
0 0 0 
0 0 0 
0 0 0 
-2.55108e+07 2.26307e+06 0 
2.26307e+06 -6.36415e+07 0 
0 0 0 
-9.37226e+06 4.35334e+06 0 
4.35334e+06 -2.07968e+07 0 
0 0 0 
-7.43949e+06 3.24605e+06 0 
3.24605e+06 -2.43857e+07 0 
0 0 0 
-2.82846e+07 150776 0 
150776 -4.26303e+07 0 
0 0 0 
-3.43151e+07 -1.1509e+07 0 
-1.1509e+07 -2.79282e+07 0 
0 0 0 
-4.33425e+07 -1.74492e+07 0 
-1.74492e+07 -3.40566e+07 0 
0 0 0 
-6.07129e+07 -1.60309e+07 0 
-1.60309e+07 -4.99841e+07 0 
0 0 0 
-7.56016e+07 -9.23867e+06 0 
-9.23867e+06 -4.57492e+07 0 
0 0 0 
-4.1646e+07 1.02615e+07 0 
1.02615e+07 -2.04148e+06 0 
0 0 0 
-2.01432e+07 1.19351e+07 0 
1.19351e+07 -4.46272e+07 0 
0 0 0 
1.78477e+07 1.78873e+07 0 
1.78873e+07 3.61383e+06 0 
0 0 0 
3.40358e+07 451441 0 
451441 8.11427e+06 0 
0 0 0 
3.94221e+07 -2.99231e+06 0 
-2.99231e+06 2.07925e+07 0 
0 0 0 
1.14323e+06 -1.01335e+07 0 
-1.01335e+07 -3.08424e+07 0 
0 0 0 
7.05807e+06 -6.04422e+06 0 
-6.04422e+06 1.93193e+07 0 
0 0 0 
1.25539e+07 -1.76648e+06 0 
-1.76648e+06 -3.19585e+06 0 
0 0 0 
3.15464e+07 1.3986e+07 0 
1.3986e+07 4.79199e+07 0 
0 0 0 
1.44215e+07 -5.57418e+06 0 
-5.57418e+06 -2.71745e+07 0 
0 0 0 
2.95819e+07 -8.20327e+06 0 
-8.20327e+06 -1.0443e+07 0 
0 0 0 
-3.39016e+07 -8.94978e+06 0 
-8.94978e+06 -1.6302e+07 0 
0 0 0 
-2.96004e+07 1.08522e+07 0 
1.08522e+07 3.40789e+07 0 
0 0 0 
1.241e+07 3.98867e+06 0 
3.98867e+06 6.10917e+06 0 
0 0 0 
4.41423e+07 4.14284e+06 0 
4.14284e+06 2.36603e+07 0 
0 0 0 
6.91052e+06 6.02363e+06 0 
6.02363e+06 -1.25663e+07 0 
0 0 0 
6.47275e+06 2.28884e+07 0 
2.28884e+07 1.27609e+07 0 
0 0 0 
-4.05842e+06 1.20595e+07 0 
1.20595e+07 4.04797e+06 0 
0 0 0 
2.30087e+07 8.42594e+06 0 
8.42594e+06 6.7278e+07 0 
0 0 0 
-3.01627e+06 -7.69663e+06 0 
-7.69663e+06 3.67025e+07 0 
0 0 0 
-6.97251e+06 -1.18175e+07 0 
-1.18175e+07 2.97134e+07 0 
0 0 0 
-2.13951e+07 -1.43064e+07 0 
-1.43064e+07 99.4555 0 
0 0 0 
-3.50091e+07 7.37162e+06 0 
7.37162e+06 1.87375e+07 0 
0 0 0 
-4.94151e+07 1.09163e+07 0 
1.09163e+07 -3.69956e+07 0 
0 0 0 
-1.62181e+07 1.61651e+07 0 
1.61651e+07 1.52145e+07 0 
0 0 0 
1.0365e+06 8.08381e+06 0 
8.08381e+06 5.24509e+06 0 
0 0 0 
2.69807e+07 -4.54073e+06 0 
-4.54073e+06 4.45107e+07 0 
0 0 0 
2.41049e+07 -3.96805e+06 0 
-3.96805e+06 4.22728e+07 0 
0 0 0 
-6.86667e+06 -4.98515e+06 0 
-4.98515e+06 3.95819e+06 0 
0 0 0 
-6.73033e+06 3.94768e+06 0 
3.94768e+06 -2.26309e+06 0 
0 0 0 
-6.32105e+06 9.81323e+06 0 
9.81323e+06 -8.89287e+06 0 
0 0 0 
3.66266e+06 1.15625e+07 0 
1.15625e+07 673278 0 
0 0 0 
2.77752e+07 -72186.7 0 
-72186.7 2.79543e+07 0 
0 0 0 
3.41844e+07 4.30236e+06 0 
4.30236e+06 4.84285e+07 0 
0 0 0 
3.71477e+07 3.9559e+06 0 
3.9559e+06 1.76394e+07 0 
0 0 0 
2.26364e+07 -8.40017e+06 0 
-8.40017e+06 -2.68781e+07 0 
0 0 0 
2.2661e+07 3.71229e+06 0 
3.71229e+06 7.06848e+06 0 
0 0 0 
0 0 0 
0 0 0 
0 0 0 
962793 -2.45199e+06 0 
-2.45199e+06 1.00461e+07 0 
0 0 0 
-1.35524e+07 -1.53792e+06 0 
-1.53792e+06 7.74031e+06 0 
0 0 0 
-1.64529e+07 4.41753e+06 0 
4.41753e+06 -1.16376e+06 0 
0 0 0 
1.16227e+06 1.57984e+07 0 
1.57984e+07 7.23343e+06 0 
0 0 0 
332019 7.26716e+06 0 
7.26716e+06 5.81717e+06 0 
0 0 0 
9.60509e+06 -3.97654e+06 0 
-3.97654e+06 4.35912e+06 0 
0 0 0 
1.17892e+07 -2.81151e+06 0 
-2.81151e+06 8.20145e+06 0 
0 0 0 
3.45239e+06 -1.00304e+07 0 
-1.00304e+07 1.2258e+07 0 
0 0 0 
82386.8 -5.26323e+06 0 
-5.26323e+06 1.48668e+07 0 
0 0 0 
-1.78366e+07 -4026.18 0 
-4026.18 -2.48296e+06 0 
0 0 0 
-1.49959e+07 1.05517e+07 0 
1.05517e+07 -1.3076e+07 0 
0 0 0 
-1.80348e+07 1.88829e+07 0 
1.88829e+07 -1.63616e+07 0 
0 0 0 
1.44787e+06 1.16688e+07 0 
1.16688e+07 -2.1522e+07 0 
0 0 0 
-3.19374e+07 5.59276e+06 0 
5.59276e+06 -2.6424e+07 0 
0 0 0 
-3.32222e+07 2.12068e+06 0 
2.12068e+06 -1.46739e+07 0 
0 0 0 
1.38487e+07 -2.1269e+06 0 
-2.1269e+06 3.02817e+06 0 
0 0 0 
2.32338e+07 2.23976e+06 0 
2.23976e+06 5.87983e+06 0 
0 0 0 
2.94791e+07 2.75766e+06 0 
2.75766e+06 1.60466e+07 0 
0 0 0 
-2.16059e+07 1.5689e+06 0 
1.5689e+06 -9.23593e+06 0 
0 0 0 
-3.19132e+07 1.76954e+06 0 
1.76954e+06 -3.33757e+07 0 
0 0 0 
-3.38025e+07 -4.2128e+06 0 
-4.2128e+06 -2.80907e+07 0 
0 0 0 
2.88092e+07 85999.2 0 
85999.2 -3.29158e+06 0 
0 0 0 
1.50357e+07 -6.0083e+06 0 
-6.0083e+06 -2.95179e+06 0 
0 0 0 
-6.5811e+06 2.28612e+06 0 
2.28612e+06 -3.15466e+06 0 
0 0 0 
2.01831e+07 1.15194e+07 0 
1.15194e+07 -466401 0 
0 0 0 
-3.9812e+07 6.13609e+06 0 
6.13609e+06 -2.09566e+07 0 
0 0 0 
-4.07628e+07 1.51663e+07 0 
1.51663e+07 -1.89735e+07 0 
0 0 0 
2.32203e+07 4.62548e+06 0 
4.62548e+06 -8.88213e+06 0 
0 0 0 
-2.52587e+06 1.09877e+07 0 
1.09877e+07 -1.11232e+07 0 
0 0 0 
3.31951e+07 -1.9516e+06 0 
-1.9516e+06 5.5264e+06 0 
0 0 0 
1.41797e+07 -1.41008e+07 0 
-1.41008e+07 1.01594e+07 0 
0 0 0 
3.64781e+07 -1.03455e+07 0 
-1.03455e+07 1.51935e+07 0 
0 0 0 
-3.98222e+07 -6.92789e+06 0 
-6.92789e+06 -1.55259e+07 0 
0 0 0 
2.71297e+06 7.82533e+06 0 
7.82533e+06 3.11667e+06 0 
0 0 0 
-3.71896e+07 1.83144e+07 0 
1.83144e+07 -6.47587e+06 0 
0 0 0 
7.22914e+06 2.73328e+06 0 
2.73328e+06 2.00172e+07 0 
0 0 0 
2.1275e+07 451191 0 
451191 1.2181e+07 0 
0 0 0 
1.27765e+07 -1.15002e+06 0 
-1.15002e+06 -2.06688e+07 0 
0 0 0 
-1.54036e+07 7.78218e+06 0 
7.78218e+06 -4.27546e+07 0 
0 0 0 
-9.54218e+06 -356747 0 
-356747 -3.43964e+07 0 
0 0 0 
-3.11314e+06 -6.26811e+06 0 
-6.26811e+06 -4.4916e+07 0 
0 0 0 
-1.82685e+07 1.74742e+06 0 
1.74742e+06 -4.6586e+07 0 
0 0 0 
-7.45507e+06 1.3319e+07 0 
1.3319e+07 -3.36314e+07 0 
0 0 0 
-1.04339e+06 2.17375e+07 0 
2.17375e+07 -3.24157e+07 0 
0 0 0 
3.83901e+07 1.29579e+07 0 
1.29579e+07 -4.2646e+06 0 
0 0 0 
4.47236e+07 6.76646e+06 0 
6.76646e+06 4.66286e+07 0 
0 0 0 
920473 -1.05377e+06 0 
-1.05377e+06 -2.61073e+07 0 
0 0 0 
0 0 0 
0 0 0 
0 0 0 
-1.095e+07 4.52351e+06 0 
4.52351e+06 -5.42689e+07 0 
0 0 0 
9.60097e+06 8.97806e+06 0 
8.97806e+06 -9.09986e+06 0 
0 0 0 
-7.61174e+06 -2.75165e+06 0 
-2.75165e+06 -3.60642e+07 0 
0 0 0 
-6.41609e+06 273981 0 
273981 -4.45751e+07 0 
0 0 0 
-5.95817e+06 -9.81636e+06 0 
-9.81636e+06 -4.11381e+07 0 
0 0 0 
1.14919e+07 -1.78847e+07 0 
-1.78847e+07 -1.14763e+07 0 
0 0 0 
2.40165e+07 -2.24447e+07 0 
-2.24447e+07 -1.34077e+07 0 
0 0 0 
5.08218e+07 -1.53863e+06 0 
-1.53863e+06 2.48909e+07 0 
0 0 0 
5.1695e+07 7.40569e+06 0 
7.40569e+06 3.64657e+07 0 
0 0 0 
1.59203e+07 1.00172e+07 0 
1.00172e+07 -3.1791e+07 0 
0 0 0 
2.24223e+06 275172 0 
275172 -1.19514e+07 0 
0 0 0 
-2.73134e+07 -1.25602e+06 0 
-1.25602e+06 -3.1939e+07 0 
0 0 0 
-4.11339e+07 -1.68784e+07 0 
-1.68784e+07 -9.21744e+06 0 
0 0 0 
-7.43342e+07 -2.00834e+07 0 
-2.00834e+07 -4.8212e+07 0 
0 0 0 
-5.70551e+07 -2.42638e+06 0 
-2.42638e+06 8.5492e+06 0 
0 0 0 
-7.32738e+07 464991 0 
464991 -3.29844e+07 0 
0 0 0 
-7.61738e+07 1.41413e+07 0 
1.41413e+07 2.29526e+07 0 
0 0 0 
-9.54072e+07 1.36421e+06 0 
1.36421e+06 -7.19254e+07 0 
0 0 0 
-4.12986e+07 9.3586e+06 0 
9.3586e+06 -1.55421e+07 0 
0 0 0 
-1.28581e+08 -7.41802e+06 0 
-7.41802e+06 -1.16455e+08 0 
0 0 0 
-9.90882e+07 3.71624e+06 0 
3.71624e+06 -3.61622e+07 0 
0 0 0 
-2.55795e+07 -1.177e+07 0 
-1.177e+07 -2.22636e+07 0 
0 0 0 
-2.73373e+07 5.22873e+06 0 
5.22873e+06 2.4361e+07 0 
0 0 0 
-4.23754e+07 8.76959e+06 0 
8.76959e+06 -3.52664e+07 0 
0 0 0 
-1.98879e+07 1.34815e+07 0 
1.34815e+07 3.41928e+07 0 
0 0 0 
-4.34939e+07 2.15441e+07 0 
2.15441e+07 -4.54222e+07 0 
0 0 0 
-4.35379e+06 7.17912e+06 0 
7.17912e+06 6.71725e+07 0 
0 0 0 
8.85809e+06 7.52269e+06 0 
7.52269e+06 1.15767e+07 0 
0 0 0 
3.95392e+07 -1.21529e+07 0 
-1.21529e+07 4.46755e+07 0 
0 0 0 
6.05917e+07 -9.52715e+06 0 
-9.52715e+06 4.49892e+07 0 
0 0 0 
6.86934e+07 -6.36444e+06 0 
-6.36444e+06 5.13671e+07 0 
0 0 0 
2.66801e+07 578483 0 
578483 1.078e+07 0 
0 0 0 
2.24134e+07 1.9299e+07 0 
1.9299e+07 3.34872e+07 0 
0 0 0 
-4.57993e+06 2.23316e+07 0 
2.23316e+07 -6.63215e+06 0 
0 0 0 
3.37411e+07 2.1979e+07 0 
2.1979e+07 3.99512e+07 0 
0 0 0 
5.01921e+07 2.33648e+06 0 
2.33648e+06 3.75635e+07 0 
0 0 0 
6.28412e+07 1.83937e+06 0 
1.83937e+06 2.3428e+07 0 
0 0 0 
6.27162e+07 -5.92042e+06 0 
-5.92042e+06 3.19309e+07 0 
0 0 0 
5.6288e+07 1.14513e+07 0 
1.14513e+07 2.57717e+07 0 
0 0 0 
5.09767e+07 1.2186e+07 0 
1.2186e+07 1.07462e+07 0 
0 0 0 
4.95423e+07 1.0669e+07 0 
1.0669e+07 3.86106e+07 0 
0 0 0 
5.52142e+07 1.14623e+07 0 
1.14623e+07 3.84745e+07 0 
0 0 0 
2.69217e+07 -2.26832e+06 0 
-2.26832e+06 1.14495e+07 0 
0 0 0 
3.47318e+06 -8.46922e+06 0 
-8.46922e+06 -2.51615e+07 0 
0 0 0 
1.45102e+07 3.20321e+06 0 
3.20321e+06 9.69968e+06 0 
0 0 0 
6.35406e+06 2.73448e+06 0 
2.73448e+06 2.75609e+07 0 
0 0 0 
0 0 0 
0 0 0 
0 0 0 
-1.14071e+07 -3.24282e+06 0 
-3.24282e+06 -2.74787e+06 0 
0 0 0 
-4.60521e+06 3.93152e+06 0 
3.93152e+06 -1.08482e+06 0 
0 0 0 
-6.90692e+06 7.99363e+06 0 
7.99363e+06 2.30575e+06 0 
0 0 0 
-1.6687e+06 4.55611e+06 0 
4.55611e+06 3.47123e+06 0 
0 0 0 
-2.72457e+06 1.27866e+07 0 
1.27866e+07 -1.64621e+06 0 
0 0 0 
2.34427e+06 3.12894e+06 0 
3.12894e+06 5.89833e+06 0 
0 0 0 
-630890 1.07909e+06 0 
1.07909e+06 4.7168e+06 0 
0 0 0 
799543 -8.54439e+06 0 
-8.54439e+06 -3.882e+06 0 
0 0 0 
-7.51194e+06 758077 0 
758077 -1.182e+07 0 
0 0 0 
-3.09007e+06 -3.70418e+06 0 
-3.70418e+06 -5.8633e+06 0 
0 0 0 
-5.02564e+06 1.41574e+06 0 
1.41574e+06 -5.98268e+06 0 
0 0 0 
-6.95528e+06 1.40337e+07 0 
1.40337e+07 -9.75587e+06 0 
0 0 0 
-1.44908e+07 -4.60429e+06 0 
-4.60429e+06 -7.92548e+06 0 
0 0 0 
-2.94903e+07 1.99034e+06 0 
1.99034e+06 -1.83151e+07 0 
0 0 0 
-3.24494e+07 4.09598e+06 0 
4.09598e+06 -1.7678e+07 0 
0 0 0 
5.74862e+06 5.559e+06 0 
5.559e+06 951244 0 
0 0 0 
2.76313e+07 6.12414e+06 0 
6.12414e+06 1.10666e+07 0 
0 0 0 
1.75218e+07 -2.90673e+06 0 
-2.90673e+06 -5.03956e+06 0 
0 0 0 
-1.66502e+07 3.21677e+06 0 
3.21677e+06 -2.43709e+07 0 
0 0 0 
-4.88055e+07 -6.19276e+06 0 
-6.19276e+06 -3.30925e+07 0 
0 0 0 
-1.1461e+07 3.23603e+06 0 
3.23603e+06 -1.29319e+07 0 
0 0 0 
3.06431e+07 2.8762e+06 0 
2.8762e+06 2.33914e+07 0 
0 0 0 
1.4418e+07 -3.05898e+06 0 
-3.05898e+06 2.28557e+07 0 
0 0 0 
1.51061e+06 -1.41634e+06 0 
-1.41634e+06 1.14001e+07 0 
0 0 0 
3.25178e+07 -4.0652e+06 0 
-4.0652e+06 7.63736e+06 0 
0 0 0 
-3.43244e+07 1.02868e+07 0 
1.02868e+07 -1.72007e+07 0 
0 0 0 
-2.6908e+07 8.30318e+06 0 
8.30318e+06 -2.28581e+07 0 
0 0 0 
1.77482e+07 1.45087e+07 0 
1.45087e+07 -7.26306e+06 0 
0 0 0 
-1.76407e+07 1.45011e+07 0 
1.45011e+07 -1.99269e+07 0 
0 0 0 
8.98033e+06 -4.62724e+06 0 
-4.62724e+06 -1.72764e+07 0 
0 0 0 
-5.67539e+06 -1.65757e+07 0 
-1.65757e+07 -1.97456e+07 0 
0 0 0 
2.82091e+07 -2.18603e+07 0 
-2.18603e+07 -4.56138e+06 0 
0 0 0 
-1.37556e+07 -5.09953e+06 0 
-5.09953e+06 -2.14595e+07 0 
0 0 0 
1.43953e+07 5.0657e+06 0 
5.0657e+06 -2.41607e+07 0 
0 0 0 
-5.27388e+07 1.67418e+07 0 
1.67418e+07 -5.87847e+07 0 
0 0 0 
-2.85666e+07 9.42323e+06 0 
9.42323e+06 -5.431e+07 0 
0 0 0 
-2.21674e+07 1.36857e+06 0 
1.36857e+06 -4.67793e+07 0 
0 0 0 
2.03393e+07 -4.18579e+06 0 
-4.18579e+06 -3.43759e+07 0 
0 0 0 
-1.05154e+07 -3.12184e+06 0 
-3.12184e+06 -3.83462e+07 0 
0 0 0 
-2.18466e+07 -6.9522e+06 0 
-6.9522e+06 -2.7168e+07 0 
0 0 0 
2.35215e+07 -8.35988e+06 0 
-8.35988e+06 7.27471e+06 0 
0 0 0 
1.16023e+07 1.02954e+07 0 
1.02954e+07 2.27269e+07 0 
0 0 0 
4.55077e+07 1.1497e+07 0 
1.1497e+07 4.11103e+07 0 
0 0 0 
-294665 1.72993e+07 0 
1.72993e+07 2.84996e+07 0 
0 0 0 
2.75414e+07 -9.4095e+06 0 
-9.4095e+06 8.58888e+06 0 
0 0 0 
-4.73277e+06 -1.08286e+07 0 
-1.08286e+07 -1.48037e+07 0 
0 0 0 
-1.37468e+07 77251.6 0 
77251.6 -3.3461e+07 0 
0 0 0 
-2.833e+06 -7.44849e+06 0 
-7.44849e+06 -3.52094e+07 0 
0 0 0 
0 0 0 
0 0 0 
0 0 0 
-2.22222e+07 4.0775e+06 0 
4.0775e+06 -5.47524e+07 0 
0 0 0 
-2.53193e+07 -1.74514e+06 0 
-1.74514e+06 -2.39606e+07 0 
0 0 0 
-3.65076e+07 -3.69161e+06 0 
-3.69161e+06 -4.33354e+07 0 
0 0 0 
-6.93654e+07 -5.30483e+06 0 
-5.30483e+06 -8.40825e+07 0 
0 0 0 
-5.63718e+07 -4.43116e+06 0 
-4.43116e+06 -5.63024e+07 0 
0 0 0 
-3.41017e+07 730192 0 
730192 -2.76567e+07 0 
0 0 0 
-6.70711e+06 2.21534e+06 0 
2.21534e+06 -1.6424e+07 0 
0 0 0 
5.05749e+07 4.25243e+06 0 
4.25243e+06 3.5362e+07 0 
0 0 0 
5.71598e+07 -1.33613e+06 0 
-1.33613e+06 3.7347e+07 0 
0 0 0 
5.6744e+06 969540 0 
969540 -2.18058e+07 0 
0 0 0 
-2.97213e+07 -2.54485e+06 0 
-2.54485e+06 -4.93728e+07 0 
0 0 0 
-3.61629e+07 -1.14947e+07 0 
-1.14947e+07 -4.05258e+07 0 
0 0 0 
-1.29431e+07 -1.27389e+07 0 
-1.27389e+07 4.81193e+06 0 
0 0 0 
-2.08008e+07 -2.29688e+07 0 
-2.29688e+07 -2.92033e+07 0 
0 0 0 
-1.31174e+07 -5.89932e+06 0 
-5.89932e+06 3.25421e+07 0 
0 0 0 
-3.08938e+07 3848.86 0 
3848.86 -1.65621e+06 0 
0 0 0 
-2.94639e+07 684492 0 
684492 3.11887e+07 0 
0 0 0 
-7.38551e+07 2.08923e+07 0 
2.08923e+07 -6.21157e+07 0 
0 0 0 
-4.06659e+07 2.6128e+07 0 
2.6128e+07 2.12692e+07 0 
0 0 0 
-7.83534e+07 2.02046e+07 0 
2.02046e+07 1.04459e+06 0 
0 0 0 
-5.70273e+07 -7.12604e+06 0 
-7.12604e+06 5.8617e+07 0 
0 0 0 
4.41235e+06 -7.15451e+06 0 
-7.15451e+06 3.15638e+07 0 
0 0 0 
1.49017e+07 -3.47228e+06 0 
-3.47228e+06 4.37499e+07 0 
0 0 0 
-1.5238e+07 1.36896e+06 0 
1.36896e+06 -2.93984e+07 0 
0 0 0 
-1.26851e+06 4.37662e+06 0 
4.37662e+06 4.64e+07 0 
0 0 0 
-4.54459e+07 8.72337e+06 0 
8.72337e+06 -3.42403e+07 0 
0 0 0 
-2.46127e+07 1.9507e+07 0 
1.9507e+07 5.19857e+07 0 
0 0 0 
-5.40706e+07 1.61967e+07 0 
1.61967e+07 -1.88114e+07 0 
0 0 0 
-4.28609e+07 651260 0 
651260 -3.01624e+06 0 
0 0 0 
-3.85535e+07 -7.84669e+06 0 
-7.84669e+06 9.62501e+06 0 
0 0 0 
-2.41988e+07 -1.30005e+07 0 
-1.30005e+07 2.93655e+07 0 
0 0 0 
5.53774e+06 9.18055e+06 0 
9.18055e+06 2.50113e+07 0 
0 0 0 
2.47413e+07 1.47751e+07 0 
1.47751e+07 6.01182e+07 0 
0 0 0 
7.04678e+06 2.29228e+07 0 
2.29228e+07 -2.80948e+06 0 
0 0 0 
-549211 2.69245e+07 0 
2.69245e+07 2.45739e+07 0 
0 0 0 
-7.13298e+06 1.12836e+07 0 
1.12836e+07 -1.26821e+06 0 
0 0 0 
-3.04743e+07 6.8858e+06 0 
6.8858e+06 -1.71134e+07 0 
0 0 0 
-1.90815e+07 6.04432e+06 0 
6.04432e+06 -5.46038e+06 0 
0 0 0 
-4.72946e+06 2.992e+06 0 
2.992e+06 2.69042e+07 0 
0 0 0 
-3.4527e+07 1.20777e+07 0 
1.20777e+07 -1.08307e+07 0 
0 0 0 
-1.61633e+07 9.20344e+06 0 
9.20344e+06 1.90016e+07 0 
0 0 0 
-3.21532e+07 6.85082e+06 0 
6.85082e+06 -1.36229e+07 0 
0 0 0 
-2.18762e+07 -1.84045e+06 0 
-1.84045e+06 -1.01696e+07 0 
0 0 0 
-1.67628e+07 -1.13299e+07 0 
-1.13299e+07 -3.30943e+07 0 
0 0 0 
4.24346e+06 -6.44048e+06 0 
-6.44048e+06 2.13886e+07 0 
0 0 0 
-1.66792e+07 -2.47874e+06 0 
-2.47874e+06 1.52245e+07 0 
0 0 0 
-4.39646e+07 -886170 0 
-886170 -4.29937e+07 0 
0 0 0 
0 0 0 
0 0 0 
0 0 0 
1.5843e+06 8.85813e+06 0 
8.85813e+06 -2.88771e+06 0 
0 0 0 
-1.29568e+06 1.03598e+07 0 
1.03598e+07 848645 0 
0 0 0 
-2.39721e+07 5.2659e+06 0 
5.2659e+06 -9.11619e+06 0 
0 0 0 
-3.15128e+06 5.80295e+06 0 
5.80295e+06 -1.83072e+07 0 
0 0 0 
-1.61792e+07 3.3208e+06 0 
3.3208e+06 -2.84901e+07 0 
0 0 0 
-1.73603e+07 -7.37538e+06 0 
-7.37538e+06 -3.56717e+07 0 
0 0 0 
-2.3422e+07 -4.89764e+06 0 
-4.89764e+06 -3.64388e+07 0 
0 0 0 
1.27147e+06 -1.06078e+07 0 
-1.06078e+07 -1.15439e+07 0 
0 0 0 
8.53044e+06 -687438 0 
-687438 1.12111e+07 0 
0 0 0 
-2.17326e+06 -6.04419e+06 0 
-6.04419e+06 1.65972e+07 0 
0 0 0 
2.73527e+07 1.83726e+06 0 
1.83726e+06 3.43145e+07 0 
0 0 0 
-8.51776e+06 350512 0 
350512 1.35264e+07 0 
0 0 0 
-1.9734e+07 -3.70625e+06 0 
-3.70625e+06 -1.59074e+07 0 
0 0 0 
-3.76111e+07 -2.80105e+06 0 
-2.80105e+06 -3.47218e+07 0 
0 0 0 
-1.82784e+07 1.0204e+07 0 
1.0204e+07 -2.8322e+07 0 
0 0 0 
1.56673e+07 1.23349e+07 0 
1.23349e+07 -2.73146e+06 0 
0 0 0 
2.82552e+06 1.22459e+07 0 
1.22459e+07 -1.19176e+07 0 
0 0 0 
-1.55455e+06 -2.02381e+06 0 
-2.02381e+06 -1.41311e+07 0 
0 0 0 
-6.87475e+06 -7.31562e+06 0 
-7.31562e+06 -1.25128e+07 0 
0 0 0 
-4.04672e+07 791693 0 
791693 -1.95704e+07 0 
0 0 0 
-1.1015e+07 7.02916e+06 0 
7.02916e+06 -1.10644e+07 0 
0 0 0 
1.78898e+07 2.75827e+06 0 
2.75827e+06 -1.09309e+07 0 
0 0 0 
6.54515e+06 412388 0 
412388 -7.30332e+06 0 
0 0 0 
1.6041e+06 7.58498e+06 0 
7.58498e+06 -1.73009e+06 0 
0 0 0 
1.55556e+07 2.06006e+06 0 
2.06006e+06 7.43078e+06 0 
0 0 0 
-1.25592e+07 3.34885e+06 0 
3.34885e+06 -1.02135e+07 0 
0 0 0 
-8.79513e+06 6.85328e+06 0 
6.85328e+06 -8.81658e+06 0 
0 0 0 
1.61781e+07 9.48429e+06 0 
9.48429e+06 2.50365e+06 0 
0 0 0 
-2.27948e+07 9.76506e+06 0 
9.76506e+06 -4.69766e+06 0 
0 0 0 
2.94117e+06 -1.36994e+06 0 
-1.36994e+06 -1.62514e+06 0 
0 0 0 
-5.97466e+06 4.98658e+06 0 
4.98658e+06 7.72661e+06 0 
0 0 0 
3.37283e+07 -9.52266e+06 0 
-9.52266e+06 4.49978e+07 0 
0 0 0 
4.45721e+07 -6.35294e+06 0 
-6.35294e+06 5.07017e+07 0 
0 0 0 
4.549e+07 2.36745e+06 0 
2.36745e+06 5.58253e+07 0 
0 0 0 
-1.26481e+07 9.28907e+06 0 
9.28907e+06 3.59131e+07 0 
0 0 0 
-2.01993e+06 6.30706e+06 0 
6.30706e+06 2.9201e+07 0 
0 0 0 
-1.73786e+07 2.6361e+06 0 
2.6361e+06 1.2925e+07 0 
0 0 0 
3.12241e+07 -3.49241e+06 0 
-3.49241e+06 2.58865e+07 0 
0 0 0 
-5.17848e+06 1.77832e+06 0 
1.77832e+06 482350 0 
0 0 0 
-7.90294e+06 3.42045e+06 0 
3.42045e+06 -1.71675e+07 0 
0 0 0 
1.57322e+07 1.81023e+06 0 
1.81023e+06 -6.29729e+06 0 
0 0 0 
6.41323e+06 5.30248e+06 0 
5.30248e+06 -2.74291e+07 0 
0 0 0 
3.78698e+07 1.27161e+07 0 
1.27161e+07 -1.87355e+07 0 
0 0 0 
-3.47329e+07 6.6737e+06 0 
6.6737e+06 -5.82822e+07 0 
0 0 0 
-1.44363e+07 1.34514e+06 0 
1.34514e+06 -5.39483e+07 0 
0 0 0 
-1.79095e+07 -3.96736e+06 0 
-3.96736e+06 -3.9771e+07 0 
0 0 0 
1.09876e+07 -1.63978e+07 0 
-1.63978e+07 -1.64586e+07 0 
0 0 0 
-5.01156e+07 2.36771e+06 0 
2.36771e+06 -6.00882e+07 0 
0 0 0 
-3.90316e+07 -4.44022e+06 0 
-4.44022e+06 -5.16113e+07 0 
0 0 0 
0 0 0 
0 0 0 
0 0 0 
-1.17053e+07 6.60898e+06 0 
6.60898e+06 -4.55179e+07 0 
0 0 0 
5.54919e+06 5.78852e+06 0 
5.78852e+06 -1.64766e+07 0 
0 0 0 
-6.17e+06 -6.81231e+06 0 
-6.81231e+06 -4.25953e+07 0 
0 0 0 
-6.11847e+06 -6.66275e+06 0 
-6.66275e+06 -6.05949e+07 0 
0 0 0 
-3.33927e+06 1.27397e+07 0 
1.27397e+07 -2.43429e+07 0 
0 0 0 
5.88753e+06 1.02457e+07 0 
1.02457e+07 -1.02332e+07 0 
0 0 0 
2.72854e+07 1.95449e+07 0 
1.95449e+07 -1.58575e+07 0 
0 0 0 
3.31013e+07 7.959e+06 0 
7.959e+06 1.54407e+07 0 
0 0 0 
1.51537e+07 -1.70977e+07 0 
-1.70977e+07 1.19372e+07 0 
0 0 0 
7.50536e+06 -2.32657e+07 0 
-2.32657e+07 -2.1041e+06 0 
0 0 0 
-2.20081e+07 -1.91912e+07 0 
-1.91912e+07 -5.84093e+07 0 
0 0 0 
-2.95171e+07 -8.49249e+06 0 
-8.49249e+06 -3.94141e+07 0 
0 0 0 
-2.09654e+07 -9.56611e+06 0 
-9.56611e+06 1.26358e+07 0 
0 0 0 
2.57107e+06 -1.14894e+07 0 
-1.14894e+07 -3.14764e+07 0 
0 0 0 
7.20152e+07 -8.70495e+06 0 
-8.70495e+06 6.45415e+07 0 
0 0 0 
6.35481e+07 -9.01507e+06 0 
-9.01507e+06 5.06819e+07 0 
0 0 0 
6.91821e+07 3.4278e+06 0 
3.4278e+06 5.97567e+07 0 
0 0 0 
3.61302e+07 1.38589e+06 0 
1.38589e+06 -1.83908e+07 0 
0 0 0 
3.94727e+07 1.70391e+07 0 
1.70391e+07 7.23947e+07 0 
0 0 0 
4.42809e+07 9.5999e+06 0 
9.5999e+06 3.30404e+07 0 
0 0 0 
5.78932e+07 6.27646e+06 0 
6.27646e+06 8.26358e+07 0 
0 0 0 
3.89401e+07 -4.561e+06 0 
-4.561e+06 3.88869e+07 0 
0 0 0 
4.43028e+07 -9.58872e+06 0 
-9.58872e+06 6.23563e+07 0 
0 0 0 
1.42927e+07 -1.06196e+06 0 
-1.06196e+06 -2.47104e+07 0 
0 0 0 
5.52206e+07 -4.36192e+06 0 
-4.36192e+06 7.02438e+07 0 
0 0 0 
2.96389e+07 3.91077e+06 0 
3.91077e+06 8.13118e+06 0 
0 0 0 
5.26814e+07 5.35222e+06 0 
5.35222e+06 7.8264e+07 0 
0 0 0 
4.66332e+06 4.02517e+06 0 
4.02517e+06 -5.96976e+06 0 
0 0 0 
2.09051e+07 1.59567e+07 0 
1.59567e+07 2.15265e+07 0 
0 0 0 
4.56254e+07 1.74302e+06 0 
1.74302e+06 1.09202e+07 0 
0 0 0 
8.25934e+07 1.21687e+07 0 
1.21687e+07 8.90013e+07 0 
0 0 0 
6.75609e+07 7.10269e+06 0 
7.10269e+06 4.46239e+07 0 
0 0 0 
6.5853e+07 3.46369e+06 0 
3.46369e+06 7.83827e+07 0 
0 0 0 
4.14344e+07 1.0613e+07 0 
1.0613e+07 3.27147e+07 0 
0 0 0 
3.85323e+07 1.29157e+07 0 
1.29157e+07 1.43596e+07 0 
0 0 0 
1.54563e+07 -4.47718e+06 0 
-4.47718e+06 6.04311e+06 0 
0 0 0 
7.81519e+06 -7.05503e+06 0 
-7.05503e+06 -1.32026e+07 0 
0 0 0 
-6.99692e+06 4.60729e+06 0 
4.60729e+06 -1.43987e+06 0 
0 0 0 
941876 6.62048e+06 0 
6.62048e+06 3.44599e+07 0 
0 0 0 
2.67259e+06 7.88423e+06 0 
7.88423e+06 1.53063e+07 0 
0 0 0 
-1.0286e+07 7.75893e+06 0 
7.75893e+06 5.8636e+06 0 
0 0 0 
-1.3949e+07 3.91113e+06 0 
3.91113e+06 -1.28817e+07 0 
0 0 0 
-1.98606e+07 -744587 0 
-744587 -1.74164e+07 0 
0 0 0 
-1.60586e+07 816902 0 
816902 -2.87966e+07 0 
0 0 0 
-9.10664e+06 -8.71958e+06 0 
-8.71958e+06 1.00511e+07 0 
0 0 0 
2.64164e+06 -1.40194e+07 0 
-1.40194e+07 3.30401e+07 0 
0 0 0 
-3.28164e+07 -2.67378e+06 0 
-2.67378e+06 -4.67507e+07 0 
0 0 0 
-3.80743e+07 -4.42182e+06 0 
-4.42182e+06 -4.21996e+07 0 
0 0 0 
0 0 0 
0 0 0 
0 0 0 
1.55153e+07 -2.69501e+06 0 
-2.69501e+06 1.77759e+07 0 
0 0 0 
3.13149e+06 1.37446e+06 0 
1.37446e+06 2.05723e+07 0 
0 0 0 
-1.84788e+07 -3.26479e+06 0 
-3.26479e+06 -2.38088e+06 0 
0 0 0 
-9.55358e+06 -1.09748e+06 0 
-1.09748e+06 -1.85684e+06 0 
0 0 0 
-649798 4.57651e+06 0 
4.57651e+06 -2.55091e+06 0 
0 0 0 
-3.6389e+07 -5.39176e+06 0 
-5.39176e+06 -2.30951e+07 0 
0 0 0 
7.99581e+06 4.91163e+06 0 
4.91163e+06 -2.04252e+06 0 
0 0 0 
8.14708e+06 4.959e+06 0 
4.959e+06 242319 0 
0 0 0 
-4.50578e+06 1.34305e+07 0 
1.34305e+07 -240040 0 
0 0 0 
-1.14849e+06 -2.41401e+06 0 
-2.41401e+06 1.06212e+07 0 
0 0 0 
1.12892e+07 -5.83627e+06 0 
-5.83627e+06 -1.0103e+06 0 
0 0 0 
-8.44438e+06 -4.13245e+06 0 
-4.13245e+06 -2.08796e+07 0 
0 0 0 
-3.23203e+07 -1.19609e+07 0 
-1.19609e+07 -2.81791e+07 0 
0 0 0 
-3.07371e+07 -4.11625e+06 0 
-4.11625e+06 -2.62206e+07 0 
0 0 0 
1.8695e+07 1.78555e+07 0 
1.78555e+07 -3.4848e+06 0 
0 0 0 
6.65845e+06 1.32959e+07 0 
1.32959e+07 -6.70531e+06 0 
0 0 0 
8.16853e+06 3.42979e+06 0 
3.42979e+06 504754 0 
0 0 0 
-2.59858e+07 1.24327e+06 0 
1.24327e+06 -1.60347e+07 0 
0 0 0 
-2.06892e+07 -287797 0 
-287797 -1.98097e+07 0 
0 0 0 
-1.73158e+07 -5.22161e+06 0 
-5.22161e+06 -2.10973e+07 0 
0 0 0 
-1.64703e+07 5.2715e+06 0 
5.2715e+06 -2.45641e+07 0 
0 0 0 
1.49986e+07 1.16152e+07 0 
1.16152e+07 -1.24406e+07 0 
0 0 0 
-1.08786e+07 -3.29785e+06 0 
-3.29785e+06 -2.44543e+07 0 
0 0 0 
1.69396e+07 -809073 0 
-809073 -1.57904e+07 0 
0 0 0 
-2.742e+06 -11803.6 0 
-11803.6 -2.61215e+07 0 
0 0 0 
-1.35988e+07 1.55403e+07 0 
1.55403e+07 -2.66235e+07 0 
0 0 0 
-420897 1.03346e+07 0 
1.03346e+07 -1.2477e+07 0 
0 0 0 
416456 1.41877e+07 0 
1.41877e+07 1.26476e+06 0 
0 0 0 
-2.50773e+07 2.88752e+06 0 
2.88752e+06 -2.12593e+07 0 
0 0 0 
3.01153e+06 1.48957e+06 0 
1.48957e+06 -1.26068e+07 0 
0 0 0 
-2.1587e+07 5.27893e+06 0 
5.27893e+06 -2.40006e+07 0 
0 0 0 
7.54493e+06 2.92011e+06 0 
2.92011e+06 -2.36688e+07 0 
0 0 0 
7.04433e+06 -8.92976e+06 0 
-8.92976e+06 -2.13483e+07 0 
0 0 0 
1.95984e+07 -1.15748e+07 0 
-1.15748e+07 -2.98248e+07 0 
0 0 0 
-2.36566e+07 -4.84169e+06 0 
-4.84169e+06 -4.76924e+07 0 
0 0 0 
-2.05455e+07 -1.11996e+06 0 
-1.11996e+06 -4.4214e+07 0 
0 0 0 
-3.20478e+07 1.84734e+06 0 
1.84734e+06 -2.89404e+07 0 
0 0 0 
1.19207e+07 104493 0 
104493 1.87748e+06 0 
0 0 0 
1.35472e+07 -712623 0 
-712623 2.61914e+06 0 
0 0 0 
-2.13887e+07 5.09077e+06 0 
5.09077e+06 -1.3546e+07 0 
0 0 0 
2.85132e+07 4.95941e+06 0 
4.95941e+06 -9.14574e+06 0 
0 0 0 
1.35429e+06 9.81665e+06 0 
9.81665e+06 -6.51627e+06 0 
0 0 0 
5.06562e+07 8.16671e+06 0 
8.16671e+06 -1.1739e+07 0 
0 0 0 
-1.77916e+07 9.92463e+06 0 
9.92463e+06 -2.72365e+07 0 
0 0 0 
-2.0734e+07 -2.9472e+06 0 
-2.9472e+06 -1.6072e+07 0 
0 0 0 
-1.42838e+07 1.14741e+06 0 
1.14741e+06 -2.17746e+07 0 
0 0 0 
3.10413e+06 -3.88651e+06 0 
-3.88651e+06 -1.15944e+07 0 
0 0 0 
-6.17771e+06 -1.18117e+07 0 
-1.18117e+07 -4.10255e+06 0 
0 0 0 
-3.18132e+07 1.14677e+07 0 
1.14677e+07 -5.75755e+07 0 
0 0 0 
8.42627e+06 1.58796e+07 0 
1.58796e+07 3.34015e+06 0 
0 0 0 
0 0 0 
0 0 0 
0 0 0 
-8.98312e+06 7.79456e+06 0 
7.79456e+06 -3.53564e+07 0 
0 0 0 
-1.7088e+07 -5.8882e+06 0 
-5.8882e+06 -3.45573e+07 0 
0 0 0 
-2.13235e+07 -8.21518e+06 0 
-8.21518e+06 -6.79391e+07 0 
0 0 0 
5.69724e+06 -5.34222e+06 0 
-5.34222e+06 -1.86613e+07 0 
0 0 0 
1.15389e+07 5.35254e+06 0 
5.35254e+06 -1.1967e+07 0 
0 0 0 
-9.03717e+06 1.08494e+07 0 
1.08494e+07 -2.12779e+07 0 
0 0 0 
-5.28684e+07 1.33079e+07 0 
1.33079e+07 -5.55645e+07 0 
0 0 0 
-5.39965e+07 2.40233e+06 0 
2.40233e+06 -2.67155e+07 0 
0 0 0 
-4.02865e+07 -9.08905e+06 0 
-9.08905e+06 -3.34127e+07 0 
0 0 0 
-1.22315e+07 -1.90389e+07 0 
-1.90389e+07 3.49919e+06 0 
0 0 0 
-1.97199e+07 -2.11892e+07 0 
-2.11892e+07 -5.32307e+07 0 
0 0 0 
1.72743e+06 -9.96373e+06 0 
-9.96373e+06 -2.23127e+06 0 
0 0 0 
2.52655e+07 1.64335e+06 0 
1.64335e+06 1.36506e+07 0 
0 0 0 
922660 -222942 0 
-222942 -1.98913e+07 0 
0 0 0 
-4.8965e+06 2.32283e+06 0 
2.32283e+06 3.16833e+07 0 
0 0 0 
-1.52989e+06 -4.02978e+06 0 
-4.02978e+06 2.87529e+07 0 
0 0 0 
4.01419e+06 -6.42159e+06 0 
-6.42159e+06 3.87908e+07 0 
0 0 0 
-2.88854e+07 2.4846e+06 0 
2.4846e+06 -1.45356e+07 0 
0 0 0 
-1.05648e+07 1.92498e+07 0 
1.92498e+07 4.1673e+07 0 
0 0 0 
-1.55428e+07 1.32386e+07 0 
1.32386e+07 3.04283e+07 0 
0 0 0 
-1.5769e+07 9.72394e+06 0 
9.72394e+06 1.78003e+07 0 
0 0 0 
-9.58801e+06 4.6534e+06 0 
4.6534e+06 4.11222e+07 0 
0 0 0 
6.27263e+06 -5.13242e+06 0 
-5.13242e+06 2.97378e+07 0 
0 0 0 
5.64649e+06 4.2388e+06 0 
4.2388e+06 -8.98631e+06 0 
0 0 0 
7.49142e+06 -4.36331e+06 0 
-4.36331e+06 3.28515e+07 0 
0 0 0 
1.45778e+07 -3.25982e+06 0 
-3.25982e+06 2.94371e+07 0 
0 0 0 
1.05621e+07 1.51705e+06 0 
1.51705e+06 4.67486e+07 0 
0 0 0 
9.26371e+06 356868 0 
356868 3.22908e+07 0 
0 0 0 
-2.39594e+07 1.56347e+07 0 
1.56347e+07 -1.657e+07 0 
0 0 0 
-2.2123e+07 8.91949e+06 0 
8.91949e+06 1.34479e+07 0 
0 0 0 
-1.39134e+07 4.77254e+06 0 
4.77254e+06 2.98085e+07 0 
0 0 0 
-2.54855e+07 4.99567e+06 0 
4.99567e+06 2.23423e+07 0 
0 0 0 
-2.11462e+07 -84503.3 0 
-84503.3 4.18855e+07 0 
0 0 0 
-5.42556e+07 -624809 0 
-624809 5.07987e+06 0 
0 0 0 
-9.60081e+07 -1.20743e+06 0 
-1.20743e+06 -3.30549e+07 0 
0 0 0 
-8.5905e+07 -885001 0 
-885001 -2.68944e+07 0 
0 0 0 
-8.48266e+07 -2.88257e+06 0 
-2.88257e+06 -4.13487e+07 0 
0 0 0 
-6.06238e+07 8.50497e+06 0 
8.50497e+06 2.76673e+06 0 
0 0 0 
-5.95525e+07 1.34438e+07 0 
1.34438e+07 1.10866e+06 0 
0 0 0 
-5.99917e+07 5.03274e+06 0 
5.03274e+06 -2.20544e+06 0 
0 0 0 
-5.41727e+07 9.0371e+06 0 
9.0371e+06 -8.58871e+06 0 
0 0 0 
-7.17243e+07 5.825e+06 0 
5.825e+06 -3.71671e+07 0 
0 0 0 
-6.61986e+07 1.11594e+07 0 
1.11594e+07 -3.36936e+07 0 
0 0 0 
-5.68867e+07 2.92604e+06 0 
2.92604e+06 -5.03336e+07 0 
0 0 0 
-6.53969e+06 -8.29276e+06 0 
-8.29276e+06 -2.17185e+06 0 
0 0 0 
1.6127e+07 -1.0442e+07 0 
-1.0442e+07 4.49894e+07 0 
0 0 0 
-3.63289e+06 -9.07045e+06 0 
-9.07045e+06 -2.93787e+07 0 
0 0 0 
3.67021e+06 7.39347e+06 0 
7.39347e+06 -1.71314e+07 0 
0 0 0 
4.00179e+06 1.76351e+07 0 
1.76351e+07 -2.99915e+07 0 
0 0 0 
0 0 0 
0 0 0 
0 0 0 
4.85724e+06 1.05647e+07 0 
1.05647e+07 -6.35362e+06 0 
0 0 0 
203966 3.82494e+06 0 
3.82494e+06 -2.50414e+07 0 
0 0 0 
-3.39177e+07 -2.15819e+06 0 
-2.15819e+06 -3.57491e+07 0 
0 0 0 
-2.12319e+07 7.67344e+06 0 
7.67344e+06 -2.94607e+07 0 
0 0 0 
-7.43601e+06 273636 0 
273636 -2.21779e+07 0 
0 0 0 
-2.81397e+07 6.58338e+06 0 
6.58338e+06 -2.12704e+06 0 
0 0 0 
2.2198e+07 8.14877e+06 0 
8.14877e+06 1.67177e+07 0 
0 0 0 
4.80096e+06 2.17602e+06 0 
2.17602e+06 1.24911e+07 0 
0 0 0 
-803362 2.88852e+06 0 
2.88852e+06 1.06176e+06 0 
0 0 0 
-2.00559e+07 3.73721e+06 0 
3.73721e+06 -3.00433e+07 0 
0 0 0 
9.69265e+06 532699 0 
532699 -7.10358e+06 0 
0 0 0 
-2.03486e+07 -9.6611e+06 0 
-9.6611e+06 -2.12931e+07 0 
0 0 0 
-1.55021e+07 -3.77079e+06 0 
-3.77079e+06 -1.05546e+07 0 
0 0 0 
-8.7169e+06 7.27528e+06 0 
7.27528e+06 2.13269e+07 0 
0 0 0 
4.4265e+07 9.59087e+06 0 
9.59087e+06 3.69892e+07 0 
0 0 0 
3.96219e+06 7.04173e+06 0 
7.04173e+06 8.34557e+06 0 
0 0 0 
-4.96105e+06 -452915 0 
-452915 -5.92105e+06 0 
0 0 0 
-2.82821e+07 -1.08211e+07 0 
-1.08211e+07 -8.78775e+06 0 
0 0 0 
-1.9571e+07 -6.78551e+06 0 
-6.78551e+06 -2.05889e+06 0 
0 0 0 
-8.88929e+06 -4.63532e+06 0 
-4.63532e+06 -5.66428e+06 0 
0 0 0 
6.83432e+06 836388 0 
836388 -800058 0 
0 0 0 
1.48304e+07 -888743 0 
-888743 -1.04471e+07 0 
0 0 0 
-1.78912e+07 9.85079e+06 0 
9.85079e+06 -2.18689e+07 0 
0 0 0 
3.04847e+07 1.01709e+07 0 
1.01709e+07 7.93256e+06 0 
0 0 0 
1.0812e+07 232167 0 
232167 9.08244e+06 0 
0 0 0 
7.33862e+06 8.49899e+06 0 
8.49899e+06 1.47922e+07 0 
0 0 0 
9.90501e+06 1.28186e+07 0 
1.28186e+07 1.55754e+07 0 
0 0 0 
-7.4975e+06 9.38873e+06 0 
9.38873e+06 -1.18928e+07 0 
0 0 0 
-2.90597e+07 7.13699e+06 0 
7.13699e+06 -1.73595e+07 0 
0 0 0 
1.95143e+06 -2.43638e+06 0 
-2.43638e+06 -1.38409e+07 0 
0 0 0 
-2.53511e+07 2.19237e+06 0 
2.19237e+06 -2.89515e+07 0 
0 0 0 
3.10607e+06 -7.06086e+06 0 
-7.06086e+06 -1.51829e+07 0 
0 0 0 
1.2549e+07 -2.56309e+06 0 
-2.56309e+06 -428351 0 
0 0 0 
2.721e+07 4.40064e+06 0 
4.40064e+06 3.90416e+07 0 
0 0 0 
2.65107e+07 -1.43559e+06 0 
-1.43559e+06 3.98583e+07 0 
0 0 0 
1.05483e+07 6.63247e+06 0 
6.63247e+06 3.67385e+07 0 
0 0 0 
-9.02558e+06 5.55525e+06 0 
5.55525e+06 2.9485e+07 0 
0 0 0 
1.36141e+07 573496 0 
573496 3.20279e+07 0 
0 0 0 
1.91055e+07 -1.29484e+07 0 
-1.29484e+07 3.70222e+07 0 
0 0 0 
2.68831e+06 -1.03183e+07 0 
-1.03183e+07 1.61601e+07 0 
0 0 0 
3.38579e+07 -1.11113e+06 0 
-1.11113e+06 2.21887e+07 0 
0 0 0 
1.40189e+07 -351056 0 
-351056 -1.00346e+07 0 
0 0 0 
4.10617e+07 4.16345e+06 0 
4.16345e+06 -2.05055e+06 0 
0 0 0 
-2.09547e+07 3.73997e+06 0 
3.73997e+06 -2.97951e+07 0 
0 0 0 
-2.63044e+07 -6.2262e+06 0 
-6.2262e+06 -3.84277e+07 0 
0 0 0 
-2.24138e+07 2.7924e+06 0 
2.7924e+06 -2.39258e+07 0 
0 0 0 
3.90087e+06 -1.07471e+07 0 
-1.07471e+07 -1.09703e+07 0 
0 0 0 
479116 410937 0 
410937 4.3746e+06 0 
0 0 0 
1.99119e+07 -1.43141e+06 0 
-1.43141e+06 1.02549e+07 0 
0 0 0 
1.23511e+07 1.22787e+07 0 
1.22787e+07 -1.21251e+07 0 
0 0 0 
2.61579e+07 3.62738e+06 0 
3.62738e+06 6.5559e+06 0 
0 0 0 
0 0 0 
0 0 0 
0 0 0 
-1.31839e+07 7.59585e+06 0 
7.59585e+06 -3.19328e+07 0 
0 0 0 
-1.47239e+07 -2.31993e+06 0 
-2.31993e+06 -4.72641e+07 0 
0 0 0 
-2.44834e+07 2.47653e+06 0 
2.47653e+06 -6.96343e+07 0 
0 0 0 
-1.8863e+06 -4.34565e+06 0 
-4.34565e+06 -1.31848e+07 0 
0 0 0 
7.14114e+06 -2.90093e+06 0 
-2.90093e+06 -4.57061e+06 0 
0 0 0 
-3.73379e+06 -1.28436e+07 0 
-1.28436e+07 -2.8701e+07 0 
0 0 0 
-4.02763e+07 -7.48261e+06 0 
-7.48261e+06 -5.29032e+07 0 
0 0 0 
-6.21183e+07 1.32983e+06 0 
1.32983e+06 -3.83343e+07 0 
0 0 0 
-7.02985e+07 -3.07548e+06 0 
-3.07548e+06 -4.47798e+07 0 
0 0 0 
-3.99538e+07 530652 0 
530652 -5.3172e+06 0 
0 0 0 
-4.53918e+07 -1.11737e+07 0 
-1.11737e+07 -4.84713e+07 0 
0 0 0 
-2.78265e+07 1.04087e+06 0 
1.04087e+06 -7.32097e+06 0 
0 0 0 
-4.12381e+07 -2.12175e+06 0 
-2.12175e+06 -3.07391e+06 0 
0 0 0 
-4.23629e+07 3.29673e+06 0 
3.29673e+06 -2.94481e+07 0 
0 0 0 
-243195 -769700 0 
-769700 2.5154e+07 0 
0 0 0 
1.16404e+07 -676110 0 
-676110 2.28251e+07 0 
0 0 0 
4.71968e+06 -3.65654e+06 0 
-3.65654e+06 4.19532e+07 0 
0 0 0 
-2.03075e+07 2.70293e+06 0 
2.70293e+06 -4.67196e+06 0 
0 0 0 
-2.70381e+06 1.23769e+07 0 
1.23769e+07 4.40304e+07 0 
0 0 0 
-2.83306e+07 1.92334e+07 0 
1.92334e+07 -2.97042e+06 0 
0 0 0 
-3.36041e+07 4.47037e+06 0 
4.47037e+06 1.98351e+07 0 
0 0 0 
-5.89404e+07 -1.17184e+06 0 
-1.17184e+06 1.07388e+06 0 
0 0 0 
-7.56742e+07 3.57389e+06 0 
3.57389e+06 1.87139e+07 0 
0 0 0 
-1.00438e+08 9.43503e+06 0 
9.43503e+06 -4.05347e+07 0 
0 0 0 
-5.43367e+07 1.55279e+07 0 
1.55279e+07 2.72008e+06 0 
0 0 0 
-2.94967e+07 1.28142e+07 0 
1.28142e+07 1.86291e+07 0 
0 0 0 
-1.21422e+07 3.1051e+06 0 
3.1051e+06 3.26819e+07 0 
0 0 0 
-2.01176e+06 3.12699e+06 0 
3.12699e+06 3.55428e+07 0 
0 0 0 
-1.69112e+07 -1.65512e+06 0 
-1.65512e+06 -1.84986e+06 0 
0 0 0 
-1.5538e+07 1.90362e+07 0 
1.90362e+07 7.92465e+06 0 
0 0 0 
1.182e+07 5.40996e+06 0 
5.40996e+06 5.19456e+07 0 
0 0 0 
1.55706e+06 1.4267e+07 0 
1.4267e+07 1.04373e+07 0 
0 0 0 
1.10631e+07 -6.20858e+06 0 
-6.20858e+06 6.46433e+07 0 
0 0 0 
9.3933e+06 1.25302e+07 0 
1.25302e+07 2.03498e+07 0 
0 0 0 
2.54623e+07 6.33781e+06 0 
6.33781e+06 9.03266e+06 0 
0 0 0 
3.34472e+07 1.18502e+07 0 
1.18502e+07 1.34698e+07 0 
0 0 0 
5.47287e+07 -1.47599e+06 0 
-1.47599e+06 -96654.3 0 
0 0 0 
8.05801e+07 -188876 0 
-188876 5.80793e+07 0 
0 0 0 
6.20226e+07 -5.78831e+06 0 
-5.78831e+06 3.18024e+07 0 
0 0 0 
4.43316e+07 2.75151e+06 0 
2.75151e+06 4.01273e+07 0 
0 0 0 
2.53162e+07 3.22825e+06 0 
3.22825e+06 2.22675e+07 0 
0 0 0 
2.72046e+07 8.30325e+06 0 
8.30325e+06 -143593 0 
0 0 0 
2.92097e+07 8.11178e+06 0 
8.11178e+06 -5.55003e+06 0 
0 0 0 
1.7891e+07 1.59018e+07 0 
1.59018e+07 -4.01455e+07 0 
0 0 0 
2.98678e+07 7.20357e+06 0 
7.20357e+06 9.0949e+06 0 
0 0 0 
5.6041e+07 -8.00831e+06 0 
-8.00831e+06 5.13029e+07 0 
0 0 0 
5.20847e+07 1.24411e+06 0 
1.24411e+06 -234380 0 
0 0 0 
5.62671e+07 -4.29831e+06 0 
-4.29831e+06 1.96853e+07 0 
0 0 0 
2.51446e+07 1.62298e+07 0 
1.62298e+07 -3.28916e+07 0 
0 0 0 
2.18315e+07 9.48597e+06 0 
9.48597e+06 -4.81916e+06 0 
0 0 0 
0 0 0 
0 0 0 
0 0 0 
1.71881e+07 194583 0 
194583 4.73109e+06 0 
0 0 0 
-1.88069e+06 -4.7286e+06 0 
-4.7286e+06 6.73765e+06 0 
0 0 0 
-4.78271e+06 -5.00951e+06 0 
-5.00951e+06 9.18523e+06 0 
0 0 0 
-1.15271e+07 2.62771e+06 0 
2.62771e+06 6.57978e+06 0 
0 0 0 
-1.3167e+06 7.73386e+06 0 
7.73386e+06 5.21673e+06 0 
0 0 0 
-2.12209e+07 9.67001e+06 0 
9.67001e+06 -2.83334e+07 0 
0 0 0 
4.45302e+06 1.10689e+07 0 
1.10689e+07 -1.46044e+07 0 
0 0 0 
-2.48377e+07 5.53001e+06 0 
5.53001e+06 -2.63088e+07 0 
0 0 0 
2.1889e+06 -1.37988e+06 0 
-1.37988e+06 -3.13665e+07 0 
0 0 0 
-3.5258e+07 -2.22744e+06 0 
-2.22744e+06 -3.97456e+07 0 
0 0 0 
2.09731e+06 -9.64675e+06 0 
-9.64675e+06 -4.63484e+07 0 
0 0 0 
-4.26052e+07 -4.65832e+06 0 
-4.65832e+06 -5.25866e+07 0 
0 0 0 
-43300.8 8.05132e+06 0 
8.05132e+06 -2.09201e+07 0 
0 0 0 
-1.60151e+07 1.21323e+07 0 
1.21323e+07 -2.3714e+07 0 
0 0 0 
2.77245e+07 1.56898e+07 0 
1.56898e+07 -3.23662e+06 0 
0 0 0 
-1.37868e+07 3.92995e+06 0 
3.92995e+06 -1.31574e+07 0 
0 0 0 
-2.00863e+07 -3.31626e+06 0 
-3.31626e+06 -1.54182e+07 0 
0 0 0 
-4.65762e+07 -6.67078e+06 0 
-6.67078e+06 -2.77843e+07 0 
0 0 0 
-1.58732e+07 -8.66345e+06 0 
-8.66345e+06 -2.3209e+07 0 
0 0 0 
-7.83482e+06 -6.61454e+06 0 
-6.61454e+06 -1.61721e+07 0 
0 0 0 
-287793 -1.78666e+06 0 
-1.78666e+06 -2.06298e+07 0 
0 0 0 
2.26206e+07 -829872 0 
-829872 -8.51982e+06 0 
0 0 0 
2.23125e+06 5.62928e+06 0 
5.62928e+06 -1.05496e+07 0 
0 0 0 
1.84556e+07 1.12113e+07 0 
1.12113e+07 -1.38251e+07 0 
0 0 0 
-7.50741e+06 5.98938e+06 0 
5.98938e+06 -1.33848e+07 0 
0 0 0 
4.74488e+06 1.24072e+07 0 
1.24072e+07 -6.25684e+06 0 
0 0 0 
8.96196e+06 4.72316e+06 0 
4.72316e+06 -1.44814e+07 0 
0 0 0 
-1.55179e+07 5.78246e+06 0 
5.78246e+06 -1.50519e+07 0 
0 0 0 
-3.53468e+07 -334906 0 
-334906 -3.18598e+07 0 
0 0 0 
931865 -714768 0 
-714768 -1.33102e+07 0 
0 0 0 
-2.55518e+07 214280 0 
214280 -2.10023e+07 0 
0 0 0 
1.27017e+07 1.05809e+07 0 
1.05809e+07 -1.07312e+07 0 
0 0 0 
6.22456e+06 7.28565e+06 0 
7.28565e+06 -1.48422e+07 0 
0 0 0 
-9.07344e+06 6.47621e+06 0 
6.47621e+06 -4.61191e+07 0 
0 0 0 
8.07511e+06 1.70842e+06 0 
1.70842e+06 -3.25834e+07 0 
0 0 0 
-2.70925e+07 306949 0 
306949 -5.13836e+07 0 
0 0 0 
-1.56063e+07 4.70639e+06 0 
4.70639e+06 -5.01623e+07 0 
0 0 0 
-3.2958e+07 6.28937e+06 0 
6.28937e+06 -3.90089e+07 0 
0 0 0 
-7.6642e+06 -4.83622e+06 0 
-4.83622e+06 -1.58625e+07 0 
0 0 0 
7.28165e+06 -1.27118e+07 0 
-1.27118e+07 9.55843e+06 0 
0 0 0 
3.51418e+07 -7.87523e+06 0 
-7.87523e+06 8.43689e+06 0 
0 0 0 
2.22832e+07 -7.74497e+06 0 
-7.74497e+06 1.10643e+07 0 
0 0 0 
4.00187e+07 -4.85007e+06 0 
-4.85007e+06 1.38321e+07 0 
0 0 0 
-1.09955e+07 -2.62358e+06 0 
-2.62358e+06 -1.7884e+07 0 
0 0 0 
-8.02902e+06 4.87419e+06 0 
4.87419e+06 -1.7036e+07 0 
0 0 0 
-4.50114e+07 -840796 0 
-840796 -4.06376e+07 0 
0 0 0 
-663118 915308 0 
915308 -3.2282e+07 0 
0 0 0 
-2.44362e+07 -9.35469e+06 0 
-9.35469e+06 -4.9053e+07 0 
0 0 0 
1.89458e+07 2.9678e+06 0 
2.9678e+06 -3.4254e+07 0 
0 0 0 
2.03218e+07 3.46384e+06 0 
3.46384e+06 -3.06002e+07 0 
0 0 0 
4.584e+06 6.23085e+06 0 
6.23085e+06 -1.15222e+07 0 
0 0 0 
-1.80543e+07 -59906.1 0 
-59906.1 -4.75615e+07 0 
0 0 0 
0 0 0 
0 0 0 
0 0 0 
-2.02714e+07 3.00516e+06 0 
3.00516e+06 -3.05517e+07 0 
0 0 0 
-3.24999e+07 -359083 0 
-359083 -6.02023e+07 0 
0 0 0 
-3.00667e+07 -3.61108e+06 0 
-3.61108e+06 -6.85847e+07 0 
0 0 0 
-3.68826e+07 -4.9008e+06 0 
-4.9008e+06 -3.82027e+07 0 
0 0 0 
-4.22931e+07 -7.19882e+06 0 
-7.19882e+06 -2.11062e+07 0 
0 0 0 
-5.04091e+07 -1.46315e+07 0 
-1.46315e+07 -5.72089e+07 0 
0 0 0 
-4.26119e+07 -2.86848e+07 0 
-2.86848e+07 -4.96151e+07 0 
0 0 0 
-4.85059e+07 -1.14695e+07 0 
-1.14695e+07 -2.75789e+07 0 
0 0 0 
-4.29586e+07 13923.2 0 
13923.2 -2.54658e+07 0 
0 0 0 
-4.24336e+07 -839585 0 
-839585 9.96263e+06 0 
0 0 0 
-5.87845e+07 -4.49277e+06 0 
-4.49277e+06 -6.03625e+07 0 
0 0 0 
-3.56181e+07 -1.09163e+07 0 
-1.09163e+07 -1.68732e+07 0 
0 0 0 
-3.18158e+07 -1.25503e+07 0 
-1.25503e+07 1.02466e+06 0 
0 0 0 
-4.62174e+07 -3.34289e+06 0 
-3.34289e+06 -2.03426e+07 0 
0 0 0 
-3.24267e+07 4.05774e+06 0 
4.05774e+06 6.06123e+06 0 
0 0 0 
-3.69371e+07 -2.44141e+06 0 
-2.44141e+06 9.65642e+06 0 
0 0 0 
-3.91432e+07 -1.90252e+07 0 
-1.90252e+07 1.76549e+07 0 
0 0 0 
-9.03075e+07 -6.07183e+06 0 
-6.07183e+06 -1.5331e+07 0 
0 0 0 
-8.54709e+07 -7.32263e+06 0 
-7.32263e+06 3.01522e+07 0 
0 0 0 
-8.86511e+07 8.82342e+06 0 
8.82342e+06 -1.57379e+07 0 
0 0 0 
-7.99886e+07 -687283 0 
-687283 -1.91744e+07 0 
0 0 0 
-4.76333e+07 2.43434e+06 0 
2.43434e+06 2.47963e+07 0 
0 0 0 
-7.37768e+06 8.5207e+06 0 
8.5207e+06 3.05516e+07 0 
0 0 0 
1.37826e+07 1.14224e+07 0 
1.14224e+07 2.5685e+07 0 
0 0 0 
-2.75494e+06 2.15182e+07 0 
2.15182e+07 1.25363e+06 0 
0 0 0 
-1.26206e+07 1.05856e+06 0 
1.05856e+06 2.49553e+07 0 
0 0 0 
-1.63383e+07 1.74584e+07 0 
1.74584e+07 3.39036e+07 0 
0 0 0 
-3.70546e+07 2.41836e+06 0 
2.41836e+06 1.46198e+07 0 
0 0 0 
-3.78609e+07 1.37553e+07 0 
1.37553e+07 7.43719e+06 0 
0 0 0 
-2.81176e+07 1.83139e+07 0 
1.83139e+07 7.54589e+06 0 
0 0 0 
-8.48571e+06 2.23115e+07 0 
2.23115e+07 4.72315e+07 0 
0 0 0 
-2.20907e+07 -378146 0 
-378146 -1.70422e+07 0 
0 0 0 
5.66078e+06 707940 0 
707940 6.21958e+07 0 
0 0 0 
-5.56001e+06 578016 0 
578016 3.23553e+07 0 
0 0 0 
-1.34185e+07 1.57733e+07 0 
1.57733e+07 -1.27345e+06 0 
0 0 0 
-3.84774e+06 1.34947e+07 0 
1.34947e+07 -4.52207e+06 0 
0 0 0 
-2.20744e+07 1.28088e+07 0 
1.28088e+07 -3.87405e+07 0 
0 0 0 
2.57057e+07 4.95147e+06 0 
4.95147e+06 2.60012e+07 0 
0 0 0 
3.03542e+07 -8.25568e+06 0 
-8.25568e+06 2.97026e+07 0 
0 0 0 
3.04927e+07 -4.57251e+06 0 
-4.57251e+06 4.47219e+07 0 
0 0 0 
1.97697e+07 2.81113e+06 0 
2.81113e+06 2.25926e+07 0 
0 0 0 
4.52335e+06 3.07277e+06 0 
3.07277e+06 -1.07596e+07 0 
0 0 0 
9.66393e+06 8.00812e+06 0 
8.00812e+06 3.8042e+06 0 
0 0 0 
-1.01502e+07 1.5818e+07 0 
1.5818e+07 -5.66604e+07 0 
0 0 0 
1.38014e+07 6.37822e+06 0 
6.37822e+06 1.26461e+06 0 
0 0 0 
3.75799e+07 8.95978e+06 0 
8.95978e+06 4.03555e+07 0 
0 0 0 
2.77027e+07 -2.245e+06 0 
-2.245e+06 -1.86342e+07 0 
0 0 0 
5.47841e+07 -4.84871e+06 0 
-4.84871e+06 2.41966e+07 0 
0 0 0 
2.50707e+07 -4.27625e+06 0 
-4.27625e+06 -1.97932e+07 0 
0 0 0 
2.41564e+06 6.74915e+06 0 
6.74915e+06 -9.06054e+06 0 
0 0 0 
-1.93092e+07 -1.04166e+07 0 
-1.04166e+07 -4.29727e+07 0 
0 0 0 
0 0 0 
0 0 0 
0 0 0 
4.92389e+06 -429335 0 
-429335 1.42208e+06 0 
0 0 0 
-780735 -2.59275e+06 0 
-2.59275e+06 -6.4861e+06 0 
0 0 0 
-1.43712e+07 -7.95265e+06 0 
-7.95265e+06 -8.37258e+06 0 
0 0 0 
9.68788e+06 2.61171e+06 0 
2.61171e+06 7.57343e+06 0 
0 0 0 
-816246 -2.39079e+06 0 
-2.39079e+06 -8.04838e+06 0 
0 0 0 
-1.79052e+07 9.81475e+06 0 
9.81475e+06 -2.32747e+06 0 
0 0 0 
6.02045e+06 4.34614e+06 0 
4.34614e+06 6.77885e+06 0 
0 0 0 
-2.45263e+07 -3.61948e+06 0 
-3.61948e+06 -3.50191e+06 0 
0 0 0 
1.31838e+07 -1.09777e+07 0 
-1.09777e+07 1.20156e+07 0 
0 0 0 
-1.90552e+07 -933940 0 
-933940 -5.69188e+06 0 
0 0 0 
2.23552e+07 -5.0539e+06 0 
-5.0539e+06 2.3333e+07 0 
0 0 0 
-2.30313e+07 -2.30327e+06 0 
-2.30327e+06 5.27589e+06 0 
0 0 0 
3.80672e+07 1.37556e+07 0 
1.37556e+07 3.2285e+07 0 
0 0 0 
4.50613e+06 1.43498e+07 0 
1.43498e+07 2.37754e+07 0 
0 0 0 
2.39863e+07 7.69557e+06 0 
7.69557e+06 1.57763e+07 0 
0 0 0 
-3.80794e+07 -5.10506e+06 0 
-5.10506e+06 -2.75952e+07 0 
0 0 0 
-4.27155e+07 -1.33578e+07 0 
-1.33578e+07 -5.6415e+07 0 
0 0 0 
-4.26903e+07 -3.52689e+06 0 
-3.52689e+06 -6.64338e+07 0 
0 0 0 
-3.00398e+07 4.21377e+06 0 
4.21377e+06 -4.8067e+07 0 
0 0 0 
-2.32422e+07 -879647 0 
-879647 -3.10177e+07 0 
0 0 0 
3.4384e+07 1.99134e+06 0 
1.99134e+06 1.58695e+07 0 
0 0 0 
1.17556e+07 526400 0 
526400 1.30908e+07 0 
0 0 0 
3.73948e+07 6.58648e+06 0 
6.58648e+06 2.20898e+07 0 
0 0 0 
2.55143e+07 7.09596e+06 0 
7.09596e+06 2.97041e+07 0 
0 0 0 
1.16069e+07 1.17862e+07 0 
1.17862e+07 2.67141e+07 0 
0 0 0 
1.12427e+07 6.58239e+06 0 
6.58239e+06 1.87544e+07 0 
0 0 0 
290835 2.71431e+06 0 
2.71431e+06 -1.56618e+06 0 
0 0 0 
-8.22106e+06 -366083 0 
-366083 -2.13314e+07 0 
0 0 0 
-5.93848e+07 -7.83402e+06 0 
-7.83402e+06 -5.07179e+07 0 
0 0 0 
-161882 -3.65374e+06 0 
-3.65374e+06 -3.88385e+07 0 
0 0 0 
-1.30261e+07 -838954 0 
-838954 -2.76975e+07 0 
0 0 0 
1.33618e+07 3.7097e+06 0 
3.7097e+06 -1.22776e+07 0 
0 0 0 
3.32326e+06 -91005.8 0 
-91005.8 -449095 0 
0 0 0 
-2.52708e+06 -3.21904e+06 0 
-3.21904e+06 1.21187e+07 0 
0 0 0 
2.2311e+07 -5.21299e+06 0 
-5.21299e+06 -518338 0 
0 0 0 
-4.92608e+06 -2.77898e+06 0 
-2.77898e+06 -1.92812e+07 0 
0 0 0 
7.7031e+06 1.56283e+07 0 
1.56283e+07 -2.85963e+07 0 
0 0 0 
-7.10987e+07 8.30258e+06 0 
8.30258e+06 -6.42973e+07 0 
0 0 0 
-1.29238e+07 2.58716e+06 0 
2.58716e+06 -4.03678e+07 0 
0 0 0 
-1.39512e+07 -1.78079e+06 0 
-1.78079e+06 -2.91856e+07 0 
0 0 0 
3.66314e+07 -9.5361e+06 0 
-9.5361e+06 6.75409e+06 0 
0 0 0 
1.49136e+07 -2.03208e+06 0 
-2.03208e+06 8.3786e+06 0 
0 0 0 
3.55735e+07 -1.17571e+07 0 
-1.17571e+07 1.70298e+07 0 
0 0 0 
-1.16745e+07 -2.03287e+07 0 
-2.03287e+07 -1.25391e+07 0 
0 0 0 
2.02747e+07 -9.0055e+06 0 
-9.0055e+06 -1.06562e+07 0 
0 0 0 
-5.00223e+07 -6.48427e+06 0 
-6.48427e+06 -3.34195e+07 0 
0 0 0 
1.30432e+07 1.29336e+06 0 
1.29336e+06 -1.41566e+07 0 
0 0 0 
-2.7689e+07 6.63184e+06 0 
6.63184e+06 -5.13689e+06 0 
0 0 0 
5.85397e+07 2.24395e+06 0 
2.24395e+06 3.4475e+07 0 
0 0 0 
3.4747e+07 -339428 0 
-339428 2.52218e+07 0 
0 0 0 
-6.03158e+06 -4.4114e+06 0 
-4.4114e+06 4.58224e+06 0 
0 0 0 
-3.15728e+07 -2.96131e+06 0 
-2.96131e+06 -3.42586e+07 0 
0 0 0 
-3.52408e+07 -2.96833e+06 0 
-2.96833e+06 -2.15677e+07 0 
0 0 0 
0 0 0 
0 0 0 
0 0 0 
308237 -278546 0 
-278546 -2.88509e+07 0 
0 0 0 
-8.24633e+06 -2.83418e+06 0 
-2.83418e+06 -5.6302e+07 0 
0 0 0 
-1.9255e+07 -6.51689e+06 0 
-6.51689e+06 -5.95339e+07 0 
0 0 0 
-1.63771e+07 -1.19201e+07 0 
-1.19201e+07 -4.03247e+07 0 
0 0 0 
-2.68083e+07 -1.09565e+07 0 
-1.09565e+07 -2.87859e+07 0 
0 0 0 
-2.83868e+07 -8.55844e+06 0 
-8.55844e+06 -5.12016e+07 0 
0 0 0 
-1.1933e+07 -1.93352e+07 0 
-1.93352e+07 -4.06616e+07 0 
0 0 0 
1.92309e+06 -1.34754e+07 0 
-1.34754e+07 -1.38542e+07 0 
0 0 0 
-1.56347e+07 -5.49113e+06 0 
-5.49113e+06 1.87128e+07 0 
0 0 0 
-1.6973e+07 460973 0 
460973 1.27992e+07 0 
0 0 0 
-4.18583e+07 -1.12083e+07 0 
-1.12083e+07 -6.45185e+07 0 
0 0 0 
-1.72718e+07 -1.60456e+06 0 
-1.60456e+06 -506346 0 
0 0 0 
-6.47367e+06 -5.55935e+06 0 
-5.55935e+06 3.83863e+06 0 
0 0 0 
-8.45379e+06 -1.49993e+06 0 
-1.49993e+06 -1.2363e+07 0 
0 0 0 
-1.75064e+07 -4.43821e+06 0 
-4.43821e+06 1.58168e+07 0 
0 0 0 
-4.38519e+07 -1.75719e+07 0 
-1.75719e+07 1.55354e+06 0 
0 0 0 
-5.12269e+07 -1.72009e+07 0 
-1.72009e+07 -1.14447e+07 0 
0 0 0 
-1.29153e+08 -1.7909e+07 0 
-1.7909e+07 -4.60236e+07 0 
0 0 0 
-7.9958e+07 -1.17223e+07 0 
-1.17223e+07 4.54377e+07 0 
0 0 0 
-5.30782e+07 1.81068e+07 0 
1.81068e+07 -8.19052e+06 0 
0 0 0 
-2.39032e+07 1.53013e+07 0 
1.53013e+07 2.45259e+07 0 
0 0 0 
4.63323e+06 2.33988e+07 0 
2.33988e+07 2.36054e+07 0 
0 0 0 
2.08608e+07 1.73619e+07 0 
1.73619e+07 4.68094e+07 0 
0 0 0 
1.80965e+07 1.1833e+07 0 
1.1833e+07 1.98011e+07 0 
0 0 0 
2.59575e+07 9.77815e+06 0 
9.77815e+06 1.82885e+07 0 
0 0 0 
5.26776e+07 1.0079e+07 0 
1.0079e+07 3.68448e+07 0 
0 0 0 
4.92742e+07 -6.91726e+06 0 
-6.91726e+06 5.80074e+07 0 
0 0 0 
3.70175e+07 -4.64373e+06 0 
-4.64373e+06 4.43851e+07 0 
0 0 0 
2.29714e+07 2.60104e+06 0 
2.60104e+06 3.80317e+07 0 
0 0 0 
-3.11348e+06 1.57612e+07 0 
1.57612e+07 1.80697e+07 0 
0 0 0 
-326321 1.11894e+07 0 
1.11894e+07 4.28089e+07 0 
0 0 0 
-2.9907e+07 3.09309e+06 0 
3.09309e+06 -3.19061e+07 0 
0 0 0 
8.73621e+06 -6.14264e+06 0 
-6.14264e+06 4.73357e+07 0 
0 0 0 
2.12757e+07 -2.88351e+06 0 
-2.88351e+06 5.96609e+07 0 
0 0 0 
1.13126e+07 1.05495e+07 0 
1.05495e+07 2.2967e+07 0 
0 0 0 
2.90573e+06 1.04552e+07 0 
1.04552e+07 4.58636e+06 0 
0 0 0 
5.75324e+06 2.12016e+07 0 
2.12016e+07 -3.37961e+07 0 
0 0 0 
1.49515e+07 2.1393e+07 0 
2.1393e+07 1.47823e+07 0 
0 0 0 
3.54666e+07 2.21281e+06 0 
2.21281e+06 1.3174e+07 0 
0 0 0 
8.58704e+07 85859.3 0 
85859.3 7.13071e+07 0 
0 0 0 
8.97063e+07 -5.79824e+06 0 
-5.79824e+06 3.35239e+07 0 
0 0 0 
6.98518e+07 -2.12331e+06 0 
-2.12331e+06 2.76335e+07 0 
0 0 0 
4.93199e+07 4.52103e+06 0 
4.52103e+06 1.82721e+07 0 
0 0 0 
1.8593e+07 8.13473e+06 0 
8.13473e+06 -4.03455e+07 0 
0 0 0 
1.90543e+07 1.09984e+07 0 
1.09984e+07 4.43326e+06 0 
0 0 0 
1.30542e+07 1.24801e+06 0 
1.24801e+06 1.87811e+07 0 
0 0 0 
-1.35151e+07 2.04311e+06 0 
2.04311e+06 -3.99446e+07 0 
0 0 0 
-8.39438e+06 -5.74335e+06 0 
-5.74335e+06 -1.10642e+07 0 
0 0 0 
3.30896e+06 -1.56198e+07 0 
-1.56198e+07 -1.24304e+07 0 
0 0 0 
-3.7293e+06 -1.23511e+07 0 
-1.23511e+07 -3.51888e+06 0 
0 0 0 
-2.52026e+07 -4.23252e+06 0 
-4.23252e+06 -5.86057e+07 0 
0 0 0 
-1.1072e+07 -1.37434e+07 0 
-1.37434e+07 -1.00092e+07 0 
0 0 0 
0 0 0 
0 0 0 
0 0 0 
4.71956e+06 3.56627e+06 0 
3.56627e+06 -286911 0 
0 0 0 
-1.14257e+07 -2.32415e+06 0 
-2.32415e+06 -6.76219e+06 0 
0 0 0 
-1.0151e+07 -1.48132e+06 0 
-1.48132e+06 -5.17503e+06 0 
0 0 0 
1.9631e+07 220093 0 
220093 -4.19212e+06 0 
0 0 0 
-3.75526e+06 -6.48591e+06 0 
-6.48591e+06 -8.01407e+06 0 
0 0 0 
-1.30482e+07 9.03161e+06 0 
9.03161e+06 -2.094e+07 0 
0 0 0 
-3.24553e+07 2.75594e+06 0 
2.75594e+06 -4.05451e+07 0 
0 0 0 
-3.89249e+07 -1.43159e+06 0 
-1.43159e+06 -5.33278e+07 0 
0 0 0 
-1.01353e+07 -6.57501e+06 0 
-6.57501e+06 -3.83388e+07 0 
0 0 0 
-1.25234e+07 -3.0355e+06 0 
-3.0355e+06 -2.47792e+07 0 
0 0 0 
2.57374e+07 1.97789e+06 0 
1.97789e+06 671767 0 
0 0 0 
-2.43206e+07 8.8817e+06 0 
8.8817e+06 1.41437e+07 0 
0 0 0 
4.78869e+07 1.22677e+07 0 
1.22677e+07 2.09857e+07 0 
0 0 0 
-1.41033e+07 8.85702e+06 0 
8.85702e+06 -3.8535e+06 0 
0 0 0 
-1.07621e+06 -9.53962e+06 0 
-9.53962e+06 -7.72563e+06 0 
0 0 0 
-4.7565e+07 -1.46905e+07 0 
-1.46905e+07 -3.72725e+07 0 
0 0 0 
-2.52002e+07 -1.19697e+07 0 
-1.19697e+07 -2.15141e+07 0 
0 0 0 
-1.32796e+07 -2.331e+06 0 
-2.331e+06 -1.88066e+07 0 
0 0 0 
923029 1.40809e+07 0 
1.40809e+07 -1.18333e+07 0 
0 0 0 
-3.5667e+07 1.97789e+07 0 
1.97789e+07 -1.46698e+07 0 
0 0 0 
1.69163e+07 1.13447e+07 0 
1.13447e+07 -6.24583e+06 0 
0 0 0 
-4.55226e+06 -5.54693e+06 0 
-5.54693e+06 -3.21232e+06 0 
0 0 0 
5.52749e+07 3.16905e+06 0 
3.16905e+06 1.7512e+07 0 
0 0 0 
1.13565e+07 5.44273e+06 0 
5.44273e+06 -1.2129e+07 0 
0 0 0 
-9.71629e+06 2.61456e+06 0 
2.61456e+06 -3.89712e+07 0 
0 0 0 
-1.39208e+07 669843 0 
669843 -4.47775e+07 0 
0 0 0 
-2.86718e+07 -1.07243e+07 0 
-1.07243e+07 -4.37011e+07 0 
0 0 0 
-2.99084e+06 -4.09507e+06 0 
-4.09507e+06 -3.55013e+07 0 
0 0 0 
-4.6491e+07 -1.34947e+06 0 
-1.34947e+06 -2.37491e+07 0 
0 0 0 
1.54655e+07 9.58305e+06 0 
9.58305e+06 1.48533e+07 0 
0 0 0 
1.197e+07 6.40407e+06 0 
6.40407e+06 8.90688e+06 0 
0 0 0 
231549 313739 0 
313739 -4.01663e+06 0 
0 0 0 
368121 4.88353e+06 0 
4.88353e+06 -3.27124e+07 0 
0 0 0 
-3.97669e+07 -4.89746e+06 0 
-4.89746e+06 -6.85327e+07 0 
0 0 0 
1.21239e+07 254118 0 
254118 -6.02972e+07 0 
0 0 0 
-1.36901e+07 -1.7102e+06 0 
-1.7102e+06 -7.01577e+07 0 
0 0 0 
1.0147e+07 4.50896e+06 0 
4.50896e+06 -5.06082e+07 0 
0 0 0 
-8.55156e+07 1.05717e+07 0 
1.05717e+07 -8.79794e+07 0 
0 0 0 
-2.01997e+07 2.28247e+07 0 
2.28247e+07 -6.32112e+07 0 
0 0 0 
-3.59006e+07 1.06934e+07 0 
1.06934e+07 -4.39052e+07 0 
0 0 0 
2.02378e+07 -1.91145e+06 0 
-1.91145e+06 -9.96821e+06 0 
0 0 0 
1.28069e+07 -540870 0 
-540870 -1.24393e+07 0 
0 0 0 
2.37065e+06 -1.23239e+07 0 
-1.23239e+07 -2.3293e+07 0 
0 0 0 
-1.73132e+07 -1.40981e+07 0 
-1.40981e+07 -2.77731e+07 0 
0 0 0 
3.71432e+07 -2.28e+06 0 
-2.28e+06 -1.26199e+07 0 
0 0 0 
-3.64367e+07 -4.40746e+06 0 
-4.40746e+06 -3.20359e+07 0 
0 0 0 
1.37275e+07 1.49653e+06 0 
1.49653e+06 -1.81414e+07 0 
0 0 0 
-3.36895e+07 1.04297e+07 0 
1.04297e+07 -5.88044e+07 0 
0 0 0 
7.54737e+06 7.90469e+06 0 
7.90469e+06 -6.20343e+07 0 
0 0 0 
-7.66774e+06 -2.02325e+06 0 
-2.02325e+06 -8.09641e+07 0 
0 0 0 
-4.67273e+07 -1.43896e+07 0 
-1.43896e+07 -9.36708e+07 0 
0 0 0 
-5.8303e+07 -5.43006e+06 0 
-5.43006e+06 -9.23431e+07 0 
0 0 0 
-4.09653e+07 -1.00515e+07 0 
-1.00515e+07 -4.00174e+07 0 
0 0 0 
-3.87829e+07 -7.77722e+06 0 
-7.77722e+06 -7.33669e+07 0 
0 0 0 
0 0 0 
0 0 0 
0 0 0 
-1.91623e+07 5.82482e+06 0 
5.82482e+06 -3.65441e+07 0 
0 0 0 
-3.88997e+07 -3.60392e+06 0 
-3.60392e+06 -7.80541e+07 0 
0 0 0 
-4.41142e+07 -1.58329e+07 0 
-1.58329e+07 -7.81273e+07 0 
0 0 0 
-1.834e+07 -1.02136e+07 0 
-1.02136e+07 -1.93827e+07 0 
0 0 0 
724206 -2.19243e+06 0 
-2.19243e+06 -3.38541e+07 0 
0 0 0 
1.10081e+07 8.28894e+06 0 
8.28894e+06 -3.17668e+07 0 
0 0 0 
3.41001e+07 -7.77687e+06 0 
-7.77687e+06 -2.60998e+07 0 
0 0 0 
5.20837e+07 -2.1839e+06 0 
-2.1839e+06 2.89828e+06 0 
0 0 0 
5.36079e+07 -1.55701e+07 0 
-1.55701e+07 4.25991e+07 0 
0 0 0 
3.96026e+07 2.67665e+06 0 
2.67665e+06 3.32087e+07 0 
0 0 0 
2.75332e+07 -7.67726e+06 0 
-7.67726e+06 -4.01272e+07 0 
0 0 0 
4.82531e+07 -452634 0 
-452634 2.72846e+07 0 
0 0 0 
4.29543e+07 -1.67926e+07 0 
-1.67926e+07 3.40943e+06 0 
0 0 0 
2.89995e+07 -1.21677e+07 0 
-1.21677e+07 7.19451e+06 0 
0 0 0 
1.66954e+07 -1.04068e+07 0 
-1.04068e+07 2.75416e+07 0 
0 0 0 
2.36678e+06 -1.86444e+07 0 
-1.86444e+07 -9.0317e+06 0 
0 0 0 
505501 -2.92146e+07 0 
-2.92146e+07 -1.10683e+06 0 
0 0 0 
-1.6802e+07 -1.24716e+07 0 
-1.24716e+07 -580645 0 
0 0 0 
2.14383e+07 9.81171e+06 0 
9.81171e+06 5.17331e+07 0 
0 0 0 
7.29685e+07 1.87329e+07 0 
1.87329e+07 7.06773e+07 0 
0 0 0 
5.96889e+07 2.98737e+07 0 
2.98737e+07 3.37529e+07 0 
0 0 0 
5.95321e+07 1.7675e+07 0 
1.7675e+07 5.70626e+07 0 
0 0 0 
2.70282e+07 2.29155e+07 0 
2.29155e+07 2.49918e+07 0 
0 0 0 
5.01858e+06 1.32249e+07 0 
1.32249e+07 1.76201e+07 0 
0 0 0 
-3.35198e+07 1.30089e+07 0 
1.30089e+07 -1.96167e+06 0 
0 0 0 
-6.25163e+07 8.49158e+06 0 
8.49158e+06 -6.87454e+06 0 
0 0 0 
-5.41484e+07 -5.41882e+06 0 
-5.41882e+06 9.60427e+06 0 
0 0 0 
-2.77388e+07 7.55068e+06 0 
7.55068e+06 4.21837e+07 0 
0 0 0 
-5.17125e+06 -2.62382e+06 0 
-2.62382e+06 2.60131e+07 0 
0 0 0 
1.32657e+07 1.48798e+07 0 
1.48798e+07 3.65101e+07 0 
0 0 0 
2.28437e+06 5.40347e+06 0 
5.40347e+06 2.54702e+07 0 
0 0 0 
-1.04871e+07 5.41749e+06 0 
5.41749e+06 -8.15528e+06 0 
0 0 0 
-1.66559e+07 4.06574e+06 0 
4.06574e+06 1.20728e+07 0 
0 0 0 
1.32832e+07 1.3073e+07 0 
1.3073e+07 7.46287e+07 0 
0 0 0 
2.87978e+07 1.61724e+07 0 
1.61724e+07 3.90637e+07 0 
0 0 0 
7.39103e+06 4.61958e+06 0 
4.61958e+06 8.52248e+06 0 
0 0 0 
-4.47631e+07 1.10618e+07 0 
1.10618e+07 -3.93941e+07 0 
0 0 0 
-3.28718e+07 1.69666e+07 0 
1.69666e+07 -3.62181e+06 0 
0 0 0 
-3.35473e+07 1.79561e+07 0 
1.79561e+07 -1.37276e+07 0 
0 0 0 
-1.42876e+07 1.46353e+07 0 
1.46353e+07 1.10727e+07 0 
0 0 0 
-2.65751e+06 6.95184e+06 0 
6.95184e+06 1.71374e+07 0 
0 0 0 
7.60106e+06 -7.03623e+06 0 
-7.03623e+06 -1.20345e+07 0 
0 0 0 
2.56016e+07 -2.27985e+06 0 
-2.27985e+06 3.01708e+07 0 
0 0 0 
-1.07661e+07 1.04518e+06 0 
1.04518e+06 -5.55316e+07 0 
0 0 0 
1.32533e+07 -560963 0 
-560963 1.13168e+07 0 
0 0 0 
1.38899e+07 -721404 0 
-721404 1.55872e+06 0 
0 0 0 
-8.85978e+06 -7.44711e+06 0 
-7.44711e+06 -2.99184e+07 0 
0 0 0 
-9.91609e+06 3.74891e+06 0 
3.74891e+06 -2.40587e+07 0 
0 0 0 
-6.70965e+06 -5.71403e+06 0 
-5.71403e+06 -2.10127e+07 0 
0 0 0 
2.30399e+07 -1.33959e+07 0 
-1.33959e+07 1.28404e+07 0 
0 0 0 
1.42205e+07 -5.5126e+06 0 
-5.5126e+06 -4.32512e+07 0 
0 0 0 
3.07072e+07 -2.24691e+07 0 
-2.24691e+07 -56237.1 0 
0 0 0 
2.23667e+07 -1.4096e+07 0 
-1.4096e+07 -1.86094e+07 0 
0 0 0 
0 0 0 
0 0 0 
0 0 0 
-750015 -5.79031e+06 0 
-5.79031e+06 -7.87736e+06 0 
0 0 0 
-9.67321e+06 1.4286e+06 0 
1.4286e+06 -1.20136e+07 0 
0 0 0 
-1.84152e+07 1.47434e+06 0 
1.47434e+06 -1.99364e+06 0 
0 0 0 
4.05277e+07 -5.37887e+06 0 
-5.37887e+06 2.73096e+07 0 
0 0 0 
4.51606e+06 1.6726e+06 0 
1.6726e+06 2.46049e+07 0 
0 0 0 
4.11585e+06 -7.67528e+06 0 
-7.67528e+06 2.38303e+07 0 
0 0 0 
-1.96684e+07 -1.64902e+06 0 
-1.64902e+06 805795 0 
0 0 0 
-1.74176e+07 207266 0 
207266 3.23474e+06 0 
0 0 0 
3.73304e+06 9.28795e+06 0 
9.28795e+06 2.18238e+07 0 
0 0 0 
1.49026e+07 4.8628e+06 0 
4.8628e+06 3.98873e+07 0 
0 0 0 
5.53893e+07 1.2694e+07 0 
1.2694e+07 5.2936e+07 0 
0 0 0 
-2.70446e+07 2.313e+06 0 
2.313e+06 3.9094e+06 0 
0 0 0 
3.36857e+07 -1.55667e+06 0 
-1.55667e+06 1.14576e+07 0 
0 0 0 
-3.30678e+07 4.9562e+06 0 
4.9562e+06 -3.83479e+07 0 
0 0 0 
-3.20379e+07 -1.90371e+07 0 
-1.90371e+07 -5.14703e+07 0 
0 0 0 
-3.94667e+07 -1.0146e+07 0 
-1.0146e+07 -6.00541e+07 0 
0 0 0 
-4.40658e+07 -9.76332e+06 0 
-9.76332e+06 -6.05657e+07 0 
0 0 0 
-2.44162e+06 -3.32618e+06 0 
-3.32618e+06 -2.56693e+07 0 
0 0 0 
2.8511e+07 1.41134e+07 0 
1.41134e+07 1.48466e+06 0 
0 0 0 
-4.41626e+07 5.78616e+06 0 
5.78616e+06 -2.2243e+07 0 
0 0 0 
3.90904e+06 1.18489e+07 0 
1.18489e+07 -7.74091e+06 0 
0 0 0 
-2.29052e+07 1.53219e+07 0 
1.53219e+07 -1.50732e+07 0 
0 0 0 
6.35615e+07 -1.82264e+06 0 
-1.82264e+06 6.53347e+06 0 
0 0 0 
-254958 2.74708e+06 0 
2.74708e+06 -2.49418e+07 0 
0 0 0 
1.47227e+06 -3.30836e+06 0 
-3.30836e+06 -1.41094e+07 0 
0 0 0 
-1.96791e+07 -70193.3 0 
-70193.3 -3.09398e+07 0 
0 0 0 
-2.44505e+07 -3.05617e+06 0 
-3.05617e+06 -3.81989e+07 0 
0 0 0 
-2.99199e+06 -862651 0 
-862651 -2.21057e+07 0 
0 0 0 
-3.10848e+07 3.92975e+06 0 
3.92975e+06 -3.7966e+07 0 
0 0 0 
9.82213e+06 6.75806e+06 0 
6.75806e+06 -1.40663e+07 0 
0 0 0 
6.39719e+06 8.3417e+06 0 
8.3417e+06 -277481 0 
0 0 0 
-2.03788e+06 -1.08136e+06 0 
-1.08136e+06 2.38914e+06 0 
0 0 0 
4.42819e+06 -3.51814e+06 0 
-3.51814e+06 2.19753e+07 0 
0 0 0 
99752.1 -1.23553e+07 0 
-1.23553e+07 2.76264e+07 0 
0 0 0 
3.98329e+07 -1.51629e+07 0 
-1.51629e+07 3.69524e+07 0 
0 0 0 
2.52927e+07 -4.20089e+06 0 
-4.20089e+06 3.55276e+07 0 
0 0 0 
4.1371e+07 -1.94579e+06 0 
-1.94579e+06 2.60894e+07 0 
0 0 0 
-4.47524e+07 2.58318e+06 0 
2.58318e+06 -7.28791e+06 0 
0 0 0 
1.00163e+07 1.47416e+07 0 
1.47416e+07 7.11682e+06 0 
0 0 0 
-5.30091e+07 1.84106e+07 0 
1.84106e+07 -2.65111e+07 0 
0 0 0 
2.9621e+07 1.06067e+07 0 
1.06067e+07 1.11408e+07 0 
0 0 0 
1.65644e+06 2.69704e+06 0 
2.69704e+06 1.62221e+07 0 
0 0 0 
2.62591e+07 -7.21842e+06 0 
-7.21842e+06 2.95474e+07 0 
0 0 0 
5.91398e+06 -1.53427e+06 0 
-1.53427e+06 3.00459e+07 0 
0 0 0 
4.26773e+07 -6.11886e+06 0 
-6.11886e+06 4.3861e+07 0 
0 0 0 
-9.67292e+06 -2.8286e+06 0 
-2.8286e+06 2.40525e+07 0 
0 0 0 
4.74642e+07 -7.39157e+06 0 
-7.39157e+06 6.14557e+07 0 
0 0 0 
7.9969e+06 -3.28859e+06 0 
-3.28859e+06 5.34277e+07 0 
0 0 0 
4.36671e+07 -6.74269e+06 0 
-6.74269e+06 5.76538e+07 0 
0 0 0 
1.84534e+07 -6.88926e+06 0 
-6.88926e+06 4.16433e+07 0 
0 0 0 
-5.11864e+06 -2.11796e+06 0 
-2.11796e+06 2.10703e+07 0 
0 0 0 
-2.0935e+07 1.20654e+06 0 
1.20654e+06 9.77451e+06 0 
0 0 0 
-1.25341e+06 3.92989e+06 0 
3.92989e+06 1.03233e+07 0 
0 0 0 
-853688 3.62626e+06 0 
3.62626e+06 -4.95476e+07 0 
0 0 0 
-794627 -7.58211e+06 0 
-7.58211e+06 2.72838e+06 0 
0 0 0 
0 0 0 
0 0 0 
0 0 0 
-1.18802e+07 -42030.5 0 
-42030.5 -2.9154e+07 0 
0 0 0 
-2.50083e+07 -479615 0 
-479615 -9.63096e+07 0 
0 0 0 
1.84776e+06 -9.2631e+06 0 
-9.2631e+06 -6.30591e+07 0 
0 0 0 
2.08e+07 -6.18668e+06 0 
-6.18668e+06 5.30438e+06 0 
0 0 0 
2.22624e+07 8.66345e+06 0 
8.66345e+06 -3.71826e+06 0 
0 0 0 
1.16801e+07 1.23587e+07 0 
1.23587e+07 -3.77084e+07 0 
0 0 0 
-2.46519e+06 8.23879e+06 0 
8.23879e+06 -4.88122e+07 0 
0 0 0 
1.92014e+07 -1.29142e+07 0 
-1.29142e+07 -1.73852e+07 0 
0 0 0 
4.77352e+07 -1.75846e+07 0 
-1.75846e+07 3.93353e+07 0 
0 0 0 
4.47882e+07 2.90998e+06 0 
2.90998e+06 4.01818e+07 0 
0 0 0 
-7.1088e+06 -9.18504e+06 0 
-9.18504e+06 -4.19007e+07 0 
0 0 0 
8.89705e+06 -36580.8 0 
-36580.8 -4.79233e+06 0 
0 0 0 
1.33906e+07 -7.61121e+06 0 
-7.61121e+06 -8.72119e+06 0 
0 0 0 
1.46056e+07 -2.10979e+07 0 
-2.10979e+07 -2.24974e+06 0 
0 0 0 
2.96616e+07 -1.36866e+07 0 
-1.36866e+07 5.47956e+07 0 
0 0 0 
2.16509e+07 525146 0 
525146 -8.93401e+06 0 
0 0 0 
2.98171e+07 -1.57135e+07 0 
-1.57135e+07 -5.58454e+07 0 
0 0 0 
-2.72529e+07 5.68864e+06 0 
5.68864e+06 2.90677e+07 0 
0 0 0 
5.08196e+06 6.99337e+06 0 
6.99337e+06 5.76994e+07 0 
0 0 0 
1.02546e+08 2.86226e+07 0 
2.86226e+07 4.76059e+07 0 
0 0 0 
5.9253e+07 1.23671e+07 0 
1.23671e+07 -1.1465e+06 0 
0 0 0 
6.2377e+07 1.41972e+06 0 
1.41972e+06 8.89706e+07 0 
0 0 0 
2.61922e+07 8.68404e+06 0 
8.68404e+06 -3.31887e+06 0 
0 0 0 
2.63421e+07 -6.46326e+06 0 
-6.46326e+06 3.1866e+07 0 
0 0 0 
3.74386e+07 4.29176e+06 0 
4.29176e+06 1.6894e+07 0 
0 0 0 
4.63672e+07 -4.20491e+06 0 
-4.20491e+06 2.17693e+07 0 
0 0 0 
5.4132e+07 3.08372e+06 0 
3.08372e+06 6.3758e+07 0 
0 0 0 
7.70205e+07 1.57531e+07 0 
1.57531e+07 6.85484e+07 0 
0 0 0 
8.04672e+07 8.84487e+06 0 
8.84487e+06 5.29709e+07 0 
0 0 0 
7.49991e+07 3.01936e+06 0 
3.01936e+06 5.42717e+07 0 
0 0 0 
6.39474e+07 -1.1766e+06 0 
-1.1766e+06 3.71787e+07 0 
0 0 0 
4.70154e+07 -6.38031e+06 0 
-6.38031e+06 2.86211e+07 0 
0 0 0 
4.74652e+07 -722201 0 
-722201 3.74578e+07 0 
0 0 0 
5.29588e+07 1.43038e+07 0 
1.43038e+07 7.83508e+07 0 
0 0 0 
5.97221e+06 6.84417e+06 0 
6.84417e+06 3.50978e+07 0 
0 0 0 
9.89968e+06 -2.59681e+06 0 
-2.59681e+06 6.55201e+06 0 
0 0 0 
1.71693e+07 -1.73523e+06 0 
-1.73523e+06 -9.81255e+06 0 
0 0 0 
-4.36823e+06 1.23535e+07 0 
1.23535e+07 1.53665e+07 0 
0 0 0 
-9.55446e+06 1.47058e+07 0 
1.47058e+07 -1.48868e+06 0 
0 0 0 
-6.58811e+06 1.95087e+07 0 
1.95087e+07 8.12504e+06 0 
0 0 0 
-1.72725e+07 2.38872e+06 0 
2.38872e+06 -1.67998e+07 0 
0 0 0 
-2.30607e+07 -3.95338e+06 0 
-3.95338e+06 -1.73411e+07 0 
0 0 0 
-2.38753e+07 -6.50746e+06 0 
-6.50746e+06 1.69356e+07 0 
0 0 0 
-7.50391e+07 -6.80798e+06 0 
-6.80798e+06 -8.25189e+07 0 
0 0 0 
-6.42282e+07 -832083 0 
-832083 -1.36235e+07 0 
0 0 0 
-6.75308e+07 -1.63794e+06 0 
-1.63794e+06 -7.84629e+06 0 
0 0 0 
-6.42076e+07 3.37451e+06 0 
3.37451e+06 -6.4985e+07 0 
0 0 0 
-4.11741e+07 -3.25994e+06 0 
-3.25994e+06 -2.78072e+07 0 
0 0 0 
-2.92613e+07 2.37516e+06 0 
2.37516e+06 -3.21868e+07 0 
0 0 0 
4.88837e+06 4.88223e+06 0 
4.88223e+06 1.54578e+07 0 
0 0 0 
-8.69561e+06 1.78279e+06 0 
1.78279e+06 -6.85242e+07 0 
0 0 0 
2.04337e+07 -1.67763e+07 0 
-1.67763e+07 -2.85821e+06 0 
0 0 0 
2.24995e+07 -1.71455e+07 0 
-1.71455e+07 -1.34216e+07 0 
0 0 0 
544651 -1.08418e+07 0 
-1.08418e+07 -4.75811e+07 0 
0 0 0 
0 0 0 
0 0 0 
0 0 0 
-5.14952e+06 -2.22979e+06 0 
-2.22979e+06 5.09167e+06 0 
0 0 0 
1.92993e+06 -1.65785e+06 0 
-1.65785e+06 1.23647e+07 0 
0 0 0 
-1.24818e+07 4.34943e+06 0 
4.34943e+06 5.59284e+06 0 
0 0 0 
3.28754e+07 -657946 0 
-657946 2.22627e+07 0 
0 0 0 
-1.40359e+07 -1.25271e+07 0 
-1.25271e+07 -8.72561e+06 0 
0 0 0 
-1.60332e+06 -9.87914e+06 0 
-9.87914e+06 -1.13016e+07 0 
0 0 0 
-2.51162e+07 -1.2577e+07 0 
-1.2577e+07 -2.17641e+07 0 
0 0 0 
-947509 2.48043e+06 0 
2.48043e+06 -2.27636e+07 0 
0 0 0 
-1.04126e+07 1.7412e+07 0 
1.7412e+07 -1.93025e+07 0 
0 0 0 
-324569 1.55134e+07 0 
1.55134e+07 -1.4406e+07 0 
0 0 0 
2.52118e+07 3.22596e+06 0 
3.22596e+06 -1.10154e+07 0 
0 0 0 
-4.40387e+07 1.60362e+06 0 
1.60362e+06 -2.86603e+07 0 
0 0 0 
3.27108e+07 -3.7201e+06 0 
-3.7201e+06 7.91297e+06 0 
0 0 0 
-4.04606e+07 -5.75754e+06 0 
-5.75754e+06 -1.47853e+07 0 
0 0 0 
-3.62904e+06 -6.61473e+06 0 
-6.61473e+06 597424 0 
0 0 0 
-2.09742e+07 -1.02016e+07 0 
-1.02016e+07 1.38477e+07 0 
0 0 0 
-3.02216e+06 2.80714e+06 0 
2.80714e+06 3.29286e+07 0 
0 0 0 
2.89218e+07 1.21469e+07 0 
1.21469e+07 4.89189e+07 0 
0 0 0 
3.93546e+07 1.36273e+07 0 
1.36273e+07 4.78792e+07 0 
0 0 0 
-2.98156e+07 1.82944e+06 0 
1.82944e+06 1.61714e+07 0 
0 0 0 
1.36775e+07 773360 0 
773360 1.30262e+07 0 
0 0 0 
-2.62668e+07 5.74856e+06 0 
5.74856e+06 -1.4439e+07 0 
0 0 0 
4.19971e+07 -1.16784e+07 0 
-1.16784e+07 3.22789e+06 0 
0 0 0 
1.35494e+07 -5.43688e+06 0 
-5.43688e+06 -8.09116e+06 0 
0 0 0 
-4.45441e+06 -3.55044e+06 0 
-3.55044e+06 -2.19031e+07 0 
0 0 0 
-1.77759e+07 -9.68077e+06 0 
-9.68077e+06 -1.98911e+07 0 
0 0 0 
-2.07612e+07 -9.35653e+06 0 
-9.35653e+06 -1.94572e+07 0 
0 0 0 
7.43151e+06 -2.26192e+06 0 
-2.26192e+06 -9.5876e+06 0 
0 0 0 
1.97016e+06 8.68018e+06 0 
8.68018e+06 -35892.5 0 
0 0 0 
1.45417e+07 1.84142e+07 0 
1.84142e+07 1.7042e+06 0 
0 0 0 
8.35494e+06 9.00138e+06 0 
9.00138e+06 -5.74582e+06 0 
0 0 0 
-2.25507e+07 2.29134e+06 0 
2.29134e+06 -1.31898e+07 0 
0 0 0 
-2.44881e+07 -1.13175e+06 0 
-1.13175e+06 -2.31341e+07 0 
0 0 0 
-7.66084e+06 -9.21586e+06 0 
-9.21586e+06 -1.67452e+07 0 
0 0 0 
2.88102e+07 -1.2044e+06 0 
-1.2044e+06 1.92083e+07 0 
0 0 0 
2.45068e+07 -6.85981e+06 0 
-6.85981e+06 1.86332e+07 0 
0 0 0 
3.98244e+07 -9.00224e+06 0 
-9.00224e+06 2.06479e+07 0 
0 0 0 
-3.86575e+07 -3.45338e+06 0 
-3.45338e+06 -2.06055e+07 0 
0 0 0 
2.161e+06 3.70982e+06 0 
3.70982e+06 -3.47303e+07 0 
0 0 0 
-4.84508e+07 1.5278e+07 0 
1.5278e+07 -6.52765e+07 0 
0 0 0 
-8.16452e+06 2.08492e+07 0 
2.08492e+07 -5.06064e+07 0 
0 0 0 
-2.70537e+07 7.48342e+06 0 
7.48342e+06 -5.42577e+07 0 
0 0 0 
-4.11422e+06 431596 0 
431596 -4.29065e+07 0 
0 0 0 
-2.01638e+07 -4.98898e+06 0 
-4.98898e+06 -3.67818e+07 0 
0 0 0 
6.49865e+06 -1.1512e+07 0 
-1.1512e+07 -3.17629e+07 0 
0 0 0 
-2.50737e+07 3.52342e+06 0 
3.52342e+06 -4.33039e+07 0 
0 0 0 
2.08562e+07 3.34086e+06 0 
3.34086e+06 -3.0497e+07 0 
0 0 0 
-2.79711e+07 -7.60952e+06 0 
-7.60952e+06 -5.42067e+07 0 
0 0 0 
5.95426e+06 298852 0 
298852 -4.40802e+07 0 
0 0 0 
-1.16805e+07 -1.60618e+07 0 
-1.60618e+07 -5.02528e+07 0 
0 0 0 
-2.79764e+07 -7.92122e+06 0 
-7.92122e+06 -4.47111e+07 0 
0 0 0 
-2.4761e+07 -7.86554e+06 0 
-7.86554e+06 -3.11072e+07 0 
0 0 0 
-1.72291e+07 -7.2196e+06 0 
-7.2196e+06 -3.63022e+07 0 
0 0 0 
-2.57449e+07 -788622 0 
-788622 -3.78444e+07 0 
0 0 0 
5.67852e+06 -1.16386e+07 0 
-1.16386e+07 17581.8 0 
0 0 0 
6.4788e+06 -1.16004e+06 0 
-1.16004e+06 -1.61269e+07 0 
0 0 0 
0 0 0 
0 0 0 
0 0 0 
-1.34377e+07 -4.02019e+06 0 
-4.02019e+06 -4.03149e+07 0 
0 0 0 
-2.55438e+07 7.41524e+06 0 
7.41524e+06 -8.66882e+07 0 
0 0 0 
-1.03406e+07 -362778 0 
-362778 -6.84148e+07 0 
0 0 0 
3.12209e+07 877582 0 
877582 1.51728e+07 0 
0 0 0 
2.73215e+07 1.0297e+07 0 
1.0297e+07 6.28296e+06 0 
0 0 0 
3.38786e+06 -3.08758e+06 0 
-3.08758e+06 -4.27078e+07 0 
0 0 0 
-1.99731e+07 -5.27776e+06 0 
-5.27776e+06 -6.56925e+07 0 
0 0 0 
-2.04139e+07 -2.09507e+06 0 
-2.09507e+06 -5.52181e+07 0 
0 0 0 
4.98073e+07 -9.7682e+06 0 
-9.7682e+06 6.95556e+07 0 
0 0 0 
3.65435e+07 -7.74525e+06 0 
-7.74525e+06 2.03055e+07 0 
0 0 0 
4.29787e+07 -1.06821e+07 0 
-1.06821e+07 -2.24464e+07 0 
0 0 0 
3.46207e+07 -1.87176e+07 0 
-1.87176e+07 -1.13464e+07 0 
0 0 0 
584456 -2.36867e+07 0 
-2.36867e+07 -1.63904e+07 0 
0 0 0 
184390 -3.25959e+07 0 
-3.25959e+07 -1.83449e+07 0 
0 0 0 
3.1299e+07 -2.62623e+07 0 
-2.62623e+07 7.93412e+07 0 
0 0 0 
8.54244e+06 -7.17884e+06 0 
-7.17884e+06 2.27934e+07 0 
0 0 0 
-2.01251e+07 2.34317e+06 0 
2.34317e+06 -1.81184e+07 0 
0 0 0 
-1.00449e+08 1.47015e+07 0 
1.47015e+07 -6.96788e+07 0 
0 0 0 
-1.11072e+08 1.33619e+07 0 
1.33619e+07 -6.58294e+07 0 
0 0 0 
-1.69682e+07 -1.43957e+06 0 
-1.43957e+06 4.05637e+07 0 
0 0 0 
-3.64992e+07 -1.24917e+07 0 
-1.24917e+07 -3.22716e+07 0 
0 0 0 
-2.13598e+07 -1.16492e+06 0 
-1.16492e+06 6.48758e+07 0 
0 0 0 
-5.3394e+07 2.15772e+06 0 
2.15772e+06 -2.42748e+07 0 
0 0 0 
-3.17426e+07 5.46612e+06 0 
5.46612e+06 5.3598e+06 0 
0 0 0 
-3.93291e+07 6.05932e+06 0 
6.05932e+06 -1.08059e+07 0 
0 0 0 
-2.8203e+07 -702972 0 
-702972 1.28292e+06 0 
0 0 0 
2.38919e+07 3.53645e+06 0 
3.53645e+06 5.89154e+07 0 
0 0 0 
1.65886e+06 3.93111e+06 0 
3.93111e+06 4.8227e+07 0 
0 0 0 
-1.04434e+07 1.35084e+07 0 
1.35084e+07 2.94905e+07 0 
0 0 0 
-1.23343e+07 4.58669e+06 0 
4.58669e+06 5.46469e+06 0 
0 0 0 
-2.56337e+07 -1.31887e+06 0 
-1.31887e+06 4.92568e+06 0 
0 0 0 
-3.45154e+07 -1.6552e+07 0 
-1.6552e+07 -1.65159e+06 0 
0 0 0 
-2.0613e+07 -2.72903e+06 0 
-2.72903e+06 3.29598e+07 0 
0 0 0 
-1.47533e+07 -1.24276e+06 0 
-1.24276e+06 5.36778e+07 0 
0 0 0 
-1.38407e+07 9.67999e+06 0 
9.67999e+06 2.36887e+07 0 
0 0 0 
-2.89026e+07 1.68701e+06 0 
1.68701e+06 -6.00811e+06 0 
0 0 0 
-2.21294e+07 3.82637e+06 0 
3.82637e+06 4.76919e+06 0 
0 0 0 
1.69173e+07 1.77888e+07 0 
1.77888e+07 2.04439e+07 0 
0 0 0 
1.23204e+07 2.04634e+07 0 
2.04634e+07 1.48991e+07 0 
0 0 0 
-7.3691e+06 1.23109e+07 0 
1.23109e+07 1.86274e+06 0 
0 0 0 
-5.28906e+07 2.81107e+06 0 
2.81107e+06 -6.35155e+07 0 
0 0 0 
-5.50551e+07 -8.92192e+06 0 
-8.92192e+06 -2.20176e+07 0 
0 0 0 
-2.22239e+07 -6.03804e+06 0 
-6.03804e+06 1.85162e+07 0 
0 0 0 
-2.63777e+07 -6.2013e+06 0 
-6.2013e+06 -6.06454e+07 0 
0 0 0 
-7.13536e+06 3.76713e+06 0 
3.76713e+06 7.14854e+06 0 
0 0 0 
1.83778e+07 4.81692e+06 0 
4.81692e+06 1.82922e+07 0 
0 0 0 
1.14227e+07 1.57035e+06 0 
1.57035e+06 -2.96047e+07 0 
0 0 0 
1.76055e+07 8.81261e+06 0 
8.81261e+06 -2.02887e+07 0 
0 0 0 
1.22797e+07 7.04611e+06 0 
7.04611e+06 2.4233e+06 0 
0 0 0 
5.47781e+06 7.5297e+06 0 
7.5297e+06 4.04031e+06 0 
0 0 0 
-2.87423e+07 -507658 0 
-507658 -8.03959e+07 0 
0 0 0 
-7.55081e+06 -7.96347e+06 0 
-7.96347e+06 -1.84998e+07 0 
0 0 0 
5.65832e+06 -1.4052e+07 0 
-1.4052e+07 -3.45098e+07 0 
0 0 0 
1.72444e+07 -1.56304e+07 0 
-1.56304e+07 -2.7743e+07 0 
0 0 0 
3.07098e+07 -6.74994e+06 0 
-6.74994e+06 1.6661e+07 0 
0 0 0 
0 0 0 
0 0 0 
0 0 0 
-1.25413e+07 -1.05633e+06 0 
-1.05633e+06 -1.79698e+06 0 
0 0 0 
1.34499e+07 8.93873e+06 0 
8.93873e+06 7.87632e+06 0 
0 0 0 
-2.80124e+07 7.32741e+06 0 
7.32741e+06 -1.10132e+07 0 
0 0 0 
1.37673e+07 -4.11967e+06 0 
-4.11967e+06 493786 0 
0 0 0 
-2.49653e+07 -1.08313e+07 0 
-1.08313e+07 5.77288e+06 0 
0 0 0 
2.31957e+07 -1.5342e+07 0 
-1.5342e+07 2.35251e+07 0 
0 0 0 
1.89936e+07 -1.73595e+06 0 
-1.73595e+06 3.31231e+07 0 
0 0 0 
2.11036e+07 3.85165e+06 0 
3.85165e+06 3.88292e+07 0 
0 0 0 
1.621e+07 1.43329e+07 0 
1.43329e+07 2.51947e+07 0 
0 0 0 
-2.44462e+06 4.77896e+06 0 
4.77896e+06 1.82328e+07 0 
0 0 0 
2.53836e+07 -5.48486e+06 0 
-5.48486e+06 9.9806e+06 0 
0 0 0 
-4.33432e+07 -1.67405e+06 0 
-1.67405e+06 -3.92949e+07 0 
0 0 0 
820430 -5.33166e+06 0 
-5.33166e+06 -4.32931e+07 0 
0 0 0 
-5.10411e+07 -6.38014e+06 0 
-6.38014e+06 -6.54113e+07 0 
0 0 0 
-2.3846e+07 -9.24134e+06 0 
-9.24134e+06 -5.80574e+07 0 
0 0 0 
-2.96128e+07 4.47383e+06 0 
4.47383e+06 -4.5093e+07 0 
0 0 0 
-5.60809e+06 9.88894e+06 0 
9.88894e+06 -1.66425e+07 0 
0 0 0 
-2.83091e+06 9.68599e+06 0 
9.68599e+06 -6.94764e+06 0 
0 0 0 
1.58242e+07 3.62573e+06 0 
3.62573e+06 -1.11692e+07 0 
0 0 0 
-4.8961e+07 917570 0 
917570 -4.45638e+07 0 
0 0 0 
-1.58213e+06 874377 0 
874377 -1.17601e+07 0 
0 0 0 
-1.46507e+07 6.18956e+06 0 
6.18956e+06 -1.34875e+07 0 
0 0 0 
2.8283e+07 5.01349e+06 0 
5.01349e+06 1.89253e+07 0 
0 0 0 
3.24362e+07 -1.04298e+06 0 
-1.04298e+06 3.47187e+07 0 
0 0 0 
-2.73123e+06 -6.18355e+06 0 
-6.18355e+06 1.45399e+07 0 
0 0 0 
-1.25587e+07 -6.28096e+06 0 
-6.28096e+06 7.08247e+06 0 
0 0 0 
-2.61418e+06 -5.42041e+06 0 
-5.42041e+06 1.29443e+07 0 
0 0 0 
1.7415e+07 -114960 0 
-114960 1.2983e+07 0 
0 0 0 
1.93962e+07 -801037 0 
-801037 -7.41885e+06 0 
0 0 0 
8.44222e+06 6.5396e+06 0 
6.5396e+06 -1.92781e+07 0 
0 0 0 
-2.87692e+06 2.04564e+06 0 
2.04564e+06 -2.66652e+07 0 
0 0 0 
-4.47241e+07 -2.90334e+06 0 
-2.90334e+06 -4.42025e+07 0 
0 0 0 
-8.1009e+06 378977 0 
378977 -2.67897e+07 0 
0 0 0 
-2.44521e+07 7.72604e+06 0 
7.72604e+06 -2.42127e+07 0 
0 0 0 
3.79788e+07 4.40422e+06 0 
4.40422e+06 -148331 0 
0 0 0 
1.43628e+06 5.13988e+06 0 
5.13988e+06 3.98189e+06 0 
0 0 0 
2.40917e+07 -1.20053e+07 0 
-1.20053e+07 1.21338e+07 0 
0 0 0 
-1.26721e+07 -9.26092e+06 0 
-9.26092e+06 -1.14941e+06 0 
0 0 0 
2.91619e+07 1.3266e+06 0 
1.3266e+06 1.6788e+07 0 
0 0 0 
-2.03746e+07 1.07186e+07 0 
1.07186e+07 -1.44401e+07 0 
0 0 0 
8.10141e+06 2.48581e+07 0 
2.48581e+07 -1.16212e+07 0 
0 0 0 
-2.79148e+07 1.44528e+07 0 
1.44528e+07 -1.00081e+07 0 
0 0 0 
-461871 2.0471e+06 0 
2.0471e+06 1.3544e+07 0 
0 0 0 
-9.71198e+06 3.21989e+06 0 
3.21989e+06 2.01125e+07 0 
0 0 0 
3.42676e+07 -8.76368e+06 0 
-8.76368e+06 5.49978e+07 0 
0 0 0 
3.0289e+06 -4.30428e+06 0 
-4.30428e+06 3.65762e+07 0 
0 0 0 
5.70718e+07 -917687 0 
-917687 4.40192e+07 0 
0 0 0 
-7.46487e+06 -2.61039e+06 0 
-2.61039e+06 4.25169e+07 0 
0 0 0 
3.32596e+07 -1.43008e+07 0 
-1.43008e+07 5.24761e+07 0 
0 0 0 
-1.65047e+06 -1.70559e+07 0 
-1.70559e+07 4.00787e+07 0 
0 0 0 
1.65898e+06 -1.95973e+07 0 
-1.95973e+07 3.0977e+07 0 
0 0 0 
2.20132e+06 -1.24662e+07 0 
-1.24662e+07 4.90853e+06 0 
0 0 0 
7.43878e+06 -1.03945e+07 0 
-1.03945e+07 234984 0 
0 0 0 
-1.78184e+07 -1.65628e+06 0 
-1.65628e+06 -2.44431e+07 0 
0 0 0 
1.36438e+07 5.10905e+06 0 
5.10905e+06 -1.34552e+07 0 
0 0 0 
1.04089e+06 -1.26628e+06 0 
-1.26628e+06 -1.85881e+07 0 
0 0 0 
-2.75949e+07 259038 0 
259038 -1.74356e+07 0 
0 0 0 
0 0 0 
0 0 0 
0 0 0 
-1.5765e+07 1.47071e+06 0 
1.47071e+06 -4.54505e+07 0 
0 0 0 
-3.74118e+07 5.50913e+06 0 
5.50913e+06 -9.16396e+07 0 
0 0 0 
-2.38073e+07 4.70811e+06 0 
4.70811e+06 -5.09461e+07 0 
0 0 0 
-1.28948e+07 -2.67472e+06 0 
-2.67472e+06 -2.78398e+07 0 
0 0 0 
-1.19171e+07 -6.10067e+06 0 
-6.10067e+06 7.85007e+06 0 
0 0 0 
-5.14415e+07 -5.89894e+06 0 
-5.89894e+06 -8.37013e+07 0 
0 0 0 
-2.88029e+07 -9.29114e+06 0 
-9.29114e+06 -4.37244e+07 0 
0 0 0 
-2.68041e+07 1.12792e+07 0 
1.12792e+07 -6.47507e+07 0 
0 0 0 
1.15788e+06 -982153 0 
-982153 6.10453e+07 0 
0 0 0 
-7.11249e+06 4.54378e+06 0 
4.54378e+06 -1.03711e+07 0 
0 0 0 
-2.18872e+07 -6.19537e+06 0 
-6.19537e+06 -5.55521e+07 0 
0 0 0 
-1.74216e+07 -2.25206e+07 0 
-2.25206e+07 -3.95325e+07 0 
0 0 0 
9.73357e+06 -1.46304e+07 0 
-1.46304e+07 -1.50166e+07 0 
0 0 0 
2.88967e+07 -1.51995e+07 0 
-1.51995e+07 -3.68634e+06 0 
0 0 0 
6.24783e+07 -2.80914e+07 0 
-2.80914e+07 7.48425e+07 0 
0 0 0 
1.48485e+07 -3.6904e+07 0 
-3.6904e+07 3.04357e+07 0 
0 0 0 
-4.53981e+07 1.00863e+07 0 
1.00863e+07 1.2309e+07 0 
0 0 0 
-9.65435e+07 1.81878e+07 0 
1.81878e+07 2.30102e+07 0 
0 0 0 
-9.06075e+07 9.13373e+06 0 
9.13373e+06 2.89595e+07 0 
0 0 0 
-8.08809e+06 -1.74781e+07 0 
-1.74781e+07 9.12942e+06 0 
0 0 0 
1.94296e+06 -1.12238e+07 0 
-1.12238e+07 -7.10225e+06 0 
0 0 0 
4.98434e+07 8.93228e+06 0 
8.93228e+06 8.86781e+07 0 
0 0 0 
3.02237e+07 3.67989e+06 0 
3.67989e+06 1.18017e+07 0 
0 0 0 
4.29501e+07 1.34439e+07 0 
1.34439e+07 3.14178e+07 0 
0 0 0 
4.23755e+07 5.05467e+06 0 
5.05467e+06 1.39167e+07 0 
0 0 0 
2.9006e+07 1.08772e+07 0 
1.08772e+07 1.18421e+07 0 
0 0 0 
2.42934e+07 7.94952e+06 0 
7.94952e+06 7.16979e+07 0 
0 0 0 
1.2277e+07 1.12434e+07 0 
1.12434e+07 6.30044e+07 0 
0 0 0 
-1.14758e+07 2.30911e+07 0 
2.30911e+07 3.16642e+07 0 
0 0 0 
-1.86282e+07 1.16472e+07 0 
1.16472e+07 -5.09916e+06 0 
0 0 0 
1.06776e+07 1.19116e+07 0 
1.19116e+07 1.21914e+07 0 
0 0 0 
3.78103e+07 6.67879e+06 0 
6.67879e+06 1.73931e+07 0 
0 0 0 
5.47877e+07 6.02513e+06 0 
6.02513e+06 5.53289e+07 0 
0 0 0 
7.68884e+07 1.40855e+07 0 
1.40855e+07 9.48047e+07 0 
0 0 0 
4.92648e+07 7.18769e+06 0 
7.18769e+06 3.50894e+07 0 
0 0 0 
2.15013e+07 -397474 0 
-397474 1.24187e+07 0 
0 0 0 
3.22569e+07 1.06997e+07 0 
1.06997e+07 4.79286e+07 0 
0 0 0 
1.06181e+07 1.45377e+07 0 
1.45377e+07 1.12215e+07 0 
0 0 0 
1.21922e+06 2.5476e+06 0 
2.5476e+06 1.29208e+07 0 
0 0 0 
-2.21944e+07 -439962 0 
-439962 -1.73725e+07 0 
0 0 0 
-3.25379e+07 -6.81458e+06 0 
-6.81458e+06 -5.46174e+07 0 
0 0 0 
-1.93858e+07 -3.66323e+06 0 
-3.66323e+06 -3.49013e+07 0 
0 0 0 
3.43492e+06 3.17658e+06 0 
3.17658e+06 4.82701e+07 0 
0 0 0 
-3.15691e+07 -2.19619e+06 0 
-2.19619e+06 -5.94449e+07 0 
0 0 0 
2.08673e+07 1.01033e+07 0 
1.01033e+07 2.79457e+07 0 
0 0 0 
-3.39751e+06 1.00422e+07 0 
1.00422e+07 -8.95063e+06 0 
0 0 0 
-1.77925e+07 7.59318e+06 0 
7.59318e+06 -2.41115e+07 0 
0 0 0 
-2.76094e+07 562538 0 
562538 -4.40865e+07 0 
0 0 0 
-2.04965e+07 -8.64254e+06 0 
-8.64254e+06 -8.52259e+06 0 
0 0 0 
-3.94953e+07 1.29902e+06 0 
1.29902e+06 -1.64474e+06 0 
0 0 0 
-6.38017e+07 8.09078e+06 0 
8.09078e+06 -9.80982e+07 0 
0 0 0 
-1.27017e+07 -1.2536e+06 0 
-1.2536e+06 -2.13032e+07 0 
0 0 0 
-1.40334e+07 882763 0 
882763 -5.0684e+07 0 
0 0 0 
1.22808e+07 179029 0 
179029 -1.51074e+07 0 
0 0 0 
3.87039e+07 -5.62066e+06 0 
-5.62066e+06 7.19225e+06 0 
0 0 0 
3.81602e+07 -1.27637e+07 0 
-1.27637e+07 1.31362e+07 0 
0 0 0 
0 0 0 
0 0 0 
0 0 0 
-3.00723e+06 6.47967e+06 0 
6.47967e+06 -6.00688e+06 0 
0 0 0 
1.84843e+07 6.866e+06 0 
6.866e+06 -7.74377e+06 0 
0 0 0 
-5.65066e+07 7.18796e+06 0 
7.18796e+06 -3.70992e+07 0 
0 0 0 
-2.88396e+06 5.83698e+06 0 
5.83698e+06 -1.73678e+07 0 
0 0 0 
-5.71481e+07 -8.64624e+06 0 
-8.64624e+06 -4.73439e+07 0 
0 0 0 
2.32555e+07 -2.64351e+06 0 
-2.64351e+06 -6.72286e+06 0 
0 0 0 
1.79056e+07 -1.11575e+07 0 
-1.11575e+07 -402935 0 
0 0 0 
3.41661e+07 -1.18404e+06 0 
-1.18404e+06 1.94649e+07 0 
0 0 0 
1.21016e+06 6.73798e+06 0 
6.73798e+06 1.20589e+07 0 
0 0 0 
-1.04044e+07 3.73689e+06 0 
3.73689e+06 -1.62458e+07 0 
0 0 0 
1.28835e+07 -6.72549e+06 0 
-6.72549e+06 1.07622e+06 0 
0 0 0 
-3.77827e+07 -1.04914e+07 0 
-1.04914e+07 1.74818e+06 0 
0 0 0 
4.04042e+07 -6.47447e+06 0 
-6.47447e+06 4.19591e+07 0 
0 0 0 
-2.34787e+07 -2.70878e+06 0 
-2.70878e+06 2.54023e+07 0 
0 0 0 
1.26866e+06 -5.83516e+06 0 
-5.83516e+06 3.39996e+07 0 
0 0 0 
1.34219e+07 2.7483e+06 0 
2.7483e+06 2.28283e+07 0 
0 0 0 
-5.86422e+06 6.58061e+06 0 
6.58061e+06 1.12105e+07 0 
0 0 0 
8.8777e+06 5.41618e+06 0 
5.41618e+06 7.74465e+06 0 
0 0 0 
1.09042e+07 4.45858e+06 0 
4.45858e+06 3.62162e+06 0 
0 0 0 
-2.78194e+07 2.23743e+06 0 
2.23743e+06 -1.87663e+06 0 
0 0 0 
6.32401e+06 1.15339e+07 0 
1.15339e+07 4.08282e+06 0 
0 0 0 
-1.0789e+07 4.17582e+06 0 
4.17582e+06 1.47241e+06 0 
0 0 0 
2.02546e+07 1.00778e+07 0 
1.00778e+07 1.9294e+06 0 
0 0 0 
6.76208e+06 -2.0568e+06 0 
-2.0568e+06 5.34269e+06 0 
0 0 0 
-4.78391e+06 -4.46069e+06 0 
-4.46069e+06 1.87267e+07 0 
0 0 0 
-1.01404e+07 -8.04047e+06 0 
-8.04047e+06 7.99086e+06 0 
0 0 0 
1.56738e+07 6.11634e+06 0 
6.11634e+06 1.34321e+07 0 
0 0 0 
3.17525e+06 -1.88499e+06 0 
-1.88499e+06 1.12539e+07 0 
0 0 0 
3.58278e+07 1.53062e+06 0 
1.53062e+06 1.48538e+07 0 
0 0 0 
2.1483e+06 4.68848e+06 0 
4.68848e+06 -960089 0 
0 0 0 
1.48923e+07 -5.54306e+06 0 
-5.54306e+06 -3.56044e+06 0 
0 0 0 
-3.87516e+07 3.69764e+06 0 
3.69764e+06 -2.1461e+07 0 
0 0 0 
1.20034e+07 -1.60091e+06 0 
-1.60091e+06 -4.65115e+06 0 
0 0 0 
-1.89699e+07 7.62404e+06 0 
7.62404e+06 -3.3571e+06 0 
0 0 0 
4.6475e+07 3.48532e+06 0 
3.48532e+06 2.24614e+07 0 
0 0 0 
-7.25032e+06 5.63374e+06 0 
5.63374e+06 -2.64989e+06 0 
0 0 0 
-1.95706e+06 -9.84951e+06 0 
-9.84951e+06 1.68312e+07 0 
0 0 0 
7.30472e+06 -1.08536e+07 0 
-1.08536e+07 2.8152e+07 0 
0 0 0 
4.66177e+07 -1.27901e+07 0 
-1.27901e+07 4.4246e+07 0 
0 0 0 
1.02017e+07 -3.21562e+06 0 
-3.21562e+06 4.23321e+07 0 
0 0 0 
2.86262e+07 5.40506e+06 0 
5.40506e+06 2.55107e+07 0 
0 0 0 
-4.26962e+07 6.11494e+06 0 
6.11494e+06 -3.5804e+07 0 
0 0 0 
-2.32223e+07 9.86309e+06 0 
9.86309e+06 -3.66129e+07 0 
0 0 0 
-5.59913e+07 -2.47598e+06 0 
-2.47598e+06 -5.69137e+07 0 
0 0 0 
1.06882e+07 -1.65702e+06 0 
-1.65702e+06 -4.42435e+07 0 
0 0 0 
-1.73442e+07 -3.26024e+06 0 
-3.26024e+06 -4.62226e+07 0 
0 0 0 
3.39086e+07 9.27112e+06 0 
9.27112e+06 -3.9444e+07 0 
0 0 0 
-6.55009e+07 -1.62336e+06 0 
-1.62336e+06 -9.06897e+07 0 
0 0 0 
-2.55693e+07 -1.11758e+07 0 
-1.11758e+07 -7.75431e+07 0 
0 0 0 
-4.12911e+07 -8.38414e+06 0 
-8.38414e+06 -7.72973e+07 0 
0 0 0 
-2.83486e+07 -9.97978e+06 0 
-9.97978e+06 -5.44534e+07 0 
0 0 0 
1.69088e+06 -1.05216e+07 0 
-1.05216e+07 -2.2063e+07 0 
0 0 0 
1.49704e+07 -1.36174e+07 0 
-1.36174e+07 -2.01014e+06 0 
0 0 0 
-6.19308e+06 -1.43408e+07 0 
-1.43408e+07 5.46774e+06 0 
0 0 0 
3.54643e+07 -291231 0 
-291231 8.47101e+06 0 
0 0 0 
-3.07061e+07 4.7852e+06 0 
4.7852e+06 -1.98744e+07 0 
0 0 0 
2.42461e+07 -623488 0 
-623488 -1.65161e+07 0 
0 0 0 
2.48141e+07 1.99259e+06 0 
1.99259e+06 717604 0 
0 0 0 
0 0 0 
0 0 0 
0 0 0 
-4.09689e+06 274165 0 
274165 -4.45336e+07 0 
0 0 0 
-2.29508e+07 -899209 0 
-899209 -9.16315e+07 0 
0 0 0 
-1.6618e+07 1.98591e+06 0 
1.98591e+06 -3.47891e+07 0 
0 0 0 
-2.19363e+07 -848724 0 
-848724 -4.23725e+07 0 
0 0 0 
-1.18274e+07 -2.75479e+06 0 
-2.75479e+06 2.44037e+06 0 
0 0 0 
-3.64458e+07 -4.61212e+06 0 
-4.61212e+06 -8.11902e+07 0 
0 0 0 
-9.20122e+06 -761742 0 
-761742 -2.08282e+07 0 
0 0 0 
-3.43124e+07 444217 0 
444217 -5.84731e+07 0 
0 0 0 
1.94646e+06 -813692 0 
-813692 5.76175e+07 0 
0 0 0 
-4.30594e+07 -2.08113e+06 0 
-2.08113e+06 -4.75777e+07 0 
0 0 0 
-6.31967e+07 -1.12251e+07 0 
-1.12251e+07 -5.84859e+07 0 
0 0 0 
-4.7728e+07 470238 0 
470238 -5.74346e+07 0 
0 0 0 
-1.40052e+07 599523 0 
599523 -1.07108e+07 0 
0 0 0 
-2.03644e+07 -2.23349e+06 0 
-2.23349e+06 -2.4506e+07 0 
0 0 0 
1.43109e+07 -2.63647e+06 0 
-2.63647e+06 4.9552e+07 0 
0 0 0 
-3.67699e+07 -3.59124e+07 0 
-3.59124e+07 -5.33308e+07 0 
0 0 0 
-1.19606e+08 -1.7722e+07 0 
-1.7722e+07 -4.71996e+07 0 
0 0 0 
-5.38122e+07 8.86197e+06 0 
8.86197e+06 6.65063e+06 0 
0 0 0 
-1.21098e+07 2.74366e+07 0 
2.74366e+07 -1.10611e+06 0 
0 0 0 
6.68465e+06 6.72092e+06 0 
6.72092e+06 2.30989e+07 0 
0 0 0 
4.65156e+07 -8.79419e+06 0 
-8.79419e+06 2.04536e+07 0 
0 0 0 
4.4309e+07 -4.27031e+06 0 
-4.27031e+06 5.87458e+07 0 
0 0 0 
2.88106e+07 -5.34572e+06 0 
-5.34572e+06 4.7682e+07 0 
0 0 0 
-2.71146e+07 5.99443e+06 0 
5.99443e+06 9.67861e+06 0 
0 0 0 
-6.64748e+07 1.11602e+07 0 
1.11602e+07 -1.09271e+07 0 
0 0 0 
-7.42724e+07 1.21387e+07 0 
1.21387e+07 -3.06292e+07 0 
0 0 0 
-5.2013e+07 7.30083e+06 0 
7.30083e+06 3.99908e+07 0 
0 0 0 
-3.33405e+07 2.82004e+06 0 
2.82004e+06 7.09894e+07 0 
0 0 0 
-4.93947e+07 1.28931e+07 0 
1.28931e+07 4.71653e+06 0 
0 0 0 
-5.39773e+07 1.73635e+07 0 
1.73635e+07 -9.90771e+06 0 
0 0 0 
-6.68591e+07 7.183e+06 0 
7.183e+06 -1.50147e+07 0 
0 0 0 
-8.58324e+07 7.44843e+06 0 
7.44843e+06 -2.65819e+07 0 
0 0 0 
-4.01484e+07 1.4935e+07 0 
1.4935e+07 2.92091e+07 0 
0 0 0 
-2.13436e+07 1.63748e+07 0 
1.63748e+07 4.99539e+07 0 
0 0 0 
-2.59925e+07 6.83689e+06 0 
6.83689e+06 1.11108e+07 0 
0 0 0 
-1.3855e+07 4.7258e+06 0 
4.7258e+06 -2.25484e+06 0 
0 0 0 
3.78183e+06 7.4117e+06 0 
7.4117e+06 5.02036e+07 0 
0 0 0 
-2.1137e+07 1.07085e+07 0 
1.07085e+07 -7.20434e+06 0 
0 0 0 
-4.48796e+06 1.08113e+07 0 
1.08113e+07 1.4623e+07 0 
0 0 0 
-2.25623e+06 -692934 0 
-692934 -3.29335e+07 0 
0 0 0 
5.69778e+06 -3.7322e+06 0 
-3.7322e+06 -2.86378e+07 0 
0 0 0 
6.5517e+06 -2.06442e+06 0 
-2.06442e+06 -2.5099e+07 0 
0 0 0 
3.07245e+07 5.82575e+06 0 
5.82575e+06 5.35473e+07 0 
0 0 0 
2.90138e+07 1.21804e+07 0 
1.21804e+07 -1.97417e+07 0 
0 0 0 
4.08395e+07 8.76795e+06 0 
8.76795e+06 2.29068e+07 0 
0 0 0 
3.67259e+07 1.81044e+06 0 
1.81044e+06 -2.25399e+06 0 
0 0 0 
2.76088e+07 -6.77982e+06 0 
-6.77982e+06 -1.83241e+07 0 
0 0 0 
1.80167e+07 -2.68539e+06 0 
-2.68539e+06 -3.09694e+07 0 
0 0 0 
2.23351e+07 -1.03026e+07 0 
-1.03026e+07 1.80671e+07 0 
0 0 0 
1.63321e+07 -4.38253e+06 0 
-4.38253e+06 1.26814e+07 0 
0 0 0 
-4.04359e+07 -4.56713e+06 0 
-4.56713e+06 -8.59299e+07 0 
0 0 0 
-3.46318e+07 8.34043e+06 0 
8.34043e+06 -1.30449e+07 0 
0 0 0 
-5.63003e+07 27004.3 0 
27004.3 -6.94574e+07 0 
0 0 0 
-3.91581e+07 8.49129e+06 0 
8.49129e+06 -3.54201e+07 0 
0 0 0 
-1.11562e+07 72688.5 0 
72688.5 -2.77578e+07 0 
0 0 0 
1.53835e+07 -2.1e+07 0 
-2.1e+07 9.28719e+06 0 
0 0 0 
-3.13585e+06 -1.43901e+07 0 
-1.43901e+07 -2.40857e+07 0 
0 0 0 
0 0 0 
0 0 0 
0 0 0 
-3.58091e+06 -9.32926e+06 0 
-9.32926e+06 -4.01223e+06 0 
0 0 0 
1.1622e+07 -1.34525e+07 0 
-1.34525e+07 -1.56148e+07 0 
0 0 0 
-4.50585e+07 -1.91342e+06 0 
-1.91342e+06 -4.91028e+07 0 
0 0 0 
-2.05763e+07 6.12829e+06 0 
6.12829e+06 -4.07398e+07 0 
0 0 0 
-5.09901e+07 3.95058e+06 0 
3.95058e+06 -3.07038e+07 0 
0 0 0 
1.71855e+07 9.76338e+06 0 
9.76338e+06 4.27142e+06 0 
0 0 0 
2.3046e+07 -683722 0 
-683722 2.33259e+07 0 
0 0 0 
6.08788e+07 9.3574e+06 0 
9.3574e+06 3.83688e+07 0 
0 0 0 
-1.38703e+06 -3.46424e+06 0 
-3.46424e+06 1.05774e+07 0 
0 0 0 
-1.42218e+07 -3.96657e+06 0 
-3.96657e+06 -484544 0 
0 0 0 
2.96005e+06 -7.44797e+06 0 
-7.44797e+06 8.15193e+06 0 
0 0 0 
-2.83402e+07 -6.89049e+06 0 
-6.89049e+06 4.59498e+06 0 
0 0 0 
2.58628e+07 -7.74455e+06 0 
-7.74455e+06 1.04197e+07 0 
0 0 0 
-2.50872e+07 -1.16962e+07 0 
-1.16962e+07 -1.02248e+07 0 
0 0 0 
-5.19985e+06 -4.71022e+06 0 
-4.71022e+06 -5.20787e+06 0 
0 0 0 
7.88175e+06 4.04973e+06 0 
4.04973e+06 1.03812e+07 0 
0 0 0 
-1.51228e+07 3.31846e+06 0 
3.31846e+06 -1.90169e+07 0 
0 0 0 
-4.2733e+06 507300 0 
507300 -3.31082e+07 0 
0 0 0 
-4.94345e+06 -751503 0 
-751503 -3.63751e+07 0 
0 0 0 
-3.55859e+07 2.71338e+06 0 
2.71338e+06 -5.17042e+07 0 
0 0 0 
1.20367e+07 1.53462e+07 0 
1.53462e+07 -1.46295e+07 0 
0 0 0 
-1.74063e+07 1.48341e+07 0 
1.48341e+07 -2.31185e+06 0 
0 0 0 
1.01889e+07 8.64388e+06 0 
8.64388e+06 2.34749e+07 0 
0 0 0 
-1.11881e+07 -4.89504e+06 0 
-4.89504e+06 2.91839e+06 0 
0 0 0 
-7.66861e+06 -7.71778e+06 0 
-7.71778e+06 -1.32685e+07 0 
0 0 0 
-1.47249e+07 -1.09334e+07 0 
-1.09334e+07 -6.24179e+06 0 
0 0 0 
2.21045e+07 -5.11474e+06 0 
-5.11474e+06 2.7225e+06 0 
0 0 0 
1.54797e+07 2.37631e+06 0 
2.37631e+06 6.02378e+06 0 
0 0 0 
3.11617e+07 3.91576e+06 0 
3.91576e+06 3.35001e+07 0 
0 0 0 
4.00152e+06 1.1459e+06 0 
1.1459e+06 9.18693e+06 0 
0 0 0 
1.44617e+06 -1.02622e+06 0 
-1.02622e+06 -7.54359e+06 0 
0 0 0 
-1.35733e+07 -2.99846e+06 0 
-2.99846e+06 -2.042e+07 0 
0 0 0 
-5.9277e+06 4.40594e+06 0 
4.40594e+06 -2.33161e+07 0 
0 0 0 
-1.71487e+07 1.1452e+07 0 
1.1452e+07 -4.00117e+07 0 
0 0 0 
2.70046e+07 6.7226e+06 0 
6.7226e+06 -2.6127e+07 0 
0 0 0 
-4.76993e+07 1.02188e+06 0 
1.02188e+06 -5.06977e+07 0 
0 0 0 
-3.37578e+07 -6.87033e+06 0 
-6.87033e+06 -5.14847e+07 0 
0 0 0 
-1.11055e+07 -9.19022e+06 0 
-9.19022e+06 -2.59046e+07 0 
0 0 0 
3.98724e+07 -119209 0 
-119209 1.55601e+06 0 
0 0 0 
-3.34414e+06 -4.46742e+06 0 
-4.46742e+06 -1.85645e+07 0 
0 0 0 
3.05293e+07 3090.8 0 
3090.8 -1.17369e+07 0 
0 0 0 
-3.68347e+07 4.73921e+06 0 
4.73921e+06 -3.09791e+07 0 
0 0 0 
-3.62659e+07 4.04418e+06 0 
4.04418e+06 -4.07535e+07 0 
0 0 0 
-6.03908e+07 79878.4 0 
79878.4 -4.39446e+07 0 
0 0 0 
3.32309e+07 8.27341e+06 0 
8.27341e+06 2.11032e+06 0 
0 0 0 
4.69819e+06 -5.2241e+06 0 
-5.2241e+06 -798846 0 
0 0 0 
5.78799e+07 1.19365e+06 0 
1.19365e+06 2.41176e+07 0 
0 0 0 
-5.24882e+07 -158353 0 
-158353 -4.79853e+06 0 
0 0 0 
1.4282e+07 -844500 0 
-844500 2.38735e+07 0 
0 0 0 
-605958 1.27455e+07 0 
1.27455e+07 3.87481e+07 0 
0 0 0 
-292760 5.81778e+06 0 
5.81778e+06 4.95179e+07 0 
0 0 0 
1.48863e+07 239419 0 
239419 5.34848e+07 0 
0 0 0 
2.00997e+07 -1.01997e+07 0 
-1.01997e+07 4.32699e+07 0 
0 0 0 
1.53508e+07 -1.03112e+07 0 
-1.03112e+07 2.9757e+07 0 
0 0 0 
5.33642e+07 -5.69976e+06 0 
-5.69976e+06 3.38514e+07 0 
0 0 0 
-1.50625e+07 -154583 0 
-154583 -9.34025e+06 0 
0 0 0 
1.33453e+07 -955403 0 
-955403 -1.95121e+06 0 
0 0 0 
-3.8542e+07 -8.11261e+06 0 
-8.11261e+06 -1.35683e+07 0 
0 0 0 
-6.79311e+07 1.53336e+06 0 
1.53336e+06 -3.40011e+07 0 
0 0 0 
0 0 0 
0 0 0 
0 0 0 
-2.53215e+07 7.75842e+06 0 
7.75842e+06 -5.06717e+07 0 
0 0 0 
-3.96845e+07 2.86415e+06 0 
2.86415e+06 -9.2097e+07 0 
0 0 0 
-3.52724e+07 -849218 0 
-849218 -6.85887e+07 0 
0 0 0 
-3.86315e+07 -1.82294e+07 0 
-1.82294e+07 -3.08368e+07 0 
0 0 0 
-3.64701e+07 -7.91701e+06 0 
-7.91701e+06 -1.03995e+07 0 
0 0 0 
-5.59963e+07 1.95165e+06 0 
1.95165e+06 -8.31444e+07 0 
0 0 0 
-4.55561e+07 -6.16373e+06 0 
-6.16373e+06 -3.92469e+07 0 
0 0 0 
-5.29897e+07 -1.24256e+07 0 
-1.24256e+07 -6.955e+07 0 
0 0 0 
-9.43334e+06 -1.51491e+07 0 
-1.51491e+07 5.49994e+07 0 
0 0 0 
-4.03277e+07 -6.24532e+06 0 
-6.24532e+06 -4.52144e+07 0 
0 0 0 
-1.35353e+07 -1.59905e+06 0 
-1.59905e+06 -3.1221e+07 0 
0 0 0 
515812 1.32287e+06 0 
1.32287e+06 -4.63667e+07 0 
0 0 0 
1.61521e+07 -5.12692e+06 0 
-5.12692e+06 1.25832e+07 0 
0 0 0 
2.38801e+07 2.17296e+06 0 
2.17296e+06 -8.58258e+06 0 
0 0 0 
6.77228e+07 -1.92082e+06 0 
-1.92082e+06 7.22098e+07 0 
0 0 0 
3.64946e+06 140003 0 
140003 -5.00257e+07 0 
0 0 0 
-6.86963e+07 -2.3249e+07 0 
-2.3249e+07 -3.85394e+07 0 
0 0 0 
-4.82657e+06 -9.47053e+06 0 
-9.47053e+06 9.01543e+06 0 
0 0 0 
6.89177e+07 1.1032e+07 0 
1.1032e+07 5.68848e+07 0 
0 0 0 
4.09556e+07 1.68087e+07 0 
1.68087e+07 2.84457e+07 0 
0 0 0 
1.68792e+07 -4.70186e+06 0 
-4.70186e+06 5.87007e+06 0 
0 0 0 
3.2395e+07 -3.00495e+06 0 
-3.00495e+06 3.53329e+07 0 
0 0 0 
1.46382e+07 -1.27056e+07 0 
-1.27056e+07 6.1325e+07 0 
0 0 0 
1.59378e+07 -8.64286e+06 0 
-8.64286e+06 5.50726e+07 0 
0 0 0 
2.59323e+07 1.52338e+07 0 
1.52338e+07 2.30925e+07 0 
0 0 0 
3.14717e+07 1.04256e+07 0 
1.04256e+07 5.19142e+06 0 
0 0 0 
5.089e+07 1.08576e+07 0 
1.08576e+07 5.73991e+07 0 
0 0 0 
5.71785e+07 5.49228e+06 0 
5.49228e+06 9.52094e+07 0 
0 0 0 
4.09406e+07 9.28732e+06 0 
9.28732e+06 4.77389e+07 0 
0 0 0 
2.13228e+07 1.20617e+07 0 
1.20617e+07 1.11472e+07 0 
0 0 0 
2.09403e+07 3.44997e+06 0 
3.44997e+06 2.09695e+07 0 
0 0 0 
2.58203e+07 1.19063e+07 0 
1.19063e+07 4.57182e+06 0 
0 0 0 
4.64735e+07 2.32123e+07 0 
2.32123e+07 7.78368e+07 0 
0 0 0 
4.21106e+07 2.07736e+07 0 
2.07736e+07 5.62222e+07 0 
0 0 0 
2.91769e+07 1.44846e+07 0 
1.44846e+07 2.25397e+07 0 
0 0 0 
2.61552e+07 2.99993e+06 0 
2.99993e+06 6.89607e+06 0 
0 0 0 
4.66035e+07 6.04359e+06 0 
6.04359e+06 6.84526e+07 0 
0 0 0 
2.53454e+07 7.6148e+06 0 
7.6148e+06 1.22033e+07 0 
0 0 0 
6.40582e+06 7.30314e+06 0 
7.30314e+06 1.61791e+07 0 
0 0 0 
-1.37205e+07 1.16924e+07 0 
1.16924e+07 -4.14243e+07 0 
0 0 0 
1.03227e+07 6.76106e+06 0 
6.76106e+06 -3.47282e+07 0 
0 0 0 
3.32342e+07 -7.14133e+06 0 
-7.14133e+06 -2.03842e+07 0 
0 0 0 
7.80867e+07 2.47051e+06 0 
2.47051e+06 7.97264e+07 0 
0 0 0 
2.1171e+07 7.96633e+06 0 
7.96633e+06 195727 0 
0 0 0 
1.46286e+07 1.28467e+07 0 
1.28467e+07 -8.1046e+06 0 
0 0 0 
-7.4774e+06 -1.76793e+06 0 
-1.76793e+06 -2.93406e+07 0 
0 0 0 
-2.5414e+07 -488684 0 
-488684 -3.87987e+07 0 
0 0 0 
-3.8524e+07 -4.15384e+06 0 
-4.15384e+06 -4.7031e+07 0 
0 0 0 
-2.66048e+07 -1.96338e+07 0 
-1.96338e+07 -540184 0 
0 0 0 
-1.48112e+07 -8.47492e+06 0 
-8.47492e+06 -5.38786e+06 0 
0 0 0 
-1.78792e+07 -1.0487e+07 0 
-1.0487e+07 -6.38331e+07 0 
0 0 0 
-2.79539e+06 -4.05385e+06 0 
-4.05385e+06 1.06252e+07 0 
0 0 0 
-1.63694e+07 590048 0 
590048 -4.71231e+07 0 
0 0 0 
-1.35962e+07 1.09642e+07 0 
1.09642e+07 -3.99956e+07 0 
0 0 0 
-2.69714e+07 6.51913e+06 0 
6.51913e+06 -4.29094e+07 0 
0 0 0 
-2.32519e+06 -1.33918e+07 0 
-1.33918e+07 -1.45378e+07 0 
0 0 0 
1.50671e+07 -1.22913e+07 0 
-1.22913e+07 4.5224e+06 0 
0 0 0 
3.44812e+07 -1.51559e+07 0 
-1.51559e+07 1.02489e+07 0 
0 0 0 
0 0 0 
0 0 0 
0 0 0 
-1.97312e+07 -2.95907e+06 0 
-2.95907e+06 -8.06443e+06 0 
0 0 0 
1.68521e+07 -1.09755e+07 0 
-1.09755e+07 1.13066e+07 0 
0 0 0 
-1.33354e+07 -9.73667e+06 0 
-9.73667e+06 -8.82888e+06 0 
0 0 0 
-6.80338e+06 8.66063e+06 0 
8.66063e+06 -2.24993e+07 0 
0 0 0 
-4.15846e+07 6.62043e+06 0 
6.62043e+06 -3.98088e+07 0 
0 0 0 
5.60606e+06 2.49863e+07 0 
2.49863e+07 -2.19417e+07 0 
0 0 0 
-1.0126e+06 1.14045e+07 0 
1.14045e+07 -2.3578e+07 0 
0 0 0 
3.24122e+07 2.63241e+06 0 
2.63241e+06 -1.52492e+07 0 
0 0 0 
-1.5689e+07 -6.24279e+06 0 
-6.24279e+06 -3.09155e+07 0 
0 0 0 
-2.72033e+07 -8.50728e+06 0 
-8.50728e+06 -2.73266e+07 0 
0 0 0 
-1.74665e+07 2.1352e+06 0 
2.1352e+06 -2.64243e+07 0 
0 0 0 
-2.11581e+07 -8.64628e+06 0 
-8.64628e+06 -3.02362e+07 0 
0 0 0 
373304 -2.24376e+06 0 
-2.24376e+06 -6.74329e+06 0 
0 0 0 
5.11177e+06 -2.08972e+06 0 
-2.08972e+06 8.33189e+06 0 
0 0 0 
-2.51212e+06 125807 0 
125807 2.60271e+07 0 
0 0 0 
3.07546e+07 -357297 0 
-357297 3.55364e+07 0 
0 0 0 
-1.05746e+07 -2.51965e+06 0 
-2.51965e+06 3.06154e+07 0 
0 0 0 
1.88592e+07 -2.03282e+06 0 
-2.03282e+06 4.54987e+07 0 
0 0 0 
2.24153e+07 -1.60637e+06 0 
-1.60637e+06 4.29605e+07 0 
0 0 0 
1.25194e+07 5.26836e+06 0 
5.26836e+06 4.4092e+07 0 
0 0 0 
2.72141e+07 1.35577e+07 0 
1.35577e+07 2.51776e+07 0 
0 0 0 
-2.2798e+07 4.5981e+06 0 
4.5981e+06 -2.76861e+07 0 
0 0 0 
-3.19699e+07 7.65788e+06 0 
7.65788e+06 -6.64486e+07 0 
0 0 0 
-6.18497e+07 -3.1276e+06 0 
-3.1276e+06 -8.85379e+07 0 
0 0 0 
-2.57641e+07 -772937 0 
-772937 -6.2819e+07 0 
0 0 0 
-3.26245e+07 -9.99219e+06 0 
-9.99219e+06 -5.65107e+07 0 
0 0 0 
2.5628e+07 892810 0 
892810 -2.50121e+07 0 
0 0 0 
9.16968e+06 687530 0 
687530 -2.25515e+07 0 
0 0 0 
1.28064e+07 -2.74742e+06 0 
-2.74742e+06 -3.06712e+07 0 
0 0 0 
-4.26517e+06 -2.19066e+06 0 
-2.19066e+06 -1.53125e+07 0 
0 0 0 
-1.41763e+07 -1.02436e+07 0 
-1.02436e+07 -8.76729e+06 0 
0 0 0 
-7.84876e+06 -1.08876e+07 0 
-1.08876e+07 -1.40083e+07 0 
0 0 0 
1.81953e+07 -6.69417e+06 0 
-6.69417e+06 -1.98921e+06 0 
0 0 0 
-1.03686e+07 -1.4706e+06 0 
-1.4706e+06 -1.09156e+07 0 
0 0 0 
2.62317e+07 -2.25416e+06 0 
-2.25416e+06 -1.0752e+07 0 
0 0 0 
-4.90816e+07 -106611 0 
-106611 -1.95486e+07 0 
0 0 0 
-8.73424e+06 2.93061e+06 0 
2.93061e+06 6.17856e+06 0 
0 0 0 
551667 8.29136e+06 0 
8.29136e+06 4.03711e+06 0 
0 0 0 
5.23341e+07 2.94605e+06 0 
2.94605e+06 2.67484e+07 0 
0 0 0 
5.78643e+06 2.94037e+06 0 
2.94037e+06 2.4553e+07 0 
0 0 0 
4.32205e+07 -1.37102e+07 0 
-1.37102e+07 2.90795e+07 0 
0 0 0 
-4.49445e+07 -1.68932e+07 0 
-1.68932e+07 -3.20327e+07 0 
0 0 0 
-2.42589e+07 -6.33087e+06 0 
-6.33087e+06 -3.91197e+07 0 
0 0 0 
-4.57092e+07 8.97512e+06 0 
8.97512e+06 -5.92837e+07 0 
0 0 0 
-9.94105e+06 9.97071e+06 0 
9.97071e+06 -5.78477e+07 0 
0 0 0 
-7.48461e+06 2.92062e+06 0 
2.92062e+06 -4.17295e+07 0 
0 0 0 
2.81563e+07 -8.20302e+06 0 
-8.20302e+06 -1.23935e+07 0 
0 0 0 
-4.86104e+07 -1.27991e+07 0 
-1.27991e+07 -4.23112e+07 0 
0 0 0 
2.29308e+07 2.51121e+06 0 
2.51121e+06 -1.30399e+07 0 
0 0 0 
-2.48022e+07 1.00619e+07 0 
1.00619e+07 -3.1912e+07 0 
0 0 0 
-3.07006e+07 9.12225e+06 0 
9.12225e+06 -2.50823e+07 0 
0 0 0 
-7.99047e+06 3.90866e+06 0 
3.90866e+06 -6.53711e+06 0 
0 0 0 
-4.34658e+06 1.6835e+06 0 
1.6835e+06 1.06804e+07 0 
0 0 0 
1.10697e+07 -5.09116e+06 0 
-5.09116e+06 3.98729e+07 0 
0 0 0 
6.71306e+07 -1.84528e+07 0 
-1.84528e+07 6.1386e+07 0 
0 0 0 
9.28653e+06 -6.32915e+06 0 
-6.32915e+06 4.73788e+07 0 
0 0 0 
1.47214e+07 -1.26937e+07 0 
-1.26937e+07 3.63454e+07 0 
0 0 0 
-4.21412e+07 -9.06496e+06 0 
-9.06496e+06 6.76806e+06 0 
0 0 0 
2.13977e+07 -8.4231e+06 0 
-8.4231e+06 -7.16244e+06 0 
0 0 0 
-2.37538e+06 -1.21693e+07 0 
-1.21693e+07 1.21335e+07 0 
0 0 0 
0 0 0 
0 0 0 
0 0 0 
-2.0525e+07 -3.87009e+06 0 
-3.87009e+06 -4.98368e+07 0 
0 0 0 
-3.27415e+07 -2.21696e+06 0 
-2.21696e+06 -9.4912e+07 0 
0 0 0 
-2.60486e+07 -1.14763e+07 0 
-1.14763e+07 -7.9198e+07 0 
0 0 0 
-2.37913e+06 -6.20172e+06 0 
-6.20172e+06 -1.36474e+07 0 
0 0 0 
2.83408e+07 1.47464e+06 0 
1.47464e+06 2.81601e+07 0 
0 0 0 
4.34462e+06 6.91682e+06 0 
6.91682e+06 -5.93419e+07 0 
0 0 0 
2.37505e+07 4.73793e+06 0 
4.73793e+06 -3.59495e+07 0 
0 0 0 
2.91542e+07 -4.95838e+06 0 
-4.95838e+06 -5.93103e+07 0 
0 0 0 
7.21405e+07 -1.05705e+07 0 
-1.05705e+07 8.62229e+07 0 
0 0 0 
4.01596e+07 -4.27494e+06 0 
-4.27494e+06 9.53328e+06 0 
0 0 0 
3.89665e+06 136496 0 
136496 -3.33835e+07 0 
0 0 0 
-2.78635e+07 9.08685e+06 0 
9.08685e+06 -4.13411e+07 0 
0 0 0 
-1.50673e+07 5.48107e+06 0 
5.48107e+06 -1.36167e+07 0 
0 0 0 
-3.35251e+07 -6.26444e+06 0 
-6.26444e+06 -1.79637e+07 0 
0 0 0 
-2.21801e+07 5.61677e+06 0 
5.61677e+06 4.0039e+07 0 
0 0 0 
-6.82522e+07 1.91371e+07 0 
1.91371e+07 -6.8585e+07 0 
0 0 0 
-5.82816e+07 1.15313e+07 0 
1.15313e+07 2.39382e+07 0 
0 0 0 
-5.64052e+07 -2.70587e+07 0 
-2.70587e+07 6.11743e+07 0 
0 0 0 
-2.63722e+07 -3.14582e+07 0 
-3.14582e+07 4.57043e+07 0 
0 0 0 
-6.4126e+07 -4.67087e+06 0 
-4.67087e+06 -3.92388e+07 0 
0 0 0 
-8.72973e+07 1.52645e+06 0 
1.52645e+06 -1.95407e+07 0 
0 0 0 
-8.42804e+07 -3.10856e+06 0 
-3.10856e+06 -1.14561e+07 0 
0 0 0 
-3.54388e+07 364697 0 
364697 5.17608e+07 0 
0 0 0 
-2.25681e+06 7.19894e+06 0 
7.19894e+06 6.08005e+07 0 
0 0 0 
-3.25547e+06 1.30532e+07 0 
1.30532e+07 3.6402e+07 0 
0 0 0 
-1.06551e+07 2.25951e+07 0 
2.25951e+07 -2.00534e+07 0 
0 0 0 
4.69901e+07 1.65487e+07 0 
1.65487e+07 6.47424e+07 0 
0 0 0 
6.66276e+07 1.23291e+07 0 
1.23291e+07 6.99763e+07 0 
0 0 0 
6.38069e+07 1.07887e+07 0 
1.07887e+07 6.93941e+07 0 
0 0 0 
3.79956e+07 1.03218e+07 0 
1.03218e+07 1.67433e+07 0 
0 0 0 
3.85328e+07 1.01355e+07 0 
1.01355e+07 4.0186e+07 0 
0 0 0 
1.42294e+07 1.25794e+07 0 
1.25794e+07 -1.27668e+07 0 
0 0 0 
3.16066e+07 1.41918e+07 0 
1.41918e+07 8.71831e+07 0 
0 0 0 
-1.61347e+06 1.82915e+07 0 
1.82915e+07 4.31396e+07 0 
0 0 0 
-1.43392e+07 1.69713e+07 0 
1.69713e+07 -2.41291e+06 0 
0 0 0 
-2.39004e+07 9.3055e+06 0 
9.3055e+06 -2.57627e+07 0 
0 0 0 
-1.34581e+06 -2.94552e+06 0 
-2.94552e+06 5.20736e+07 0 
0 0 0 
-1.8769e+07 4.1594e+06 0 
4.1594e+06 6.1087e+06 0 
0 0 0 
9.62309e+06 8.35483e+06 0 
8.35483e+06 2.73946e+07 0 
0 0 0 
-1.10354e+07 1.67595e+07 0 
1.67595e+07 -3.45709e+07 0 
0 0 0 
-1.88042e+07 1.86004e+07 0 
1.86004e+07 -5.33907e+07 0 
0 0 0 
-8.80013e+06 1.27112e+07 0 
1.27112e+07 -5.12756e+07 0 
0 0 0 
8.69561e+06 397990 0 
397990 6.68427e+07 0 
0 0 0 
-7.38808e+06 2.09213e+06 0 
2.09213e+06 -1.0091e+07 0 
0 0 0 
-1.2963e+07 1.34131e+06 0 
1.34131e+06 -1.2078e+07 0 
0 0 0 
-2.06131e+07 862219 0 
862219 -4.36425e+07 0 
0 0 0 
1.19772e+06 1.8401e+06 0 
1.8401e+06 -3.10059e+07 0 
0 0 0 
1.79371e+07 -2.3444e+06 0 
-2.3444e+06 -3.70719e+07 0 
0 0 0 
5.4206e+07 -8.15675e+06 0 
-8.15675e+06 2.15922e+07 0 
0 0 0 
3.73867e+07 -6.3911e+06 0 
-6.3911e+06 -1.00166e+06 0 
0 0 0 
9.46799e+06 -1.63254e+07 0 
-1.63254e+07 -4.54297e+07 0 
0 0 0 
2.06041e+07 -2.13635e+07 0 
-2.13635e+07 1.4715e+07 0 
0 0 0 
-3.14482e+07 -1.2807e+07 0 
-1.2807e+07 -1.91982e+07 0 
0 0 0 
-5.30823e+07 5.53062e+06 0 
5.53062e+06 -5.48836e+07 0 
0 0 0 
-5.81661e+07 4.79572e+06 0 
4.79572e+06 -6.47709e+07 0 
0 0 0 
-5.89963e+07 -3.67965e+06 0 
-3.67965e+06 -4.31245e+07 0 
0 0 0 
-3.99784e+07 -1.72372e+07 0 
-1.72372e+07 -1.21568e+07 0 
0 0 0 
-4.99917e+07 -1.42624e+07 0 
-1.42624e+07 -6.85332e+06 0 
0 0 0 
-5.24856e+07 -5.48951e+06 0 
-5.48951e+06 -2.61005e+07 0 
0 0 0 
0 0 0 
0 0 0 
0 0 0 
-3.16635e+07 -8.91256e+06 0 
-8.91256e+06 -6.40398e+06 0 
0 0 0 
7.5262e+06 -1.38376e+07 0 
-1.38376e+07 2.12024e+06 0 
0 0 0 
-358606 -1.38877e+07 0 
-1.38877e+07 1.13041e+07 0 
0 0 0 
2.28232e+07 -4.01856e+06 0 
-4.01856e+06 2.11645e+07 0 
0 0 0 
-9.50744e+06 7.81859e+06 0 
7.81859e+06 9.55731e+06 0 
0 0 0 
3.91215e+07 1.49526e+07 0 
1.49526e+07 2.19387e+07 0 
0 0 0 
-2.71537e+07 1.2947e+07 0 
1.2947e+07 1.85338e+06 0 
0 0 0 
4.18553e+07 -2.87714e+06 0 
-2.87714e+06 2.54075e+07 0 
0 0 0 
-2.02587e+07 -7.51301e+06 0 
-7.51301e+06 -1.50767e+07 0 
0 0 0 
-1.8261e+07 -8.37409e+06 0 
-8.37409e+06 -3.07822e+07 0 
0 0 0 
-3.1277e+07 -2.72598e+06 0 
-2.72598e+06 -3.71594e+07 0 
0 0 0 
-308358 -48696.1 0 
-48696.1 -1.06e+07 0 
0 0 0 
-9.28724e+06 210688 0 
210688 -9.49245e+06 0 
0 0 0 
8.74165e+06 -3.68821e+06 0 
-3.68821e+06 -1.16451e+06 0 
0 0 0 
-2.10035e+07 -647241 0 
-647241 -1.26386e+07 0 
0 0 0 
1.44243e+07 -9.51222e+06 0 
-9.51222e+06 5.1638e+06 0 
0 0 0 
-2.85607e+06 -2.54136e+06 0 
-2.54136e+06 3.05799e+06 0 
0 0 0 
1.21122e+07 3.45601e+06 0 
3.45601e+06 1.71134e+07 0 
0 0 0 
9.54724e+06 -1.43827e+06 0 
-1.43827e+06 5.33784e+06 0 
0 0 0 
2.64984e+06 7.80175e+06 0 
7.80175e+06 -9.35872e+06 0 
0 0 0 
1.11598e+07 -2.98559e+06 0 
-2.98559e+06 -1.12774e+07 0 
0 0 0 
-3.02865e+07 -1.08157e+06 0 
-1.08157e+06 -2.95146e+07 0 
0 0 0 
-3.66252e+06 -4.54066e+06 0 
-4.54066e+06 -1.87244e+06 0 
0 0 0 
-4.1622e+07 -1.65952e+06 0 
-1.65952e+06 -2.49532e+06 0 
0 0 0 
-1.12928e+07 6.72424e+06 0 
6.72424e+06 8.93256e+06 0 
0 0 0 
7.1879e+06 2.94393e+06 0 
2.94393e+06 1.413e+07 0 
0 0 0 
3.64785e+07 9.81886e+06 0 
9.81886e+06 1.68103e+07 0 
0 0 0 
6.46926e+06 7.11904e+06 0 
7.11904e+06 1.99472e+06 0 
0 0 0 
3.47507e+07 1.91106e+06 0 
1.91106e+06 2.14992e+07 0 
0 0 0 
-6.28502e+06 924958 0 
924958 -895468 0 
0 0 0 
-2.06771e+07 -8.59934e+06 0 
-8.59934e+06 -1.32077e+06 0 
0 0 0 
9.22209e+06 -8.22344e+06 0 
-8.22344e+06 1.74072e+07 0 
0 0 0 
1.67508e+07 -2.13981e+06 0 
-2.13981e+06 2.09951e+07 0 
0 0 0 
5.01649e+06 -1.5495e+07 0 
-1.5495e+07 1.14589e+07 0 
0 0 0 
4.2304e+07 3.50132e+06 0 
3.50132e+06 3.7127e+07 0 
0 0 0 
-3.78518e+07 826464 0 
826464 -1.58581e+06 0 
0 0 0 
1.27882e+07 5.15101e+06 0 
5.15101e+06 -1.7432e+06 0 
0 0 0 
-1.73352e+07 5.91504e+06 0 
5.91504e+06 -1.64656e+07 0 
0 0 0 
4.64365e+07 1.25726e+07 0 
1.25726e+07 -5.64246e+06 0 
0 0 0 
-3.60985e+07 2.34927e+06 0 
2.34927e+06 -3.45081e+07 0 
0 0 0 
2.28927e+07 -1.51017e+07 0 
-1.51017e+07 -9.80214e+06 0 
0 0 0 
-5.05795e+07 -1.1434e+07 0 
-1.1434e+07 -1.38059e+07 0 
0 0 0 
2.54103e+07 -5.89293e+06 0 
-5.89293e+06 1.72307e+07 0 
0 0 0 
-6.78019e+06 2.65319e+06 0 
2.65319e+06 1.55626e+07 0 
0 0 0 
9.25329e+06 1.39515e+07 0 
1.39515e+07 3.4225e+07 0 
0 0 0 
-364065 8.83672e+06 0 
8.83672e+06 3.25421e+07 0 
0 0 0 
1.99202e+07 -4.94124e+06 0 
-4.94124e+06 3.75163e+07 0 
0 0 0 
1.06858e+06 -7.35223e+06 0 
-7.35223e+06 4.59527e+07 0 
0 0 0 
6.67679e+07 -6.45271e+06 0 
-6.45271e+06 6.66979e+07 0 
0 0 0 
-2.97706e+06 1.84754e+06 0 
1.84754e+06 4.22088e+07 0 
0 0 0 
-7.91982e+06 357387 0 
357387 1.82619e+07 0 
0 0 0 
-1.1101e+07 -3.42597e+06 0 
-3.42597e+06 -4.36158e+06 0 
0 0 0 
-2.996e+07 -5.47441e+06 0 
-5.47441e+06 -1.07613e+07 0 
0 0 0 
-2.58294e+06 -9.80678e+06 0 
-9.80678e+06 -4.37086e+06 0 
0 0 0 
4.26621e+07 -1.01346e+07 0 
-1.01346e+07 2.52516e+07 0 
0 0 0 
1.03407e+07 -1.51428e+07 0 
-1.51428e+07 1.50151e+07 0 
0 0 0 
-7.41465e+06 -1.49235e+07 0 
-1.49235e+07 8.1458e+06 0 
0 0 0 
-2.15323e+07 -7.08958e+06 0 
-7.08958e+06 7.90205e+06 0 
0 0 0 
-2.38676e+06 -1.22912e+06 0 
-1.22912e+06 2.67378e+07 0 
0 0 0 
-3.00938e+07 -8.74526e+06 0 
-8.74526e+06 -1.92086e+07 0 
0 0 0 
-4.35454e+06 -4.92221e+06 0 
-4.92221e+06 3.78885e+07 0 
0 0 0 
0 0 0 
0 0 0 
0 0 0 
-7.01689e+06 4.35197e+06 0 
4.35197e+06 -4.87411e+07 0 
0 0 0 
-8.81442e+06 1.24842e+07 0 
1.24842e+07 -8.58417e+07 0 
0 0 0 
3.65452e+06 -1.41496e+06 0 
-1.41496e+06 -8.01205e+07 0 
0 0 0 
4.46047e+07 -9.5739e+06 0 
-9.5739e+06 1.83501e+06 0 
0 0 0 
3.09045e+07 -1.48834e+07 0 
-1.48834e+07 3.33692e+07 0 
0 0 0 
-2.06364e+07 -1.77353e+06 0 
-1.77353e+06 -5.00552e+07 0 
0 0 0 
-3.1759e+07 2.00991e+06 0 
2.00991e+06 -7.36609e+07 0 
0 0 0 
-4.67905e+07 -1.76889e+06 0 
-1.76889e+06 -7.29877e+07 0 
0 0 0 
1.36207e+07 5.46005e+06 0 
5.46005e+06 5.07257e+07 0 
0 0 0 
2.2653e+07 -9.25434e+06 0 
-9.25434e+06 9.35301e+06 0 
0 0 0 
9.15098e+06 -1.17357e+07 0 
-1.17357e+07 -1.71366e+07 0 
0 0 0 
6.89503e+06 -1.88161e+06 0 
-1.88161e+06 -2.47003e+07 0 
0 0 0 
5.4313e+06 61697.3 0 
61697.3 -2.80943e+07 0 
0 0 0 
4.4581e+07 -4.95182e+06 0 
-4.95182e+06 2.86214e+07 0 
0 0 0 
7.36151e+07 1.88763e+07 0 
1.88763e+07 8.35145e+07 0 
0 0 0 
4.66051e+07 1.78012e+07 0 
1.78012e+07 2.62377e+07 0 
0 0 0 
2.3696e+06 -1.30017e+07 0 
-1.30017e+07 1.73484e+06 0 
0 0 0 
1.18902e+07 -1.06578e+07 0 
-1.06578e+07 7.58278e+07 0 
0 0 0 
3.26077e+07 -2.10182e+07 0 
-2.10182e+07 9.97325e+07 0 
0 0 0 
-1.14229e+06 -3.24526e+07 0 
-3.24526e+07 1.16962e+07 0 
0 0 0 
1.20526e+07 9.2725e+06 0 
9.2725e+06 2.10007e+07 0 
0 0 0 
2.56052e+07 3.95397e+06 0 
3.95397e+06 1.96539e+07 0 
0 0 0 
4.79347e+07 6.91385e+06 0 
6.91385e+06 8.16265e+07 0 
0 0 0 
6.26169e+07 5.51295e+06 0 
5.51295e+06 7.54722e+07 0 
0 0 0 
6.3615e+07 563608 0 
563608 7.79573e+07 0 
0 0 0 
2.83221e+07 2.17991e+07 0 
2.17991e+07 1.29805e+07 0 
0 0 0 
-202699 8.44411e+06 0 
8.44411e+06 1.93536e+07 0 
0 0 0 
4.77736e+06 1.6149e+07 0 
1.6149e+07 8.20053e+07 0 
0 0 0 
-2.50457e+07 1.23421e+07 0 
1.23421e+07 1.22521e+07 0 
0 0 0 
-2.09731e+07 1.8783e+07 0 
1.8783e+07 1.93949e+07 0 
0 0 0 
9.6502e+06 9.264e+06 0 
9.264e+06 1.1865e+07 0 
0 0 0 
3.02429e+07 1.43494e+07 0 
1.43494e+07 7.5022e+06 0 
0 0 0 
6.73565e+07 1.48238e+07 0 
1.48238e+07 9.47043e+07 0 
0 0 0 
4.97278e+07 1.40214e+07 0 
1.40214e+07 6.11109e+07 0 
0 0 0 
1.3598e+07 1.10114e+07 0 
1.10114e+07 3.16555e+06 0 
0 0 0 
4.10249e+06 1.19653e+07 0 
1.19653e+07 -1.20789e+07 0 
0 0 0 
2.7532e+07 1.36435e+07 0 
1.36435e+07 3.60828e+07 0 
0 0 0 
3.62441e+07 6.21068e+06 0 
6.21068e+06 3.32404e+07 0 
0 0 0 
2.15783e+07 7.93273e+06 0 
7.93273e+06 4.71692e+07 0 
0 0 0 
-8.99113e+06 1.18675e+07 0 
1.18675e+07 -2.2049e+07 0 
0 0 0 
-3.91773e+07 2.06133e+07 0 
2.06133e+07 -6.27522e+07 0 
0 0 0 
-6.15099e+07 9.73922e+06 0 
9.73922e+06 -7.47975e+07 0 
0 0 0 
-646069 539491 0 
539491 2.69083e+07 0 
0 0 0 
-2.16261e+07 -9.09847e+06 0 
-9.09847e+06 -4.76733e+06 0 
0 0 0 
-3.62771e+07 -1.44919e+06 0 
-1.44919e+06 -2.00645e+07 0 
0 0 0 
-4.37927e+07 -7.31408e+06 0 
-7.31408e+06 -4.26073e+07 0 
0 0 0 
-4.78605e+07 7.98536e+06 0 
7.98536e+06 -4.79805e+07 0 
0 0 0 
-5.37863e+07 5.79731e+06 0 
5.79731e+06 -5.24947e+07 0 
0 0 0 
-4.10972e+07 3.1271e+06 0 
3.1271e+06 -1.97054e+07 0 
0 0 0 
-2.67559e+07 -5.57361e+06 0 
-5.57361e+06 -4.6555e+07 0 
0 0 0 
-2.24769e+07 -9.89672e+06 0 
-9.89672e+06 -5.71154e+07 0 
0 0 0 
2.92019e+07 -8.49383e+06 0 
-8.49383e+06 2.94101e+07 0 
0 0 0 
6.31256e+07 -1.60097e+07 0 
-1.60097e+07 1.17077e+07 0 
0 0 0 
3.71786e+07 -9.46997e+06 0 
-9.46997e+06 -2.07704e+07 0 
0 0 0 
9.60368e+06 -9.98454e+06 0 
-9.98454e+06 -2.7727e+07 0 
0 0 0 
-7.40244e+06 -1.36493e+06 0 
-1.36493e+06 -3.6112e+07 0 
0 0 0 
105912 -6.49808e+06 0 
-6.49808e+06 -3.23314e+06 0 
0 0 0 
3.80877e+07 -8.67483e+06 0 
-8.67483e+06 3.72607e+07 0 
0 0 0 
2.67532e+07 -1.28662e+07 0 
-1.28662e+07 -8.1337e+06 0 
0 0 0 
5.65121e+06 -1.42488e+07 0 
-1.42488e+07 -1.43318e+07 0 
0 0 0 
0 0 0 
0 0 0 
0 0 0 
-4.47051e+07 874515 0 
874515 -1.34994e+07 0 
0 0 0 
-1.78681e+06 -9.81507e+06 0 
-9.81507e+06 1.52795e+07 0 
0 0 0 
8.41456e+06 -1.04766e+07 0 
-1.04766e+07 2.00682e+07 0 
0 0 0 
4.19345e+07 -4.6152e+06 0 
-4.6152e+06 2.52317e+07 0 
0 0 0 
8.73731e+06 7.2845e+06 0 
7.2845e+06 -1.72893e+06 0 
0 0 0 
9.49538e+06 6.47106e+06 0 
6.47106e+06 -9.39544e+06 0 
0 0 0 
-3.6817e+07 1.43343e+06 0 
1.43343e+06 -3.7087e+07 0 
0 0 0 
5.03718e+06 -7.36267e+06 0 
-7.36267e+06 -3.01112e+07 0 
0 0 0 
-3.42035e+07 -2.08954e+07 0 
-2.08954e+07 -3.46128e+07 0 
0 0 0 
-483249 -1.82542e+07 0 
-1.82542e+07 -2.49164e+07 0 
0 0 0 
-3.73074e+07 1.23792e+06 0 
1.23792e+06 -3.96072e+07 0 
0 0 0 
1.49781e+07 1.58804e+06 0 
1.58804e+06 -3.32297e+07 0 
0 0 0 
-2.20526e+07 1.24836e+07 0 
1.24836e+07 -3.62096e+07 0 
0 0 0 
-1.104e+07 4.00051e+06 0 
4.00051e+06 -2.97731e+07 0 
0 0 0 
-1.08046e+07 1.35921e+07 0 
1.35921e+07 -1.75454e+07 0 
0 0 0 
1.55254e+07 1.48275e+07 0 
1.48275e+07 9.72467e+06 0 
0 0 0 
-4.11702e+06 1.37463e+07 0 
1.37463e+07 1.7414e+07 0 
0 0 0 
2.37049e+07 -1.00891e+06 0 
-1.00891e+06 3.10598e+07 0 
0 0 0 
1.41105e+06 -1.32901e+07 0 
-1.32901e+07 3.36778e+07 0 
0 0 0 
2.28027e+07 -8.14262e+06 0 
-8.14262e+06 4.13815e+07 0 
0 0 0 
3.39336e+07 -1.54244e+07 0 
-1.54244e+07 2.29863e+07 0 
0 0 0 
-2.65811e+07 1.87067e+06 0 
1.87067e+06 -9.66528e+06 0 
0 0 0 
-5.36942e+06 4.54292e+06 0 
4.54292e+06 -1.25245e+07 0 
0 0 0 
-5.51987e+07 992802 0 
992802 -2.7025e+07 0 
0 0 0 
-1.24389e+07 3.85597e+06 0 
3.85597e+06 -1.00799e+07 0 
0 0 0 
1.61878e+07 2.65578e+06 0 
2.65578e+06 9.1263e+06 0 
0 0 0 
2.44892e+07 349924 0 
349924 2.49415e+07 0 
0 0 0 
8.79176e+06 -4.43114e+06 0 
-4.43114e+06 4.24315e+06 0 
0 0 0 
6.67757e+06 -2.29697e+06 0 
-2.29697e+06 -1.564e+07 0 
0 0 0 
-1.31546e+07 -1.07436e+07 0 
-1.07436e+07 -2.22195e+07 0 
0 0 0 
-1.9518e+07 -1.43602e+06 0 
-1.43602e+06 -2.99496e+07 0 
0 0 0 
-2.71406e+06 1.31651e+06 0 
1.31651e+06 -577785 0 
0 0 0 
1.24956e+07 -3.28772e+06 0 
-3.28772e+06 1.92606e+07 0 
0 0 0 
1.71528e+07 3.45496e+06 0 
3.45496e+06 3.94627e+07 0 
0 0 0 
4.3474e+07 228859 0 
228859 4.38991e+07 0 
0 0 0 
-2.62732e+07 -9.20684e+06 0 
-9.20684e+06 7.03433e+06 0 
0 0 0 
2.68985e+07 1.02081e+06 0 
1.02081e+06 2.50874e+07 0 
0 0 0 
1.06018e+06 -4.64117e+06 0 
-4.64117e+06 1.66422e+07 0 
0 0 0 
6.50375e+07 8.79995e+06 0 
8.79995e+06 4.33448e+07 0 
0 0 0 
-4.97376e+07 -654283 0 
-654283 -483146 0 
0 0 0 
3.33973e+07 -9.49646e+06 0 
-9.49646e+06 2.41664e+07 0 
0 0 0 
-5.67141e+07 -1.14212e+07 0 
-1.14212e+07 -1.1518e+06 0 
0 0 0 
4.8177e+07 -8.03159e+06 0 
-8.03159e+06 4.00995e+07 0 
0 0 0 
341216 -3.02129e+06 0 
-3.02129e+06 1.47441e+07 0 
0 0 0 
1.84223e+07 1.21119e+07 0 
1.21119e+07 9.77722e+06 0 
0 0 0 
-4.59855e+07 6.81883e+06 0 
6.81883e+06 -2.07653e+07 0 
0 0 0 
-4.00903e+06 4.37479e+06 0 
4.37479e+06 -4.24028e+06 0 
0 0 0 
-1.17427e+07 -7.92818e+06 0 
-7.92818e+06 -1.74922e+07 0 
0 0 0 
4.13017e+07 -2.73914e+06 0 
-2.73914e+06 -9.0193e+06 0 
0 0 0 
-7.79872e+06 -1.14868e+06 0 
-1.14868e+06 -4.42778e+07 0 
0 0 0 
-4.55485e+07 2.93095e+06 0 
2.93095e+06 -6.46859e+07 0 
0 0 0 
-2.54155e+07 -1.11436e+06 0 
-1.11436e+06 -4.55538e+07 0 
0 0 0 
-4.67281e+07 1.39281e+07 0 
1.39281e+07 -3.64856e+07 0 
0 0 0 
-4.53194e+06 699776 0 
699776 -1.0466e+06 0 
0 0 0 
3.68543e+07 -2.10253e+06 0 
-2.10253e+06 1.85203e+07 0 
0 0 0 
1.2072e+07 -6.19955e+06 0 
-6.19955e+06 2.86383e+07 0 
0 0 0 
8.49531e+06 -8.92589e+06 0 
-8.92589e+06 3.38434e+07 0 
0 0 0 
-7.20933e+06 -3.11581e+06 0 
-3.11581e+06 2.34718e+07 0 
0 0 0 
-8.58309e+06 -4.25323e+06 0 
-4.25323e+06 7.81906e+06 0 
0 0 0 
-9.09674e+06 -2.81079e+06 0 
-2.81079e+06 1.44936e+07 0 
0 0 0 
2.52869e+07 4.4525e+06 0 
4.4525e+06 5.46732e+07 0 
0 0 0 
1.71372e+07 -7.007e+06 0 
-7.007e+06 1.97656e+07 0 
0 0 0 
0 0 0 
0 0 0 
0 0 0 
-1.5343e+07 6.94157e+06 0 
6.94157e+06 -3.87559e+07 0 
0 0 0 
-2.40558e+07 1.50186e+07 0 
1.50186e+07 -1.00255e+08 0 
0 0 0 
-3.87335e+06 -101340 0 
-101340 -8.87782e+07 0 
0 0 0 
9.2527e+06 -4.46071e+06 0 
-4.46071e+06 -3.2294e+07 0 
0 0 0 
4.80494e+07 -2.01126e+07 0 
-2.01126e+07 3.72132e+07 0 
0 0 0 
3.86718e+07 -1.16347e+07 0 
-1.16347e+07 -8.89963e+06 0 
0 0 0 
2.0826e+06 2.80547e+06 0 
2.80547e+06 -4.8763e+07 0 
0 0 0 
1.02893e+07 4.27306e+06 0 
4.27306e+06 -4.5128e+07 0 
0 0 0 
5.74607e+07 2.15972e+07 0 
2.15972e+07 4.95194e+07 0 
0 0 0 
3.90058e+07 -8.29822e+06 0 
-8.29822e+06 -265798 0 
0 0 0 
5.30533e+07 -6.61602e+06 0 
-6.61602e+06 6.68397e+06 0 
0 0 0 
6.38739e+07 -1.00251e+07 0 
-1.00251e+07 -2.04309e+07 0 
0 0 0 
6.70207e+07 293190 0 
293190 1.76785e+07 0 
0 0 0 
5.77735e+07 511174 0 
511174 3.7122e+07 0 
0 0 0 
6.99745e+07 6.38504e+06 0 
6.38504e+06 9.92071e+07 0 
0 0 0 
1.87182e+07 -4.22479e+06 0 
-4.22479e+06 -1.24085e+07 0 
0 0 0 
1.67465e+07 -2.55099e+07 0 
-2.55099e+07 4.60876e+07 0 
0 0 0 
-4.10308e+06 -3.21972e+07 0 
-3.21972e+07 8.58358e+07 0 
0 0 0 
1.65139e+07 -2.16152e+07 0 
-2.16152e+07 1.17049e+08 0 
0 0 0 
2.42657e+07 3.1461e+06 0 
3.1461e+06 3.91967e+07 0 
0 0 0 
5.89662e+07 5.56904e+06 0 
5.56904e+06 3.91804e+07 0 
0 0 0 
5.33275e+07 2.22142e+06 0 
2.22142e+06 3.6729e+07 0 
0 0 0 
7.42766e+07 1.23308e+07 0 
1.23308e+07 7.90126e+07 0 
0 0 0 
5.9594e+07 1.14411e+07 0 
1.14411e+07 6.73691e+07 0 
0 0 0 
6.21239e+07 -1.08007e+06 0 
-1.08007e+06 9.05732e+07 0 
0 0 0 
5.18591e+06 -4.07564e+06 0 
-4.07564e+06 3.62322e+06 0 
0 0 0 
-4.90659e+06 -1.49873e+06 0 
-1.49873e+06 3.36991e+07 0 
0 0 0 
1.24608e+07 1.32597e+07 0 
1.32597e+07 8.44815e+07 0 
0 0 0 
9.4908e+06 2.20666e+06 0 
2.20666e+06 2.96416e+07 0 
0 0 0 
2.69598e+07 1.96103e+07 0 
1.96103e+07 3.40858e+07 0 
0 0 0 
7.54175e+06 1.86082e+07 0 
1.86082e+07 1.65765e+07 0 
0 0 0 
-8.07991e+06 1.81592e+07 0 
1.81592e+07 -8.02397e+06 0 
0 0 0 
2.03314e+07 9.91485e+06 0 
9.91485e+06 8.59908e+07 0 
0 0 0 
1.00196e+07 1.2322e+07 0 
1.2322e+07 3.9086e+07 0 
0 0 0 
5.36711e+06 1.44759e+07 0 
1.44759e+07 1.14885e+07 0 
0 0 0 
-1.1124e+07 1.13287e+07 0 
1.13287e+07 -2.07215e+07 0 
0 0 0 
117694 1.0152e+07 0 
1.0152e+07 1.73028e+07 0 
0 0 0 
-4.42115e+06 1.02127e+07 0 
1.02127e+07 1.52263e+07 0 
0 0 0 
7.93434e+06 3.20249e+06 0 
3.20249e+06 5.2325e+07 0 
0 0 0 
-2.01474e+07 7.91109e+06 0 
7.91109e+06 -2.75706e+07 0 
0 0 0 
-1.18146e+07 3.7887e+06 0 
3.7887e+06 -4.34845e+07 0 
0 0 0 
-2.04783e+07 1.59103e+06 0 
1.59103e+06 -8.35992e+07 0 
0 0 0 
-1.44726e+07 621253 0 
621253 1.78586e+07 0 
0 0 0 
-7.90041e+06 -904602 0 
-904602 -1.76716e+07 0 
0 0 0 
2.145e+07 -4.69453e+06 0 
-4.69453e+06 1.91439e+07 0 
0 0 0 
808891 -59271 0 
-59271 -3.39786e+07 0 
0 0 0 
4.05235e+06 3.27472e+06 0 
3.27472e+06 -1.25495e+07 0 
0 0 0 
-1.67442e+06 4.25187e+06 0 
4.25187e+06 -3.21963e+07 0 
0 0 0 
6.3555e+06 -1.73647e+06 0 
-1.73647e+06 -2.58574e+07 0 
0 0 0 
-1.09378e+07 -183248 0 
-183248 -3.19296e+07 0 
0 0 0 
-2.48645e+07 2.01641e+06 0 
2.01641e+06 -5.81198e+07 0 
0 0 0 
-7.34703e+06 5.86547e+06 0 
5.86547e+06 1.53146e+07 0 
0 0 0 
-2.03248e+07 -7.24273e+06 0 
-7.24273e+06 -3.39904e+07 0 
0 0 0 
-7.85464e+06 -1.57064e+07 0 
-1.57064e+07 -4.39744e+07 0 
0 0 0 
-2.28618e+06 -1.47429e+07 0 
-1.47429e+07 -6.21661e+06 0 
0 0 0 
-2.18941e+07 -1.25514e+07 0 
-1.25514e+07 -4.17335e+07 0 
0 0 0 
-1.47114e+07 -6.93879e+06 0 
-6.93879e+06 -2.47861e+06 0 
0 0 0 
-2.09592e+07 -9.82477e+06 0 
-9.82477e+06 8.62266e+06 0 
0 0 0 
-3.23757e+07 -1.25288e+07 0 
-1.25288e+07 -2.63457e+07 0 
0 0 0 
-3.19982e+06 -4.21993e+06 0 
-4.21993e+06 -1.40262e+07 0 
0 0 0 
2.25842e+07 -3.51995e+06 0 
-3.51995e+06 5.84818e+07 0 
0 0 0 
0 0 0 
0 0 0 
0 0 0 
-4.18843e+07 594632 0 
594632 -7.16593e+06 0 
0 0 0 
-1.58594e+07 -946342 0 
-946342 -6.85579e+06 0 
0 0 0 
770447 2.4473e+06 0 
2.4473e+06 2.28798e+06 0 
0 0 0 
4.11325e+07 -1.09353e+07 0 
-1.09353e+07 1.49836e+07 0 
0 0 0 
2.6401e+07 -3.44119e+06 0 
-3.44119e+06 3.61961e+06 0 
0 0 0 
8.38847e+06 1.23186e+07 0 
1.23186e+07 2.09049e+06 0 
0 0 0 
-2.95738e+07 6.23827e+06 0 
6.23827e+06 -6.89648e+06 0 
0 0 0 
-2.34652e+06 -1.5554e+06 0 
-1.5554e+06 3.16629e+06 0 
0 0 0 
-2.57303e+07 -7.89044e+06 0 
-7.89044e+06 5.60485e+06 0 
0 0 0 
3.49718e+07 -7.90179e+06 0 
-7.90179e+06 4.88533e+07 0 
0 0 0 
-1.48427e+07 -1.04465e+07 0 
-1.04465e+07 2.47821e+07 0 
0 0 0 
5.6237e+07 4.40435e+06 0 
4.40435e+06 5.00693e+07 0 
0 0 0 
3.69623e+06 -103022 0 
-103022 2.87967e+07 0 
0 0 0 
1.46844e+07 5.67655e+06 0 
5.67655e+06 3.49618e+07 0 
0 0 0 
4.72202e+06 9.26301e+06 0 
9.26301e+06 1.66021e+07 0 
0 0 0 
1.81923e+07 8.18873e+06 0 
8.18873e+06 996680 0 
0 0 0 
-3.15764e+07 7.65982e+06 0 
7.65982e+06 -1.82432e+07 0 
0 0 0 
-6.14518e+06 1.60605e+06 0 
1.60605e+06 -1.61713e+07 0 
0 0 0 
-2.47604e+07 -6.17218e+06 0 
-6.17218e+06 -1.36339e+07 0 
0 0 0 
5.57936e+06 -1.08596e+07 0 
-1.08596e+07 -7.15591e+06 0 
0 0 0 
3.82814e+07 -2.00949e+07 0 
-2.00949e+07 9.4297e+06 0 
0 0 0 
8.4776e+06 -90525.3 0 
-90525.3 2.07725e+07 0 
0 0 0 
-3.23598e+06 347762 0 
347762 2.60321e+07 0 
0 0 0 
-2.02963e+07 1.38447e+07 0 
1.38447e+07 2.53174e+07 0 
0 0 0 
-1.01592e+07 1.50282e+07 0 
1.50282e+07 3.56258e+07 0 
0 0 0 
3.73078e+06 -555402 0 
-555402 2.58359e+07 0 
0 0 0 
2.58801e+07 -3.0311e+06 0 
-3.0311e+06 1.97598e+07 0 
0 0 0 
-1.85354e+06 -1.4429e+07 0 
-1.4429e+07 1.25435e+07 0 
0 0 0 
1.42554e+07 -1.22048e+07 0 
-1.22048e+07 3.19835e+06 0 
0 0 0 
-2.53664e+06 -3.1853e+06 0 
-3.1853e+06 -1.83229e+07 0 
0 0 0 
2.2594e+06 4.32461e+06 0 
4.32461e+06 1.21753e+06 0 
0 0 0 
1.29423e+06 1.28066e+07 0 
1.28066e+07 2.84216e+06 0 
0 0 0 
1.13754e+07 1.04581e+07 0 
1.04581e+07 9.42439e+06 0 
0 0 0 
-2.46502e+07 -1.69445e+06 0 
-1.69445e+06 -1.2602e+07 0 
0 0 0 
3.14111e+07 -1.00628e+07 0 
-1.00628e+07 -1.56758e+06 0 
0 0 0 
-4.40026e+07 -1.16561e+07 0 
-1.16561e+07 -2.17963e+07 0 
0 0 0 
4.55777e+07 -3.2686e+06 0 
-3.2686e+06 1.46326e+07 0 
0 0 0 
8.49319e+06 4.27912e+06 0 
4.27912e+06 8.32847e+06 0 
0 0 0 
5.28102e+07 7.06789e+06 0 
7.06789e+06 1.50546e+07 0 
0 0 0 
-7.05365e+07 -2.41783e+06 0 
-2.41783e+06 -3.40762e+07 0 
0 0 0 
736267 -8.84664e+06 0 
-8.84664e+06 -2.6992e+06 0 
0 0 0 
-5.90599e+07 -1.18392e+07 0 
-1.18392e+07 -1.17205e+07 0 
0 0 0 
7.52515e+07 -1.8416e+06 0 
-1.8416e+06 3.44478e+07 0 
0 0 0 
-71958.1 6.571e+06 0 
6.571e+06 2.37741e+07 0 
0 0 0 
4.50699e+07 8.81359e+06 0 
8.81359e+06 3.07469e+07 0 
0 0 0 
-5.58006e+07 1.36095e+07 0 
1.36095e+07 -7.20573e+06 0 
0 0 0 
-1.85037e+07 5.04636e+06 0 
5.04636e+06 -4.43007e+06 0 
0 0 0 
-3.08234e+06 -2.98949e+06 0 
-2.98949e+06 483693 0 
0 0 0 
5.38812e+07 -1.56854e+06 0 
-1.56854e+06 3.36245e+07 0 
0 0 0 
2.41229e+07 -1.13736e+07 0 
-1.13736e+07 3.94739e+07 0 
0 0 0 
-1.06672e+07 -1.12314e+07 0 
-1.12314e+07 2.26594e+07 0 
0 0 0 
-1.76293e+07 -3.98807e+06 0 
-3.98807e+06 91051.7 0 
0 0 0 
-2.72597e+07 4.50739e+06 0 
4.50739e+06 -2.2088e+07 0 
0 0 0 
-2.1596e+07 7.87727e+06 0 
7.87727e+06 -3.68311e+07 0 
0 0 0 
-1.49436e+06 2.68244e+06 0 
2.68244e+06 -2.52558e+07 0 
0 0 0 
-1.35764e+07 -1.44178e+07 0 
-1.44178e+07 -3.43591e+07 0 
0 0 0 
-2.56114e+06 -1.81973e+07 0 
-1.81973e+07 -3.17066e+07 0 
0 0 0 
-2.93696e+07 -1.6418e+07 0 
-1.6418e+07 -4.58298e+07 0 
0 0 0 
-1.46447e+07 -9.88132e+06 0 
-9.88132e+06 -4.6447e+07 0 
0 0 0 
-2.20634e+07 1.16722e+07 0 
1.16722e+07 -4.83793e+07 0 
0 0 0 
1.92095e+06 1.19913e+06 0 
1.19913e+06 -1.40331e+07 0 
0 0 0 
-1.13793e+07 172053 0 
172053 7.2686e+06 0 
0 0 0 
-2.08476e+07 9.02887e+06 0 
9.02887e+06 -7.00408e+06 0 
0 0 0 
0 0 0 
0 0 0 
0 0 0 
-9.9818e+06 4.63418e+06 0 
4.63418e+06 -2.76685e+07 0 
0 0 0 
-5.47512e+07 1.96149e+07 0 
1.96149e+07 -1.06682e+08 0 
0 0 0 
-7.70641e+07 1.30667e+07 0 
1.30667e+07 -1.1255e+08 0 
0 0 0 
-6.16859e+07 -472697 0 
-472697 -8.54553e+07 0 
0 0 0 
-2.61122e+07 -5.32557e+06 0 
-5.32557e+06 3.89166e+06 0 
0 0 0 
-2.52808e+07 -1.01224e+07 0 
-1.01224e+07 -1.00349e+07 0 
0 0 0 
-2.45881e+07 -2.43774e+06 0 
-2.43774e+06 -3.57498e+07 0 
0 0 0 
-8.11843e+06 1.41485e+07 0 
1.41485e+07 -5.41553e+07 0 
0 0 0 
1.63929e+07 1.14913e+07 0 
1.14913e+07 3.95363e+07 0 
0 0 0 
-7.5838e+06 5.43882e+06 0 
5.43882e+06 -3.17287e+07 0 
0 0 0 
8.91758e+06 -1.18825e+06 0 
-1.18825e+06 -1.53101e+07 0 
0 0 0 
-1.29477e+07 4.0679e+06 0 
4.0679e+06 -4.94391e+07 0 
0 0 0 
2.48151e+07 -3.22083e+06 0 
-3.22083e+06 2.42736e+07 0 
0 0 0 
3.91853e+07 1.18679e+06 0 
1.18679e+06 2.65475e+07 0 
0 0 0 
6.27619e+07 -635014 0 
-635014 9.57137e+07 0 
0 0 0 
1.04875e+07 -2.791e+06 0 
-2.791e+06 -3.00836e+07 0 
0 0 0 
3.11433e+06 -2.79409e+07 0 
-2.79409e+07 7.08735e+06 0 
0 0 0 
-3.77164e+07 -3.69875e+07 0 
-3.69875e+07 92518 0 
0 0 0 
-8.74655e+07 -9.99033e+06 0 
-9.99033e+06 5.96672e+06 0 
0 0 0 
1.71125e+07 2.51519e+07 0 
2.51519e+07 -2.65351e+07 0 
0 0 0 
3.9168e+07 -249906 0 
-249906 4.66563e+07 0 
0 0 0 
2.3386e+07 1.09764e+07 0 
1.09764e+07 3.33113e+07 0 
0 0 0 
3.35092e+07 1.32562e+07 0 
1.32562e+07 6.60051e+07 0 
0 0 0 
3.24917e+07 1.64561e+07 0 
1.64561e+07 5.77e+07 0 
0 0 0 
4.25176e+07 7.44954e+06 0 
7.44954e+06 7.65443e+07 0 
0 0 0 
2.93974e+07 -2.82815e+06 0 
-2.82815e+06 1.07697e+06 0 
0 0 0 
9.13096e+07 1.18635e+07 0 
1.18635e+07 9.22295e+07 0 
0 0 0 
1.15848e+08 9.68257e+06 0 
9.68257e+06 1.09728e+08 0 
0 0 0 
8.58401e+07 1.25497e+07 0 
1.25497e+07 4.78572e+07 0 
0 0 0 
7.03716e+07 4.13653e+06 0 
4.13653e+06 5.84219e+07 0 
0 0 0 
5.10555e+07 5.7679e+06 0 
5.7679e+06 3.67582e+07 0 
0 0 0 
2.09442e+07 4.06072e+06 0 
4.06072e+06 4.41329e+06 0 
0 0 0 
3.57638e+07 1.42125e+07 0 
1.42125e+07 9.17308e+07 0 
0 0 0 
1.04377e+07 7.27677e+06 0 
7.27677e+06 4.11663e+07 0 
0 0 0 
-1.93111e+07 4.06851e+06 0 
4.06851e+06 2.57714e+06 0 
0 0 0 
-3.37371e+07 674613 0 
674613 -4.03006e+07 0 
0 0 0 
-2.73073e+06 1.75759e+07 0 
1.75759e+07 3.82749e+07 0 
0 0 0 
-1.6728e+07 9.4226e+06 0 
9.4226e+06 312166 0 
0 0 0 
-415832 7.42583e+06 0 
7.42583e+06 4.66163e+07 0 
0 0 0 
-2.43128e+07 3.75851e+06 0 
3.75851e+06 -4.02487e+07 0 
0 0 0 
-4.1758e+07 4.57572e+06 0 
4.57572e+06 -5.54184e+07 0 
0 0 0 
-6.01955e+07 -5.20081e+06 0 
-5.20081e+06 -8.97622e+07 0 
0 0 0 
4.57397e+06 1.29598e+07 0 
1.29598e+07 3.91342e+07 0 
0 0 0 
-2.40666e+07 9.90168e+06 0 
9.90168e+06 -5.13809e+07 0 
0 0 0 
-946272 4.15853e+06 0 
4.15853e+06 1.84839e+07 0 
0 0 0 
280262 -2.9459e+06 0 
-2.9459e+06 -2.6188e+07 0 
0 0 0 
-2.87797e+06 3.05706e+06 0 
3.05706e+06 -1.25303e+07 0 
0 0 0 
-3.16691e+07 1.42724e+06 0 
1.42724e+06 -3.77778e+07 0 
0 0 0 
-5.73163e+07 1.71857e+06 0 
1.71857e+06 -6.64071e+07 0 
0 0 0 
-5.10256e+07 -1.28961e+07 0 
-1.28961e+07 -4.36225e+07 0 
0 0 0 
-5.11432e+07 -5.47054e+06 0 
-5.47054e+06 -4.40091e+07 0 
0 0 0 
-3.12262e+07 -354810 0 
-354810 -1.5002e+07 0 
0 0 0 
-3.79883e+07 -2.90809e+06 0 
-2.90809e+06 -4.72358e+07 0 
0 0 0 
-2.32079e+07 -4.31436e+06 0 
-4.31436e+06 -4.8376e+07 0 
0 0 0 
9.88069e+06 -1.63172e+07 0 
-1.63172e+07 -5.0052e+06 0 
0 0 0 
6.18756e+06 -1.32836e+07 0 
-1.32836e+07 -2.33163e+07 0 
0 0 0 
1.36332e+07 -1.57108e+07 0 
-1.57108e+07 -521228 0 
0 0 0 
1.68385e+07 -1.40596e+07 0 
-1.40596e+07 3.31323e+07 0 
0 0 0 
4.38222e+06 -7.29807e+06 0 
-7.29807e+06 -1.20606e+07 0 
0 0 0 
-643422 -1.88537e+06 0 
-1.88537e+06 -2.10079e+06 0 
0 0 0 
2.2331e+07 6.36163e+06 0 
6.36163e+06 5.55292e+07 0 
0 0 0 
1.70158e+07 -6.28383e+06 0 
-6.28383e+06 1.7636e+07 0 
0 0 0 
0 0 0 
0 0 0 
0 0 0 
-3.48364e+07 8.47736e+06 0 
8.47736e+06 -1.54472e+07 0 
0 0 0 
-1.13294e+07 -3.29985e+06 0 
-3.29985e+06 -8.64228e+06 0 
0 0 0 
-1.75888e+07 1.03065e+07 0 
1.03065e+07 -5.15391e+06 0 
0 0 0 
2.56653e+07 -1.7027e+07 0 
-1.7027e+07 1.47232e+07 0 
0 0 0 
4.15531e+07 -4.55195e+06 0 
-4.55195e+06 1.51546e+07 0 
0 0 0 
1.18882e+07 -4.67276e+06 0 
-4.67276e+06 -1.20466e+07 0 
0 0 0 
-1.66405e+07 3.84109e+06 0 
3.84109e+06 -4.35422e+07 0 
0 0 0 
-5.83727e+07 9.37386e+06 0 
9.37386e+06 -5.60729e+07 0 
0 0 0 
-3.08897e+07 202351 0 
202351 -3.37417e+07 0 
0 0 0 
-1.07468e+07 -9.44279e+06 0 
-9.44279e+06 -2.62098e+07 0 
0 0 0 
2.71564e+06 -2.22751e+06 0 
-2.22751e+06 6.76246e+06 0 
0 0 0 
4.55556e+07 4.3772e+06 0 
4.3772e+06 2.72934e+07 0 
0 0 0 
3.4135e+06 7.55394e+06 0 
7.55394e+06 1.97519e+07 0 
0 0 0 
2.54343e+07 2.71231e+06 0 
2.71231e+06 2.65588e+07 0 
0 0 0 
-7.02451e+06 1.21419e+06 0 
1.21419e+06 2.2549e+07 0 
0 0 0 
2.0317e+07 -5.47715e+06 0 
-5.47715e+06 3.02142e+07 0 
0 0 0 
-2.74131e+07 -5.77298e+06 0 
-5.77298e+06 -9.25776e+06 0 
0 0 0 
7.55273e+06 -1.423e+06 0 
-1.423e+06 6.5835e+06 0 
0 0 0 
-4.80762e+07 -6.72033e+06 0 
-6.72033e+06 -2.11675e+07 0 
0 0 0 
1.68288e+07 -1.12604e+07 0 
-1.12604e+07 1.11676e+07 0 
0 0 0 
5.87472e+07 -5.23535e+06 0 
-5.23535e+06 4.78114e+07 0 
0 0 0 
3.06756e+07 3.31927e+06 0 
3.31927e+06 3.74779e+07 0 
0 0 0 
5.7686e+06 5.76284e+06 0 
5.76284e+06 2.1851e+07 0 
0 0 0 
-1.98906e+07 1.11172e+07 0 
1.11172e+07 1.03798e+06 0 
0 0 0 
-3.49705e+07 7.70147e+06 0 
7.70147e+06 -2.25044e+07 0 
0 0 0 
-3.68045e+07 4.82425e+06 0 
4.82425e+06 -2.41042e+07 0 
0 0 0 
7.23083e+06 -522513 0 
-522513 -1.10926e+07 0 
0 0 0 
-2.32333e+07 -9.51019e+06 0 
-9.51019e+06 -1.77999e+07 0 
0 0 0 
2.81087e+07 -1.26186e+07 0 
-1.26186e+07 1.26499e+07 0 
0 0 0 
7.54765e+06 -7.99834e+06 0 
-7.99834e+06 1.30223e+07 0 
0 0 0 
2.55796e+07 6.18256e+06 0 
6.18256e+06 1.38381e+07 0 
0 0 0 
7.2772e+06 5.29179e+06 0 
5.29179e+06 -1.45754e+06 0 
0 0 0 
-4.01502e+06 4.07476e+06 0 
4.07476e+06 -1.62442e+07 0 
0 0 0 
-5.5082e+07 -177386 0 
-177386 -2.46635e+07 0 
0 0 0 
4.11351e+07 -3.94526e+06 0 
-3.94526e+06 1.41136e+07 0 
0 0 0 
-2.94244e+07 1.59296e+06 0 
1.59296e+06 7.72025e+06 0 
0 0 0 
6.51253e+07 2.35102e+06 0 
2.35102e+06 3.34612e+07 0 
0 0 0 
1.42342e+07 2.46125e+06 0 
2.46125e+06 1.54621e+07 0 
0 0 0 
4.23721e+07 -9.27312e+06 0 
-9.27312e+06 2.99204e+07 0 
0 0 0 
-5.7093e+07 -8.59502e+06 0 
-8.59502e+06 -6.74589e+06 0 
0 0 0 
1.06492e+07 7.93964e+06 0 
7.93964e+06 3.27327e+07 0 
0 0 0 
-3.23305e+07 9.31664e+06 0 
9.31664e+06 2.9523e+07 0 
0 0 0 
7.96876e+07 5.00294e+06 0 
5.00294e+06 7.36356e+07 0 
0 0 0 
1.23229e+07 -8.18844e+06 0 
-8.18844e+06 2.82454e+07 0 
0 0 0 
3.37861e+07 -1.10688e+06 0 
-1.10688e+06 2.4677e+07 0 
0 0 0 
-5.48123e+07 -8.3262e+06 0 
-8.3262e+06 -2.84889e+07 0 
0 0 0 
-2.71728e+07 6.35818e+06 0 
6.35818e+06 -3.57656e+07 0 
0 0 0 
-1.55385e+07 6.78176e+06 0 
6.78176e+06 -1.98604e+07 0 
0 0 0 
2.25611e+07 256734 0 
256734 -4.65392e+06 0 
0 0 0 
-5.98137e+06 -1.29553e+07 0 
-1.29553e+07 -1.33276e+07 0 
0 0 0 
8.24829e+06 -1.44332e+07 0 
-1.44332e+07 491532 0 
0 0 0 
-1.27524e+07 -472972 0 
-472972 1.54457e+07 0 
0 0 0 
-5.73563e+06 4.26691e+06 0 
4.26691e+06 2.95364e+07 0 
0 0 0 
9.57823e+06 -243702 0 
-243702 3.05126e+07 0 
0 0 0 
-2.86326e+07 -1.11505e+06 0 
-1.11505e+06 1.01871e+07 0 
0 0 0 
1.20105e+07 -1.1111e+07 0 
-1.1111e+07 1.52332e+07 0 
0 0 0 
1.34576e+06 -9.2891e+06 0 
-9.2891e+06 1.16711e+07 0 
0 0 0 
2.03338e+07 -1.15114e+07 0 
-1.15114e+07 3.37295e+07 0 
0 0 0 
1.88203e+07 -4.55165e+06 0 
-4.55165e+06 4.2064e+07 0 
0 0 0 
1.88335e+07 -956804 0 
-956804 2.9625e+07 0 
0 0 0 
966466 8.49485e+06 0 
8.49485e+06 8.10356e+06 0 
0 0 0 
-1.79788e+07 -837007 0 
-837007 -3.38147e+06 0 
0 0 0 
-1.14451e+06 -3.83279e+06 0 
-3.83279e+06 -6.06233e+06 0 
0 0 0 
-4.67724e+06 3.18415e+06 0 
3.18415e+06 2.52374e+06 0 
0 0 0 
0 0 0 
0 0 0 
0 0 0 
-1.47127e+07 -951956 0 
-951956 -3.44925e+07 0 
0 0 0 
-3.50845e+07 2.67442e+06 0 
2.67442e+06 -7.65474e+07 0 
0 0 0 
-4.7075e+07 4.57369e+06 0 
4.57369e+06 -9.73975e+07 0 
0 0 0 
-5.34577e+07 7.1396e+06 0 
7.1396e+06 -1.15605e+08 0 
0 0 0 
1.66088e+06 1.93296e+06 0 
1.93296e+06 2.12366e+07 0 
0 0 0 
1.16346e+07 234786 0 
234786 -1.91996e+06 0 
0 0 0 
2.82778e+07 -496939 0 
-496939 -1.32136e+07 0 
0 0 0 
-4.45612e+06 7.26171e+06 0 
7.26171e+06 -3.39267e+07 0 
0 0 0 
-1.60908e+06 1.14098e+07 0 
1.14098e+07 3.49584e+07 0 
0 0 0 
-3.21285e+07 7.67682e+06 0 
7.67682e+06 -4.97817e+07 0 
0 0 0 
-1.9212e+07 5.73098e+06 0 
5.73098e+06 -2.72833e+07 0 
0 0 0 
-2.20605e+07 -4.69452e+06 0 
-4.69452e+06 -7.05516e+07 0 
0 0 0 
-1.11457e+07 -5.55467e+06 0 
-5.55467e+06 2.17509e+07 0 
0 0 0 
-2.97001e+07 -5.69518e+06 0 
-5.69518e+06 4.6017e+06 0 
0 0 0 
-2.77638e+07 -1.13881e+07 0 
-1.13881e+07 5.54972e+07 0 
0 0 0 
-6.05067e+07 -1.138e+07 0 
-1.138e+07 -4.92691e+07 0 
0 0 0 
-2.16469e+07 -1.72187e+07 0 
-1.72187e+07 4.79945e+06 0 
0 0 0 
-5.53824e+07 -1.02616e+06 0 
-1.02616e+06 -2.39673e+07 0 
0 0 0 
-8.24644e+07 2.23857e+07 0 
2.23857e+07 2.00867e+06 0 
0 0 0 
9.63425e+06 686361 0 
686361 1.46503e+07 0 
0 0 0 
5.79292e+07 -1.16478e+06 0 
-1.16478e+06 6.71213e+07 0 
0 0 0 
5.72833e+07 3.62011e+06 0 
3.62011e+06 6.21574e+07 0 
0 0 0 
4.23127e+07 2.17084e+07 0 
2.17084e+07 6.99255e+07 0 
0 0 0 
3.27503e+07 1.66081e+07 0 
1.66081e+07 5.54662e+07 0 
0 0 0 
3.13779e+07 6.98634e+06 0 
6.98634e+06 4.74133e+07 0 
0 0 0 
4.07101e+07 -762127 0 
-762127 1.59524e+07 0 
0 0 0 
5.62706e+07 1.66547e+07 0 
1.66547e+07 8.81912e+07 0 
0 0 0 
3.06867e+07 5.51392e+06 0 
5.51392e+06 7.75494e+07 0 
0 0 0 
9.36765e+06 1.2427e+07 0 
1.2427e+07 2.4923e+07 0 
0 0 0 
3.20942e+06 3.02951e+06 0 
3.02951e+06 1.46752e+07 0 
0 0 0 
-5.45345e+06 1.95269e+06 0 
1.95269e+06 3.5478e+07 0 
0 0 0 
-8.86499e+06 6.47843e+06 0 
6.47843e+06 4.76664e+06 0 
0 0 0 
2.72093e+07 7.11717e+06 0 
7.11717e+06 8.25413e+07 0 
0 0 0 
2.28439e+07 4.2889e+06 0 
4.2889e+06 5.08495e+07 0 
0 0 0 
3.42357e+07 8.6869e+06 0 
8.6869e+06 8.1083e+06 0 
0 0 0 
4.22953e+07 9.45168e+06 0 
9.45168e+06 -1.31478e+06 0 
0 0 0 
5.02694e+07 9.70625e+06 0 
9.70625e+06 5.91662e+07 0 
0 0 0 
2.40357e+07 2.00335e+06 0 
2.00335e+06 1.09038e+07 0 
0 0 0 
3.03283e+07 3.5375e+06 0 
3.5375e+06 4.37735e+07 0 
0 0 0 
-3.12482e+06 3.18061e+06 0 
3.18061e+06 -2.17377e+07 0 
0 0 0 
-1.03831e+07 1.17638e+07 0 
1.17638e+07 -6.33804e+07 0 
0 0 0 
6.22226e+06 2.50251e+06 0 
2.50251e+06 -4.1548e+07 0 
0 0 0 
2.20082e+07 8.62764e+06 0 
8.62764e+06 2.78853e+07 0 
0 0 0 
-3.25367e+06 952138 0 
952138 -2.88681e+07 0 
0 0 0 
-1.78388e+06 1.2121e+07 0 
1.2121e+07 -3.04887e+06 0 
0 0 0 
-1.82152e+07 -2.03338e+06 0 
-2.03338e+06 -3.40838e+07 0 
0 0 0 
5.57732e+06 -5.43187e+06 0 
-5.43187e+06 3.28757e+06 0 
0 0 0 
-4.78364e+06 -6.81128e+06 0 
-6.81128e+06 -2.85265e+07 0 
0 0 0 
-3.36434e+07 -8.52905e+06 0 
-8.52905e+06 -7.71785e+07 0 
0 0 0 
-2.56545e+07 -8.57407e+06 0 
-8.57407e+06 -4.48409e+07 0 
0 0 0 
-1.47894e+07 -1.02256e+07 0 
-1.02256e+07 -2.25789e+07 0 
0 0 0 
-4.02744e+06 5.36713e+06 0 
5.36713e+06 1.59277e+07 0 
0 0 0 
-3.27159e+07 4.75808e+06 0 
4.75808e+06 -5.96983e+07 0 
0 0 0 
-3.25513e+07 1.07188e+07 0 
1.07188e+07 -4.4334e+07 0 
0 0 0 
-1.30501e+07 -2.63544e+06 0 
-2.63544e+06 -2.28147e+07 0 
0 0 0 
-6.80292e+06 -9.02873e+06 0 
-9.02873e+06 -3.41664e+07 0 
0 0 0 
1.50444e+07 -6.77177e+06 0 
-6.77177e+06 3.84797e+06 0 
0 0 0 
3.86631e+07 -1.94016e+07 0 
-1.94016e+07 2.16865e+07 0 
0 0 0 
3.73103e+07 -1.93641e+07 0 
-1.93641e+07 2.0774e+07 0 
0 0 0 
3.49155e+07 -9.90242e+06 0 
-9.90242e+06 1.87896e+07 0 
0 0 0 
2.97854e+07 -8.42337e+06 0 
-8.42337e+06 5.96585e+07 0 
0 0 0 
-550791 -9.62626e+06 0 
-9.62626e+06 -4.40938e+06 0 
0 0 0 
2.27663e+07 2.58772e+06 0 
2.58772e+06 1.80616e+07 0 
0 0 0 
0 0 0 
0 0 0 
0 0 0 
-2.16286e+07 457102 0 
457102 -7.68024e+06 0 
0 0 0 
-4.63576e+06 1.37866e+06 0 
1.37866e+06 1.63634e+07 0 
0 0 0 
-1.9359e+07 3.68235e+06 0 
3.68235e+06 1.40659e+07 0 
0 0 0 
2.34648e+07 -5.0726e+06 0 
-5.0726e+06 2.54467e+07 0 
0 0 0 
4.58781e+07 -3.05659e+06 0 
-3.05659e+06 4.30336e+07 0 
0 0 0 
3.19223e+07 -3.23329e+06 0 
-3.23329e+06 3.07005e+07 0 
0 0 0 
2.4387e+07 -6.14137e+06 0 
-6.14137e+06 2.32023e+07 0 
0 0 0 
-4.65823e+07 7.23683e+06 0 
7.23683e+06 -430946 0 
0 0 0 
-2.94378e+07 4.91247e+06 0 
4.91247e+06 2.32114e+06 0 
0 0 0 
4.22923e+06 5.24854e+06 0 
5.24854e+06 1.76584e+07 0 
0 0 0 
8.07478e+06 1.07315e+07 0 
1.07315e+07 1.9698e+07 0 
0 0 0 
6.76285e+07 7.32695e+06 0 
7.32695e+06 5.51778e+07 0 
0 0 0 
-1.8794e+06 1.12438e+07 0 
1.12438e+07 2.72715e+07 0 
0 0 0 
2.81112e+07 -305728 0 
-305728 3.33526e+07 0 
0 0 0 
-2.53569e+07 4.40613e+06 0 
4.40613e+06 8.71835e+06 0 
0 0 0 
2.50409e+07 -2.81703e+06 0 
-2.81703e+06 2.52683e+07 0 
0 0 0 
-3.10297e+07 -794830 0 
-794830 8.55865e+06 0 
0 0 0 
1.63743e+07 497585 0 
497585 4.1174e+06 0 
0 0 0 
-5.32571e+07 -6.18647e+06 0 
-6.18647e+06 -1.3965e+07 0 
0 0 0 
2.77253e+07 9.96253e+06 0 
9.96253e+06 1.22304e+07 0 
0 0 0 
4.25119e+07 -1.97935e+06 0 
-1.97935e+06 2.43961e+07 0 
0 0 0 
2.20857e+07 -1.00557e+07 0 
-1.00557e+07 2.21632e+07 0 
0 0 0 
2.06475e+07 -1.41302e+07 0 
-1.41302e+07 1.21132e+07 0 
0 0 0 
-3.38012e+07 -9.62776e+06 0 
-9.62776e+06 -1.70817e+07 0 
0 0 0 
-2.54063e+07 -8.85048e+06 0 
-8.85048e+06 -3.24996e+07 0 
0 0 0 
-4.42204e+07 1.60534e+06 0 
1.60534e+06 -4.62545e+07 0 
0 0 0 
-1.64282e+07 314975 0 
314975 -3.01627e+07 0 
0 0 0 
-3.31636e+07 634619 0 
634619 -3.00644e+07 0 
0 0 0 
2.79738e+07 -4.74526e+06 0 
-4.74526e+06 1.08152e+07 0 
0 0 0 
-2.77184e+06 -6.67667e+06 0 
-6.67667e+06 1.07467e+07 0 
0 0 0 
4.97492e+07 -2.28188e+06 0 
-2.28188e+06 1.73579e+07 0 
0 0 0 
1.72672e+06 -2.16439e+06 0 
-2.16439e+06 -1.16639e+06 0 
0 0 0 
1.13535e+07 2.43894e+06 0 
2.43894e+06 5.12776e+06 0 
0 0 0 
-5.26647e+07 5.99378e+06 0 
5.99378e+06 -2.46306e+07 0 
0 0 0 
3.44564e+07 1.25603e+07 0 
1.25603e+07 1.61718e+07 0 
0 0 0 
-2.19596e+07 7.65801e+06 0 
7.65801e+06 -1.71417e+06 0 
0 0 0 
6.76304e+07 780088 0 
780088 3.38673e+07 0 
0 0 0 
-1.53616e+07 7.36647e+06 0 
7.36647e+06 9.03862e+06 0 
0 0 0 
3.77547e+07 -1.58099e+07 0 
-1.58099e+07 1.60264e+07 0 
0 0 0 
-5.44334e+07 -935603 0 
-935603 -9.09931e+06 0 
0 0 0 
3.71932e+07 3.38465e+06 0 
3.38465e+06 1.33381e+07 0 
0 0 0 
-4.46264e+07 1.24464e+07 0 
1.24464e+07 -5.83044e+06 0 
0 0 0 
5.00754e+07 4.28743e+06 0 
4.28743e+06 3.52788e+07 0 
0 0 0 
-3.56635e+06 -7.46251e+06 0 
-7.46251e+06 3.16984e+07 0 
0 0 0 
3.56445e+07 -1.56758e+07 0 
-1.56758e+07 2.87896e+07 0 
0 0 0 
-3.4371e+07 -8.01424e+06 0 
-8.01424e+06 -3.34059e+06 0 
0 0 0 
-398656 39846.5 0 
39846.5 1.32475e+07 0 
0 0 0 
-9.96316e+06 5.78483e+06 0 
5.78483e+06 4.56606e+06 0 
0 0 0 
1.67774e+07 3.50984e+06 0 
3.50984e+06 1.71775e+07 0 
0 0 0 
-7.83845e+06 3.57014e+06 0 
3.57014e+06 1.59322e+07 0 
0 0 0 
3.34379e+07 -5.45705e+06 0 
-5.45705e+06 5.14666e+07 0 
0 0 0 
9.84637e+06 -1.93719e+06 0 
-1.93719e+06 3.95259e+07 0 
0 0 0 
-1.38016e+07 3.29614e+06 0 
3.29614e+06 2.88327e+07 0 
0 0 0 
1.26119e+07 -5.42762e+06 0 
-5.42762e+06 4.15688e+07 0 
0 0 0 
-3.91548e+07 -1.7897e+06 0 
-1.7897e+06 7.15142e+06 0 
0 0 0 
2.85471e+07 -3.8343e+06 0 
-3.8343e+06 3.83485e+07 0 
0 0 0 
-513967 -4.46044e+06 0 
-4.46044e+06 3.72264e+07 0 
0 0 0 
3.24949e+07 -6.7156e+06 0 
-6.7156e+06 4.15651e+07 0 
0 0 0 
1.59665e+07 -1.00174e+07 0 
-1.00174e+07 4.07604e+07 0 
0 0 0 
3.69072e+07 -7.38015e+06 0 
-7.38015e+06 4.04223e+07 0 
0 0 0 
-8.76239e+06 2.48507e+06 0 
2.48507e+06 1.14096e+07 0 
0 0 0 
9.29029e+06 1.88765e+06 0 
1.88765e+06 1.15375e+07 0 
0 0 0 
-2.65741e+07 6.57569e+06 0 
6.57569e+06 24413.7 0 
0 0 0 
7.73067e+06 -7.44027e+06 0 
-7.44027e+06 1.72847e+06 0 
0 0 0 
-3.60425e+06 -5.00384e+06 0 
-5.00384e+06 9.5079e+06 0 
0 0 0 
0 0 0 
0 0 0 
0 0 0 
-1.66663e+07 757648 0 
757648 -4.09148e+07 0 
0 0 0 
-3.9062e+07 2.07757e+06 0 
2.07757e+06 -6.66264e+07 0 
0 0 0 
-5.65324e+07 1.40895e+06 0 
1.40895e+06 -9.98438e+07 0 
0 0 0 
-5.5386e+07 6.92481e+06 0 
6.92481e+06 -1.10165e+08 0 
0 0 0 
-6.1203e+06 1.76407e+07 0 
1.76407e+07 2.36672e+07 0 
0 0 0 
877226 1.53066e+07 0 
1.53066e+07 -2.66126e+07 0 
0 0 0 
8.35459e+06 426199 0 
426199 -2.32707e+07 0 
0 0 0 
2.24446e+07 -4.86826e+06 0 
-4.86826e+06 -1.37966e+07 0 
0 0 0 
3.23188e+07 -8.55668e+06 0 
-8.55668e+06 4.92079e+07 0 
0 0 0 
-1.36295e+07 4.92995e+06 0 
4.92995e+06 -3.09781e+07 0 
0 0 0 
-2.63427e+07 6.35699e+06 0 
6.35699e+06 -4.51945e+07 0 
0 0 0 
-3.56791e+07 9.77614e+06 0 
9.77614e+06 -7.20796e+07 0 
0 0 0 
9.23118e+06 -3.12529e+06 0 
-3.12529e+06 7.28639e+06 0 
0 0 0 
3.96179e+07 1.38318e+06 0 
1.38318e+06 3.75049e+07 0 
0 0 0 
9.09292e+07 -6.26767e+06 0 
-6.26767e+06 8.48303e+07 0 
0 0 0 
7.00592e+07 1.0757e+06 0 
1.0757e+06 4.36255e+06 0 
0 0 0 
1.12201e+08 758955 0 
758955 5.45459e+07 0 
0 0 0 
2.41609e+07 2.13135e+07 0 
2.13135e+07 9.35408e+07 0 
0 0 0 
2.77195e+07 -5.36423e+06 0 
-5.36423e+06 7.84534e+07 0 
0 0 0 
4.18874e+07 -1.17211e+07 0 
-1.17211e+07 3.74768e+07 0 
0 0 0 
7.99146e+07 -4.37639e+06 0 
-4.37639e+06 5.93605e+07 0 
0 0 0 
7.94222e+07 -1.03055e+07 0 
-1.03055e+07 9.254e+07 0 
0 0 0 
7.87174e+07 3.31595e+06 0 
3.31595e+06 1.00457e+08 0 
0 0 0 
3.93761e+07 1.05212e+07 0 
1.05212e+07 4.97135e+07 0 
0 0 0 
-7.58147e+06 2.17497e+06 0 
2.17497e+06 1.23227e+07 0 
0 0 0 
-3.02173e+07 1.22042e+07 0 
1.22042e+07 -2.49708e+06 0 
0 0 0 
-1.65261e+06 -112761 0 
-112761 8.64441e+07 0 
0 0 0 
-1.1219e+07 1.6289e+07 0 
1.6289e+07 6.60881e+07 0 
0 0 0 
-4.15478e+07 5.87516e+06 0 
5.87516e+06 -53977.2 0 
0 0 0 
-3.57175e+07 1.69392e+07 0 
1.69392e+07 6.9463e+06 0 
0 0 0 
-1.46482e+06 5.52719e+06 0 
5.52719e+06 2.18636e+07 0 
0 0 0 
2.35143e+07 1.52685e+07 0 
1.52685e+07 3.11063e+07 0 
0 0 0 
6.9132e+07 1.31639e+07 0 
1.31639e+07 9.39241e+07 0 
0 0 0 
7.46141e+07 1.7258e+07 0 
1.7258e+07 7.26542e+07 0 
0 0 0 
4.48239e+07 1.03197e+07 0 
1.03197e+07 5.77536e+06 0 
0 0 0 
4.05898e+07 1.0883e+07 0 
1.0883e+07 9.83321e+06 0 
0 0 0 
5.60105e+07 7.80965e+06 0 
7.80965e+06 4.9764e+07 0 
0 0 0 
4.85821e+07 6.97478e+06 0 
6.97478e+06 1.62872e+07 0 
0 0 0 
4.55843e+07 -7.27155e+06 0 
-7.27155e+06 3.50691e+07 0 
0 0 0 
2.85018e+07 -21356.9 0 
-21356.9 3.6752e+06 0 
0 0 0 
-1.14579e+07 98357.3 0 
98357.3 -7.36249e+07 0 
0 0 0 
-5.33712e+06 3.23437e+06 0 
3.23437e+06 -2.39365e+07 0 
0 0 0 
1.62372e+07 1.60134e+07 0 
1.60134e+07 1.17713e+07 0 
0 0 0 
2.45727e+06 1.92238e+06 0 
1.92238e+06 -2.51814e+07 0 
0 0 0 
2.35954e+06 2.31893e+06 0 
2.31893e+06 -3.05294e+06 0 
0 0 0 
-2.89923e+07 -2.31313e+06 0 
-2.31313e+06 -5.33086e+07 0 
0 0 0 
-1.46675e+07 5.08757e+06 0 
5.08757e+06 6.10151e+06 0 
0 0 0 
-8.64942e+06 -1.26573e+07 0 
-1.26573e+07 -3.80205e+07 0 
0 0 0 
-1.25232e+07 -1.06019e+07 0 
-1.06019e+07 -7.25983e+07 0 
0 0 0 
-6.37009e+06 -6.33405e+06 0 
-6.33405e+06 -4.05282e+07 0 
0 0 0 
-7.28032e+06 -6.54911e+06 0 
-6.54911e+06 -2.46302e+07 0 
0 0 0 
-1.56463e+07 -1.04676e+07 0 
-1.04676e+07 2.80469e+07 0 
0 0 0 
-6.35407e+07 -6.59161e+06 0 
-6.59161e+06 -6.18749e+07 0 
0 0 0 
-7.50097e+07 1.06842e+06 0 
1.06842e+06 -6.61378e+07 0 
0 0 0 
-7.87832e+07 -3.00239e+06 0 
-3.00239e+06 -3.89891e+07 0 
0 0 0 
-8.03635e+07 -3.38478e+06 0 
-3.38478e+06 -6.97424e+07 0 
0 0 0 
-5.26078e+07 -2.04546e+06 0 
-2.04546e+06 -1.78279e+07 0 
0 0 0 
-5.03026e+07 -6.58087e+06 0 
-6.58087e+06 -2.48365e+07 0 
0 0 0 
-3.45651e+07 -9.23595e+06 0 
-9.23595e+06 2.24118e+06 0 
0 0 0 
-2.70156e+07 -9.92686e+06 0 
-9.92686e+06 1.19013e+07 0 
0 0 0 
-1.10814e+07 -7.39052e+06 0 
-7.39052e+06 4.35846e+07 0 
0 0 0 
-2.29634e+07 1.33915e+06 0 
1.33915e+06 -4.63747e+06 0 
0 0 0 
-3.57367e+07 -2.79774e+06 0 
-2.79774e+06 -5.59926e+06 0 
0 0 0 
-2.429e+07 -2.56194e+06 0 
-2.56194e+06 -1.0645e+07 0 
0 0 0 
0 0 0 
0 0 0 
0 0 0 
-2.23142e+07 1.86897e+06 0 
1.86897e+06 -9.99815e+06 0 
0 0 0 
-1.25534e+07 2.7441e+06 0 
2.7441e+06 -1.99925e+07 0 
0 0 0 
-1.56811e+07 9.54073e+06 0 
9.54073e+06 -1.369e+07 0 
0 0 0 
-7.33457e+06 -276347 0 
-276347 8.19568e+06 0 
0 0 0 
4.91358e+07 -7.72481e+06 0 
-7.72481e+06 2.77017e+07 0 
0 0 0 
1.07003e+07 -1.27988e+07 0 
-1.27988e+07 1.14793e+07 0 
0 0 0 
2.62561e+07 -1.61335e+07 0 
-1.61335e+07 9.57778e+06 0 
0 0 0 
-4.06791e+07 -838176 0 
-838176 -3.72038e+07 0 
0 0 0 
-3.96403e+07 9.18199e+06 0 
9.18199e+06 -4.5344e+07 0 
0 0 0 
-9.32639e+06 1.06911e+07 0 
1.06911e+07 -2.16196e+07 0 
0 0 0 
-3.94566e+06 1.64711e+07 0 
1.64711e+07 -1.06517e+07 0 
0 0 0 
3.84743e+07 9.09051e+06 0 
9.09051e+06 -7.89296e+06 0 
0 0 0 
-3.63509e+07 -4.89168e+06 0 
-4.89168e+06 -3.47702e+07 0 
0 0 0 
1.75635e+07 -3.46252e+06 0 
-3.46252e+06 -1.44061e+07 0 
0 0 0 
-5.01345e+07 -7.33986e+06 0 
-7.33986e+06 -2.90736e+07 0 
0 0 0 
2.64325e+07 -8.04952e+06 0 
-8.04952e+06 -4.52805e+06 0 
0 0 0 
-3.09605e+07 -8.71766e+06 0 
-8.71766e+06 -1.89017e+07 0 
0 0 0 
1.06736e+06 -1.5323e+06 0 
-1.5323e+06 680063 0 
0 0 0 
-2.39622e+07 1.69092e+06 0 
1.69092e+06 -1.23549e+07 0 
0 0 0 
2.29117e+07 1.10312e+07 0 
1.10312e+07 1.66696e+07 0 
0 0 0 
1.02022e+07 2.09923e+06 0 
2.09923e+06 1.33373e+07 0 
0 0 0 
1.04637e+07 -1.20825e+07 0 
-1.20825e+07 2.29432e+06 0 
0 0 0 
2.28563e+07 -1.26156e+07 0 
-1.26156e+07 -7.44965e+06 0 
0 0 0 
-4.67194e+07 -1.51759e+07 0 
-1.51759e+07 -5.00444e+07 0 
0 0 0 
-2.05063e+06 -4.04364e+06 0 
-4.04364e+06 -2.90288e+07 0 
0 0 0 
-2.99848e+07 6.03811e+06 0 
6.03811e+06 -3.49809e+07 0 
0 0 0 
-1.70852e+07 1.8134e+07 0 
1.8134e+07 -1.77562e+07 0 
0 0 0 
-2.25511e+07 1.50122e+07 0 
1.50122e+07 1.7091e+07 0 
0 0 0 
3.51123e+07 1.67158e+07 0 
1.67158e+07 5.39424e+07 0 
0 0 0 
-2.07092e+06 -2.15867e+06 0 
-2.15867e+06 5.56596e+07 0 
0 0 0 
6.8958e+07 -5.69723e+06 0 
-5.69723e+06 7.81288e+07 0 
0 0 0 
2.35345e+07 -4.39796e+06 0 
-4.39796e+06 5.23013e+07 0 
0 0 0 
3.03618e+07 -8.6483e+06 0 
-8.6483e+06 3.49181e+07 0 
0 0 0 
-2.61966e+07 1.22143e+06 0 
1.22143e+06 3.50191e+06 0 
0 0 0 
2.96351e+07 1.37947e+07 0 
1.37947e+07 1.80022e+07 0 
0 0 0 
-2.27531e+07 4.51895e+06 0 
4.51895e+06 1.17587e+07 0 
0 0 0 
6.61457e+07 -950135 0 
-950135 4.55511e+07 0 
0 0 0 
-1.61852e+07 -1.88733e+06 0 
-1.88733e+06 1.13761e+07 0 
0 0 0 
2.64869e+07 -7.74105e+06 0 
-7.74105e+06 1.95698e+07 0 
0 0 0 
-3.23554e+07 -741180 0 
-741180 -1.89721e+07 0 
0 0 0 
2.61443e+07 1.06792e+07 0 
1.06792e+07 -2.34513e+06 0 
0 0 0 
-4.20011e+07 9.26552e+06 0 
9.26552e+06 -2.78661e+07 0 
0 0 0 
2.74776e+07 2.08755e+06 0 
2.08755e+06 -1.62303e+07 0 
0 0 0 
-5.07958e+07 -2.81672e+06 0 
-2.81672e+06 -4.58978e+07 0 
0 0 0 
2.9e+07 -1.15208e+07 0 
-1.15208e+07 -1.4839e+06 0 
0 0 0 
-3.74146e+07 -9.23133e+06 0 
-9.23133e+06 -1.06372e+07 0 
0 0 0 
3.06043e+06 -7.43356e+06 0 
-7.43356e+06 -6.72547e+06 0 
0 0 0 
-2.11872e+07 5.47326e+06 0 
5.47326e+06 -1.721e+07 0 
0 0 0 
2.11297e+07 -2.27423e+06 0 
-2.27423e+06 -7.28312e+06 0 
0 0 0 
-2.00445e+07 1.32932e+07 0 
1.32932e+07 -1.57727e+07 0 
0 0 0 
109724 5.5019e+06 0 
5.5019e+06 -5.14087e+06 0 
0 0 0 
1.28866e+06 -2.85197e+06 0 
-2.85197e+06 1.22556e+07 0 
0 0 0 
-2.72461e+07 -4.49198e+06 0 
-4.49198e+06 -1.55577e+06 0 
0 0 0 
9.11228e+06 -4.66648e+06 0 
-4.66648e+06 -4.76772e+06 0 
0 0 0 
-5.38331e+07 -6.1159e+06 0 
-6.1159e+06 -1.65149e+07 0 
0 0 0 
1.98311e+07 502881 0 
502881 -6.99529e+06 0 
0 0 0 
-1.70432e+07 -918127 0 
-918127 -1.41964e+07 0 
0 0 0 
2.65636e+06 -6.65552e+06 0 
-6.65552e+06 504304 0 
0 0 0 
1.81734e+07 -2.34076e+06 0 
-2.34076e+06 7.49191e+06 0 
0 0 0 
3.1464e+07 -1.35095e+07 0 
-1.35095e+07 1.91274e+07 0 
0 0 0 
-2.63145e+07 -6.29228e+06 0 
-6.29228e+06 -1.28614e+07 0 
0 0 0 
1.9639e+07 -9.18996e+06 0 
-9.18996e+06 -1.159e+07 0 
0 0 0 
-5.26132e+07 -626557 0 
-626557 -4.27192e+07 0 
0 0 0 
-1.41607e+07 -1.75278e+06 0 
-1.75278e+06 -2.58652e+07 0 
0 0 0 
1.10526e+07 392938 0 
392938 2.22668e+07 0 
0 0 0 
-1.22357e+07 -1.44413e+06 0 
-1.44413e+06 -3.20612e+07 0 
0 0 0 
0 0 0 
0 0 0 
0 0 0 
-1.87461e+07 -5.31212e+06 0 
-5.31212e+06 -4.72037e+07 0 
0 0 0 
-7.95972e+06 -4.88635e+06 0 
-4.88635e+06 -5.91617e+07 0 
0 0 0 
3.31347e+06 -3.26135e+06 0 
-3.26135e+06 -7.83467e+07 0 
0 0 0 
1.10194e+07 5.90998e+06 0 
5.90998e+06 -6.36787e+07 0 
0 0 0 
5.24139e+07 1.06984e+07 0 
1.06984e+07 3.76223e+07 0 
0 0 0 
2.61824e+07 1.72311e+07 0 
1.72311e+07 -1.56807e+07 0 
0 0 0 
1.68558e+07 3.00741e+06 0 
3.00741e+06 -5.37046e+07 0 
0 0 0 
1.89268e+07 -1.29348e+07 0 
-1.29348e+07 -1.4785e+07 0 
0 0 0 
3.88253e+07 -1.51778e+07 0 
-1.51778e+07 5.79416e+07 0 
0 0 0 
1.97984e+07 -7.42753e+06 0 
-7.42753e+06 1.05246e+07 0 
0 0 0 
-1.68551e+07 1.6873e+06 0 
1.6873e+06 -5.70998e+07 0 
0 0 0 
-2.25742e+07 686144 0 
686144 -6.30774e+07 0 
0 0 0 
6.83136e+06 5.37612e+06 0 
5.37612e+06 2.17361e+06 0 
0 0 0 
2.56927e+07 1.34954e+07 0 
1.34954e+07 3.23918e+07 0 
0 0 0 
2.76451e+07 6.75637e+06 0 
6.75637e+06 6.00803e+07 0 
0 0 0 
3.3629e+07 -252475 0 
-252475 -1.11841e+07 0 
0 0 0 
3.79597e+07 425201 0 
425201 3.12608e+07 0 
0 0 0 
-2.68496e+07 -1.84743e+07 0 
-1.84743e+07 5.72828e+07 0 
0 0 0 
-3.07572e+07 -1.33695e+07 0 
-1.33695e+07 5.76834e+07 0 
0 0 0 
-1.18872e+07 747426 0 
747426 3.63757e+07 0 
0 0 0 
-7.89462e+06 468553 0 
468553 5.49178e+07 0 
0 0 0 
2.60243e+07 8.37462e+06 0 
8.37462e+06 7.25675e+07 0 
0 0 0 
5.71339e+07 1.05582e+07 0 
1.05582e+07 9.87177e+07 0 
0 0 0 
4.95903e+07 -1.13203e+07 0 
-1.13203e+07 4.78133e+07 0 
0 0 0 
4.42022e+07 -7.56427e+06 0 
-7.56427e+06 3.18424e+07 0 
0 0 0 
1.85466e+07 -950561 0 
-950561 1.2803e+06 0 
0 0 0 
4.86333e+07 4.21631e+06 0 
4.21631e+06 1.24555e+08 0 
0 0 0 
3.36782e+07 301693 0 
301693 9.05781e+07 0 
0 0 0 
5.85325e+06 1.09794e+07 0 
1.09794e+07 1.34877e+07 0 
0 0 0 
1.9986e+07 1.85499e+07 0 
1.85499e+07 3.25551e+07 0 
0 0 0 
2.94021e+07 2.42716e+07 0 
2.42716e+07 2.46685e+07 0 
0 0 0 
4.35041e+07 2.68724e+07 0 
2.68724e+07 4.72154e+07 0 
0 0 0 
5.39466e+07 3.06242e+07 0 
3.06242e+07 9.51685e+07 0 
0 0 0 
6.1209e+07 2.11226e+07 0 
2.11226e+07 5.06493e+07 0 
0 0 0 
5.9947e+07 5.00527e+06 0 
5.00527e+06 -9.39082e+06 0 
0 0 0 
7.20101e+07 929190 0 
929190 5.00836e+07 0 
0 0 0 
4.2368e+07 2.64845e+06 0 
2.64845e+06 2.33575e+07 0 
0 0 0 
1.11601e+07 -3.7154e+06 0 
-3.7154e+06 1.35292e+07 0 
0 0 0 
-2.67359e+06 -811080 0 
-811080 -1.88769e+06 0 
0 0 0 
1.34538e+07 1.83037e+06 0 
1.83037e+06 7.22651e+06 0 
0 0 0 
-9.59397e+06 -876218 0 
-876218 -8.15126e+07 0 
0 0 0 
1.89085e+07 -171282 0 
-171282 -134034 0 
0 0 0 
3.40815e+07 1.48219e+07 0 
1.48219e+07 3.77252e+07 0 
0 0 0 
1.65325e+07 5.2786e+06 0 
5.2786e+06 -4.98819e+07 0 
0 0 0 
2.54746e+07 -7.21493e+06 0 
-7.21493e+06 -7.74143e+06 0 
0 0 0 
2.72755e+06 -1.77616e+07 0 
-1.77616e+07 -3.82e+07 0 
0 0 0 
82326.1 -8.48156e+06 0 
-8.48156e+06 -1.00223e+06 0 
0 0 0 
-2.12855e+07 -5.20033e+06 0 
-5.20033e+06 -2.49873e+07 0 
0 0 0 
-1.79191e+07 -2.06231e+06 0 
-2.06231e+06 -7.44399e+07 0 
0 0 0 
6.46916e+06 -4.98161e+06 0 
-4.98161e+06 -4.318e+07 0 
0 0 0 
1.18271e+07 -1.21288e+07 0 
-1.21288e+07 -2.48129e+07 0 
0 0 0 
5.03253e+07 -1.18677e+07 0 
-1.18677e+07 5.0561e+07 0 
0 0 0 
2.70794e+07 -8.3825e+06 0 
-8.3825e+06 -2.15674e+07 0 
0 0 0 
1.90582e+06 -9.97616e+06 0 
-9.97616e+06 -4.552e+07 0 
0 0 0 
8.95492e+06 -1.90201e+06 0 
-1.90201e+06 2.4452e+06 0 
0 0 0 
-8.60408e+06 -3.29454e+06 0 
-3.29454e+06 -5.59285e+07 0 
0 0 0 
-407491 -3.36268e+06 0 
-3.36268e+06 5.83862e+06 0 
0 0 0 
-1.61236e+07 -4.60415e+06 0 
-4.60415e+06 -2.21785e+07 0 
0 0 0 
1.57021e+07 -5.06213e+06 0 
-5.06213e+06 2.02635e+07 0 
0 0 0 
1.8353e+07 -9.83568e+06 0 
-9.83568e+06 1.94604e+07 0 
0 0 0 
4.24587e+07 -7.64297e+06 0 
-7.64297e+06 8.25325e+07 0 
0 0 0 
2.4212e+07 1.0577e+06 0 
1.0577e+06 9.56389e+06 0 
0 0 0 
2.78198e+07 794272 0 
794272 3.85039e+06 0 
0 0 0 
3.36833e+07 4.78351e+06 0 
4.78351e+06 9.65942e+06 0 
0 0 0 
4.33861e+07 -3.14635e+06 0 
-3.14635e+06 3.73637e+07 0 
0 0 0 
0 0 0 
0 0 0 
0 0 0 
-1.61811e+06 5.35147e+06 0 
5.35147e+06 562121 0 
0 0 0 
-1.43729e+07 1.03549e+07 0 
1.03549e+07 574098 0 
0 0 0 
1.21293e+07 1.4451e+07 0 
1.4451e+07 4.21726e+06 0 
0 0 0 
-3.27379e+07 1.59809e+07 0 
1.59809e+07 -1.29356e+07 0 
0 0 0 
2.31928e+07 689015 0 
689015 1.55078e+07 0 
0 0 0 
-4.92971e+06 -1.57309e+07 0 
-1.57309e+07 5.97953e+06 0 
0 0 0 
2.99331e+07 -1.43079e+07 0 
-1.43079e+07 2.67794e+07 0 
0 0 0 
4.02549e+06 -1.95924e+07 0 
-1.95924e+07 3.16139e+07 0 
0 0 0 
-3.02675e+06 1.80361e+06 0 
1.80361e+06 1.50537e+07 0 
0 0 0 
2.64454e+06 1.09082e+07 0 
1.09082e+07 8.49631e+06 0 
0 0 0 
-2.62516e+06 9.04413e+06 0 
9.04413e+06 -687830 0 
0 0 0 
2.50912e+07 3.48155e+06 0 
3.48155e+06 9.90564e+06 0 
0 0 0 
-2.69145e+07 3.96893e+06 0 
3.96893e+06 -1.23384e+07 0 
0 0 0 
1.75092e+07 5.13834e+06 0 
5.13834e+06 515017 0 
0 0 0 
-3.85214e+07 5.77234e+06 0 
5.77234e+06 -2.09394e+07 0 
0 0 0 
2.12306e+07 5.94855e+06 0 
5.94855e+06 1.36037e+06 0 
0 0 0 
-2.66203e+07 380279 0 
380279 3.89717e+06 0 
0 0 0 
3.28576e+07 -3.50245e+06 0 
-3.50245e+06 2.73331e+07 0 
0 0 0 
-2.30889e+07 3.0143e+06 0 
3.0143e+06 1.06765e+07 0 
0 0 0 
2.72271e+07 4.15348e+06 0 
4.15348e+06 1.64961e+07 0 
0 0 0 
-7.26922e+06 1.60463e+06 0 
1.60463e+06 -7.08734e+06 0 
0 0 0 
-1.23544e+07 -1.01612e+07 0 
-1.01612e+07 -1.44414e+07 0 
0 0 0 
2.8406e+07 -1.7881e+07 0 
-1.7881e+07 7.83755e+06 0 
0 0 0 
-2.42518e+07 -1.8665e+07 0 
-1.8665e+07 1.41794e+07 0 
0 0 0 
3.46807e+07 -1.02472e+07 0 
-1.02472e+07 2.27572e+07 0 
0 0 0 
-6.24844e+06 518186 0 
518186 2.19448e+07 0 
0 0 0 
2.41706e+07 1.48091e+07 0 
1.48091e+07 3.93061e+07 0 
0 0 0 
-2.72297e+07 2.77812e+07 0 
2.77812e+07 8.05277e+06 0 
0 0 0 
8.46264e+06 1.52925e+07 0 
1.52925e+07 1.68794e+07 0 
0 0 0 
-3.86765e+07 6.92798e+06 0 
6.92798e+06 -6.15423e+06 0 
0 0 0 
3.82188e+07 -4.80682e+06 0 
-4.80682e+06 2.63185e+07 0 
0 0 0 
1.14976e+07 -1.00203e+07 0 
-1.00203e+07 9.37113e+06 0 
0 0 0 
3.32254e+07 -5.54807e+06 0 
-5.54807e+06 2.57994e+07 0 
0 0 0 
-4.90198e+06 -4.59017e+06 0 
-4.59017e+06 2.433e+07 0 
0 0 0 
3.5696e+07 1.04292e+07 0 
1.04292e+07 2.65028e+07 0 
0 0 0 
-3.87029e+07 6.33303e+06 0 
6.33303e+06 -1.62904e+07 0 
0 0 0 
4.72399e+07 4.96547e+06 0 
4.96547e+06 1.6964e+07 0 
0 0 0 
-2.46972e+07 -1.06738e+07 0 
-1.06738e+07 -1.07865e+07 0 
0 0 0 
1.58963e+07 -1.31433e+07 0 
-1.31433e+07 1.65947e+06 0 
0 0 0 
-1.96675e+07 -1.84063e+07 0 
-1.84063e+07 7.46589e+06 0 
0 0 0 
5.28529e+07 -4.35565e+06 0 
-4.35565e+06 7.30453e+06 0 
0 0 0 
-5.92611e+07 7.87906e+06 0 
7.87906e+06 -5.22986e+07 0 
0 0 0 
2.16324e+07 -1.78596e+06 0 
-1.78596e+06 -2.05744e+07 0 
0 0 0 
-5.10198e+07 111276 0 
111276 -2.27401e+07 0 
0 0 0 
3.27755e+07 -6.50283e+06 0 
-6.50283e+06 3.70453e+07 0 
0 0 0 
-1.84791e+07 -9.81904e+06 0 
-9.81904e+06 3.9284e+07 0 
0 0 0 
3.94962e+07 -8.25971e+06 0 
-8.25971e+06 6.51356e+07 0 
0 0 0 
-1.22644e+07 -3.04571e+06 0 
-3.04571e+06 2.63941e+07 0 
0 0 0 
4.89139e+07 54059.4 0 
54059.4 2.86456e+07 0 
0 0 0 
-2.52805e+07 2.20826e+06 0 
2.20826e+06 -1.71511e+07 0 
0 0 0 
1.91368e+06 6.13765e+06 0 
6.13765e+06 -2.01951e+07 0 
0 0 0 
-2.93603e+07 7.26119e+06 0 
7.26119e+06 -4.08552e+07 0 
0 0 0 
-4.16471e+07 834636 0 
834636 -4.9143e+07 0 
0 0 0 
-1.12739e+06 -275050 0 
-275050 -1.34918e+07 0 
0 0 0 
-4.4543e+07 -5.37928e+06 0 
-5.37928e+06 -1.94754e+07 0 
0 0 0 
2.39265e+07 -2.78484e+06 0 
-2.78484e+06 1.74304e+07 0 
0 0 0 
-2.66407e+07 -9.89572e+06 0 
-9.89572e+06 -1.71475e+07 0 
0 0 0 
1.69453e+07 -2.87275e+06 0 
-2.87275e+06 -1.05974e+07 0 
0 0 0 
-1.45854e+07 -5.40127e+06 0 
-5.40127e+06 -2.63777e+07 0 
0 0 0 
1.12287e+07 -2.11421e+07 0 
-2.11421e+07 -2.59442e+07 0 
0 0 0 
-3.14756e+07 -1.7625e+07 0 
-1.7625e+07 -2.5615e+07 0 
0 0 0 
3.21142e+07 -1.27789e+07 0 
-1.27789e+07 893049 0 
0 0 0 
-4.35431e+07 -6.30246e+06 0 
-6.30246e+06 -2.34396e+07 0 
0 0 0 
1.3326e+07 8.0948e+06 0 
8.0948e+06 1.10996e+07 0 
0 0 0 
1.16922e+07 2.69951e+06 0 
2.69951e+06 3.20379e+07 0 
0 0 0 
3.47446e+07 1.62327e+06 0 
1.62327e+06 -2.1943e+06 0 
0 0 0 
2.22783e+07 1.46739e+07 0 
1.46739e+07 2.49555e+07 0 
0 0 0 
0 0 0 
0 0 0 
0 0 0 
-9.46735e+06 -84358.7 0 
-84358.7 -5.1113e+07 0 
0 0 0 
-2.70552e+07 3.01438e+06 0 
3.01438e+06 -7.02853e+07 0 
0 0 0 
-4.04686e+07 6.77615e+06 0 
6.77615e+06 -8.28036e+07 0 
0 0 0 
-7.16929e+06 1.49004e+07 0 
1.49004e+07 -5.32069e+07 0 
0 0 0 
2.9214e+07 1.9511e+07 0 
1.9511e+07 2.75275e+07 0 
0 0 0 
-2.95493e+06 7.20091e+06 0 
7.20091e+06 -2.23501e+07 0 
0 0 0 
-5.33255e+07 5.88971e+06 0 
5.88971e+06 -1.01791e+08 0 
0 0 0 
-5.86289e+06 1.79448e+06 0 
1.79448e+06 -2.28778e+07 0 
0 0 0 
5.1977e+07 -5.57308e+06 0 
-5.57308e+06 5.23281e+07 0 
0 0 0 
6.84441e+07 -1.23989e+07 0 
-1.23989e+07 5.01746e+07 0 
0 0 0 
4.77583e+07 -1.75303e+06 0 
-1.75303e+06 -3.09336e+07 0 
0 0 0 
3.63006e+07 7.77553e+06 0 
7.77553e+06 -4.7528e+07 0 
0 0 0 
5.97393e+07 1.08186e+07 0 
1.08186e+07 2.39968e+07 0 
0 0 0 
6.34645e+07 5.08148e+06 0 
5.08148e+06 5.27435e+07 0 
0 0 0 
6.6735e+07 9.21578e+06 0 
9.21578e+06 5.81668e+07 0 
0 0 0 
3.49864e+07 1.28114e+07 0 
1.28114e+07 -1.08517e+07 0 
0 0 0 
1.94602e+07 -1.9744e+07 0 
-1.9744e+07 -406937 0 
0 0 0 
-4.08631e+07 -3.51089e+07 0 
-3.51089e+07 2.19677e+07 0 
0 0 0 
-7.08444e+07 -4.55813e+07 0 
-4.55813e+07 4.98771e+07 0 
0 0 0 
-3.7858e+07 -1.35124e+07 0 
-1.35124e+07 5.19441e+07 0 
0 0 0 
-4.15652e+07 3.99663e+07 0 
3.99663e+07 6.76605e+07 0 
0 0 0 
-728654 2.88136e+07 0 
2.88136e+07 3.3552e+07 0 
0 0 0 
3.10271e+07 5.14985e+06 0 
5.14985e+06 7.09553e+07 0 
0 0 0 
1.90485e+07 -1.07979e+06 0 
-1.07979e+06 3.67597e+07 0 
0 0 0 
3.48494e+07 -6.23458e+06 0 
-6.23458e+06 3.16985e+07 0 
0 0 0 
6.38254e+07 1.1862e+07 0 
1.1862e+07 2.95316e+07 0 
0 0 0 
1.25534e+08 7.66226e+06 0 
7.66226e+06 1.37783e+08 0 
0 0 0 
1.37437e+08 1.25387e+06 0 
1.25387e+06 1.39905e+08 0 
0 0 0 
1.14069e+08 4.78561e+06 0 
4.78561e+06 5.5362e+07 0 
0 0 0 
9.24595e+07 9.71241e+06 0 
9.71241e+06 5.49936e+07 0 
0 0 0 
6.27245e+07 1.9058e+07 0 
1.9058e+07 4.71675e+07 0 
0 0 0 
3.71423e+07 1.24323e+07 0 
1.24323e+07 5.54527e+07 0 
0 0 0 
1.75071e+07 2.30172e+07 0 
2.30172e+07 8.12254e+07 0 
0 0 0 
-3.15189e+07 2.92213e+07 0 
2.92213e+07 1.57266e+07 0 
0 0 0 
-6.6219e+07 2.362e+07 0 
2.362e+07 -7.42343e+07 0 
0 0 0 
-1.78866e+07 2.87581e+06 0 
2.87581e+06 2.11473e+07 0 
0 0 0 
-4.65122e+06 -2.4867e+06 0 
-2.4867e+06 1.62348e+06 0 
0 0 0 
3.68665e+07 3.15152e+06 0 
3.15152e+06 4.42041e+07 0 
0 0 0 
3.33197e+07 695710 0 
695710 -2.10971e+07 0 
0 0 0 
5.21903e+07 6.47022e+06 0 
6.47022e+06 3.35519e+07 0 
0 0 0 
1.33937e+07 -1.59848e+06 0 
-1.59848e+06 -8.79158e+07 0 
0 0 0 
4.10041e+07 2.89442e+06 0 
2.89442e+06 2.69992e+07 0 
0 0 0 
838966 1.14595e+06 0 
1.14595e+06 1.258e+07 0 
0 0 0 
-6.05507e+07 -7.57533e+06 0 
-7.57533e+06 -7.30052e+07 0 
0 0 0 
-5.17518e+07 -7.70846e+06 0 
-7.70846e+06 -6.003e+07 0 
0 0 0 
-4.79074e+07 -2.21398e+07 0 
-2.21398e+07 -5.45358e+07 0 
0 0 0 
-2.45278e+07 -470576 0 
-470576 9.24354e+06 0 
0 0 0 
-3.33206e+07 -4.98867e+06 0 
-4.98867e+06 -2.46855e+07 0 
0 0 0 
-7.8769e+07 -6.96486e+06 0 
-6.96486e+06 -1.08234e+08 0 
0 0 0 
-5.63798e+07 -9.17689e+06 0 
-9.17689e+06 -5.93064e+07 0 
0 0 0 
-3.0418e+07 -1.61683e+06 0 
-1.61683e+06 -3.11869e+07 0 
0 0 0 
-3.76267e+06 -1.19364e+06 0 
-1.19364e+06 2.63437e+07 0 
0 0 0 
-1.90082e+07 -1.27885e+07 0 
-1.27885e+07 -3.38005e+07 0 
0 0 0 
-2.51925e+07 -1.01067e+07 0 
-1.01067e+07 -6.19315e+07 0 
0 0 0 
-1.81591e+07 -1.75485e+07 0 
-1.75485e+07 -390470 0 
0 0 0 
-6.92884e+07 -4.13161e+06 0 
-4.13161e+06 -6.99555e+07 0 
0 0 0 
-4.08091e+07 -3.31561e+06 0 
-3.31561e+06 661546 0 
0 0 0 
-5.02031e+07 163097 0 
163097 -4.87821e+07 0 
0 0 0 
-3.67162e+07 1.25291e+06 0 
1.25291e+06 8.79124e+06 0 
0 0 0 
-1.62309e+07 -2.23609e+06 0 
-2.23609e+06 5.92408e+06 0 
0 0 0 
2.29628e+07 1.04964e+06 0 
1.04964e+06 8.27061e+07 0 
0 0 0 
-6.80672e+06 -5.15196e+06 0 
-5.15196e+06 -5.90283e+06 0 
0 0 0 
-1.5675e+07 -4.52473e+06 0 
-4.52473e+06 79498 0 
0 0 0 
-4.13377e+07 9.34629e+06 0 
9.34629e+06 -1.86143e+07 0 
0 0 0 
-3.72135e+07 8.41723e+06 0 
8.41723e+06 9.75138e+06 0 
0 0 0 
-3.5286e+07 878442 0 
878442 -1.40401e+07 0 
0 0 0 
0 0 0 
0 0 0 
0 0 0 
6.70097e+06 -4.07628e+06 0 
-4.07628e+06 -7.41152e+06 0 
0 0 0 
-2.30776e+07 2.81121e+06 0 
2.81121e+06 -1.64353e+07 0 
0 0 0 
2.68777e+07 3.53868e+06 0 
3.53868e+06 270861 0 
0 0 0 
-3.63786e+07 1.05731e+07 0 
1.05731e+07 -1.93716e+07 0 
0 0 0 
-1.53317e+07 -2.30892e+06 0 
-2.30892e+06 -5.31224e+06 0 
0 0 0 
-4.33381e+06 -5.24854e+06 0 
-5.24854e+06 9.95809e+06 0 
0 0 0 
-3.32735e+06 -9.99497e+06 0 
-9.99497e+06 2.02916e+07 0 
0 0 0 
3.68141e+07 -1.4017e+07 0 
-1.4017e+07 3.23935e+07 0 
0 0 0 
1.08888e+07 -3.89365e+06 0 
-3.89365e+06 2.52981e+07 0 
0 0 0 
2.42035e+07 1.10587e+07 0 
1.10587e+07 2.00052e+07 0 
0 0 0 
-2.09797e+07 7.61562e+06 0 
7.61562e+06 721366 0 
0 0 0 
1.24279e+07 1.57024e+06 0 
1.57024e+06 -4.08706e+06 0 
0 0 0 
-3.47488e+07 -1.16035e+07 0 
-1.16035e+07 -2.63879e+07 0 
0 0 0 
1.83473e+07 -2.23177e+06 0 
-2.23177e+06 -1.46483e+07 0 
0 0 0 
-2.27147e+07 -1.16779e+06 0 
-1.16779e+06 -2.82785e+07 0 
0 0 0 
-4.78229e+06 3.62171e+06 0 
3.62171e+06 -1.24397e+07 0 
0 0 0 
-8.2826e+06 1.17388e+07 0 
1.17388e+07 -6.87447e+06 0 
0 0 0 
1.19702e+07 -880159 0 
-880159 1.27322e+06 0 
0 0 0 
-1.58796e+07 6.43554e+06 0 
6.43554e+06 -3.82052e+06 0 
0 0 0 
2.66208e+07 8.13531e+06 0 
8.13531e+06 1.36264e+07 0 
0 0 0 
-1.67728e+07 2.83586e+06 0 
2.83586e+06 -3.56188e+06 0 
0 0 0 
-2.19424e+07 -9.51078e+06 0 
-9.51078e+06 8.75377e+06 0 
0 0 0 
2.88342e+07 -7.89377e+06 0 
-7.89377e+06 3.086e+07 0 
0 0 0 
-1.52802e+06 -4.51297e+06 0 
-4.51297e+06 2.03199e+07 0 
0 0 0 
3.67292e+07 -3.82474e+06 0 
-3.82474e+06 6.43054e+07 0 
0 0 0 
3.13415e+07 1.1364e+07 0 
1.1364e+07 5.74386e+07 0 
0 0 0 
4.45748e+07 1.48821e+07 0 
1.48821e+07 4.15283e+07 0 
0 0 0 
-3.90084e+07 1.54119e+07 0 
1.54119e+07 -9.14491e+06 0 
0 0 0 
-1.55921e+07 1.3118e+07 0 
1.3118e+07 -1.85921e+07 0 
0 0 0 
-6.3746e+07 -293797 0 
-293797 -3.40619e+07 0 
0 0 0 
2.4686e+07 989838 0 
989838 -4.04946e+06 0 
0 0 0 
811836 -8.84789e+06 0 
-8.84789e+06 2.35004e+06 0 
0 0 0 
3.76601e+07 -4.36853e+06 0 
-4.36853e+06 976185 0 
0 0 0 
-2.39751e+07 -2.04198e+06 0 
-2.04198e+06 -2.79498e+07 0 
0 0 0 
3.11661e+07 -3.58454e+06 0 
-3.58454e+06 -2.28109e+07 0 
0 0 0 
-5.82865e+07 3.94067e+06 0 
3.94067e+06 -6.26534e+07 0 
0 0 0 
2.41133e+07 6.73063e+06 0 
6.73063e+06 -3.73117e+07 0 
0 0 0 
-5.0749e+07 -5.77657e+06 0 
-5.77657e+06 -3.67574e+07 0 
0 0 0 
1.64426e+07 -9.27672e+06 0 
-9.27672e+06 4.78726e+06 0 
0 0 0 
-2.3548e+07 -8.75732e+06 0 
-8.75732e+06 -1.40191e+07 0 
0 0 0 
7.44046e+07 -1.24765e+07 0 
-1.24765e+07 2.8427e+07 0 
0 0 0 
-3.51209e+07 -5.8677e+06 0 
-5.8677e+06 -2.29929e+07 0 
0 0 0 
1.72863e+07 1.09952e+07 0 
1.09952e+07 -2.0286e+07 0 
0 0 0 
-6.03368e+07 1.47103e+07 0 
1.47103e+07 -4.30052e+07 0 
0 0 0 
-2.12264e+06 1.20714e+07 0 
1.20714e+07 -3.06476e+07 0 
0 0 0 
-4.19509e+07 594948 0 
594948 -3.56206e+07 0 
0 0 0 
1.62567e+07 -5.90907e+06 0 
-5.90907e+06 1.91503e+06 0 
0 0 0 
-2.97989e+07 -2.04683e+07 0 
-2.04683e+07 -9.18657e+06 0 
0 0 0 
4.94301e+07 -1.28218e+07 0 
-1.28218e+07 7.26092e+06 0 
0 0 0 
-1.50154e+07 -1.04963e+07 0 
-1.04963e+07 -1.65428e+07 0 
0 0 0 
3.32402e+06 2.62056e+06 0 
2.62056e+06 -2.74434e+07 0 
0 0 0 
-2.44773e+07 -4.90216e+06 0 
-4.90216e+06 -3.83008e+07 0 
0 0 0 
-4.45525e+07 161632 0 
161632 -4.13421e+07 0 
0 0 0 
-8.90742e+06 9.55856e+06 0 
9.55856e+06 -3.52267e+07 0 
0 0 0 
-5.22305e+07 3.77036e+06 0 
3.77036e+06 -3.13818e+07 0 
0 0 0 
1.53798e+07 272026 0 
272026 3.7981e+06 0 
0 0 0 
-2.24336e+07 -8.69321e+06 0 
-8.69321e+06 1.41055e+07 0 
0 0 0 
3.66974e+07 -8.05661e+06 0 
-8.05661e+06 4.01497e+07 0 
0 0 0 
-1.08737e+07 -1.88808e+07 0 
-1.88808e+07 2.88241e+07 0 
0 0 0 
4.59744e+07 -9.14504e+06 0 
-9.14504e+06 5.64692e+07 0 
0 0 0 
-6.52112e+06 -3.84269e+06 0 
-3.84269e+06 3.83035e+07 0 
0 0 0 
5.57769e+07 -5.61042e+06 0 
-5.61042e+06 5.58141e+07 0 
0 0 0 
-1.31028e+07 2.95034e+06 0 
2.95034e+06 2.37819e+07 0 
0 0 0 
1.64668e+07 1.57885e+07 0 
1.57885e+07 9.57986e+06 0 
0 0 0 
2.72547e+06 2.09791e+06 0 
2.09791e+06 -9.89441e+06 0 
0 0 0 
-2.42363e+07 2.60638e+06 0 
2.60638e+06 -1.5009e+07 0 
0 0 0 
-8.32202e+06 -5.06588e+06 0 
-5.06588e+06 5.83181e+06 0 
0 0 0 
-4.31973e+06 -1.17585e+07 0 
-1.17585e+07 -1.81301e+07 0 
0 0 0 
0 0 0 
0 0 0 
0 0 0 
-3.93376e+07 -6.23723e+06 0 
-6.23723e+06 -6.57095e+07 0 
0 0 0 
-5.15598e+07 -374192 0 
-374192 -6.1786e+07 0 
0 0 0 
-7.19719e+07 1.0293e+07 0 
1.0293e+07 -1.03585e+08 0 
0 0 0 
-6.93858e+07 2.25579e+07 0 
2.25579e+07 -4.66687e+07 0 
0 0 0 
-6.60187e+07 1.7157e+07 0 
1.7157e+07 -1.12338e+07 0 
0 0 0 
-7.47078e+07 1.1332e+07 0 
1.1332e+07 -4.81832e+07 0 
0 0 0 
-7.94985e+07 1.53211e+07 0 
1.53211e+07 -1.1329e+08 0 
0 0 0 
-4.91505e+07 1.63518e+07 0 
1.63518e+07 -5.48028e+07 0 
0 0 0 
-1.31071e+07 4.69368e+06 0 
4.69368e+06 2.64387e+07 0 
0 0 0 
9.4641e+06 4.93622e+06 0 
4.93622e+06 3.59497e+07 0 
0 0 0 
-1.69071e+07 -8.84141e+06 0 
-8.84141e+06 -4.76405e+07 0 
0 0 0 
-1.9242e+07 6.63939e+06 0 
6.63939e+06 -5.21362e+07 0 
0 0 0 
-9.5351e+06 7.75976e+06 0 
7.75976e+06 -1.4841e+07 0 
0 0 0 
8.87604e+06 7.78245e+06 0 
7.78245e+06 4.34386e+07 0 
0 0 0 
-5.06106e+06 -524626 0 
-524626 2.10947e+07 0 
0 0 0 
-3.32952e+07 2.86298e+06 0 
2.86298e+06 -2.84107e+07 0 
0 0 0 
-1.55868e+07 -1.01142e+07 0 
-1.01142e+07 -2.91264e+07 0 
0 0 0 
-7.96795e+07 -4.71935e+07 0 
-4.71935e+07 -6.69186e+07 0 
0 0 0 
-5.49229e+07 -4.64354e+07 0 
-4.64354e+07 5.54225e+07 0 
0 0 0 
-6.25376e+07 11960.9 0 
11960.9 5.97376e+06 0 
0 0 0 
-1.3677e+07 3.66779e+07 0 
3.66779e+07 1.44673e+07 0 
0 0 0 
492681 1.8056e+07 0 
1.8056e+07 1.0588e+06 0 
0 0 0 
1.29949e+07 -1.25873e+06 0 
-1.25873e+06 7.88018e+07 0 
0 0 0 
-2.19199e+07 1.67306e+06 0 
1.67306e+06 2.53409e+07 0 
0 0 0 
-2.2375e+07 1.20592e+07 0 
1.20592e+07 9.69478e+06 0 
0 0 0 
-355246 1.44684e+07 0 
1.44684e+07 1.19231e+07 0 
0 0 0 
3.863e+07 1.1601e+07 0 
1.1601e+07 1.06744e+08 0 
0 0 0 
3.16515e+07 -941503 0 
-941503 9.51589e+07 0 
0 0 0 
6.07997e+06 3.12494e+06 0 
3.12494e+06 3.72813e+07 0 
0 0 0 
1.87143e+07 1.01399e+07 0 
1.01399e+07 3.14974e+07 0 
0 0 0 
1.34466e+07 6.83676e+06 0 
6.83676e+06 2.68568e+07 0 
0 0 0 
3.05157e+07 6.02696e+06 0 
6.02696e+06 5.75634e+07 0 
0 0 0 
4.30897e+07 -2.61703e+06 0 
-2.61703e+06 9.06912e+07 0 
0 0 0 
2.00972e+07 1.76314e+07 0 
1.76314e+07 6.0715e+07 0 
0 0 0 
-4.43696e+07 1.30854e+07 0 
1.30854e+07 -8.68594e+07 0 
0 0 0 
-2.34231e+07 1.49243e+07 0 
1.49243e+07 1.09723e+06 0 
0 0 0 
-1.45304e+07 2.7142e+06 0 
2.7142e+06 -5.18391e+06 0 
0 0 0 
4.90202e+06 723025 0 
723025 4.36692e+07 0 
0 0 0 
-5.75884e+06 7.34595e+06 0 
7.34595e+06 -3.20831e+07 0 
0 0 0 
3.50457e+07 1.5163e+07 0 
1.5163e+07 1.44083e+07 0 
0 0 0 
1.77216e+07 937352 0 
937352 -7.70158e+07 0 
0 0 0 
5.24969e+07 -7.83415e+06 0 
-7.83415e+06 1.07093e+07 0 
0 0 0 
7.34739e+07 -1.47142e+07 0 
-1.47142e+07 3.91958e+07 0 
0 0 0 
3.31402e+07 -1.21574e+07 0 
-1.21574e+07 -4.95585e+07 0 
0 0 0 
1.16902e+07 -1.24709e+07 0 
-1.24709e+07 -4.66857e+07 0 
0 0 0 
8.43102e+06 -2.27325e+07 0 
-2.27325e+07 -3.27693e+07 0 
0 0 0 
4.31751e+06 -1.56231e+07 0 
-1.56231e+07 2.58426e+07 0 
0 0 0 
-9.61725e+06 -6.64949e+06 0 
-6.64949e+06 -4.68338e+06 0 
0 0 0 
-1.66919e+07 -1.19277e+06 0 
-1.19277e+06 -1.09474e+08 0 
0 0 0 
8.83148e+06 -247267 0 
-247267 -2.03574e+07 0 
0 0 0 
1.9903e+07 2.51149e+06 0 
2.51149e+06 -3.85577e+06 0 
0 0 0 
2.32695e+07 -5.60697e+06 0 
-5.60697e+06 2.99701e+07 0 
0 0 0 
-1.28859e+07 -1.03927e+06 0 
-1.03927e+06 -2.33159e+07 0 
0 0 0 
-9.613e+06 5.44709e+06 0 
5.44709e+06 -6.58262e+07 0 
0 0 0 
4.24412e+07 -5.43648e+06 0 
-5.43648e+06 7.85565e+06 0 
0 0 0 
4.43821e+07 -1.48305e+07 0 
-1.48305e+07 -2.66644e+07 0 
0 0 0 
4.40341e+07 -7.17347e+06 0 
-7.17347e+06 3.58537e+07 0 
0 0 0 
9.07227e+06 -5.38215e+06 0 
-5.38215e+06 -3.18181e+07 0 
0 0 0 
4.50376e+07 9.14269e+06 0 
9.14269e+06 3.99823e+07 0 
0 0 0 
3.60972e+07 1.23836e+06 0 
1.23836e+06 1.90608e+07 0 
0 0 0 
4.68961e+07 -8.9983e+06 0 
-8.9983e+06 8.57075e+07 0 
0 0 0 
1.69135e+07 -3.38496e+06 0 
-3.38496e+06 -4.1749e+06 0 
0 0 0 
1.84707e+07 -1.81816e+07 0 
-1.81816e+07 1.65104e+07 0 
0 0 0 
162683 -8.41669e+06 0 
-8.41669e+06 1.17804e+07 0 
0 0 0 
-7.08738e+06 3.0398e+06 0 
3.0398e+06 1.87037e+07 0 
0 0 0 
-1.03591e+07 8.88762e+06 0 
8.88762e+06 -9.09862e+06 0 
0 0 0 
-1.59145e+07 4.06109e+06 0 
4.06109e+06 -2.84218e+06 0 
0 0 0 
0 0 0 
0 0 0 
0 0 0 
6.62033e+06 -7.01793e+06 0 
-7.01793e+06 680955 0 
0 0 0 
-2.23168e+07 5.39243e+06 0 
5.39243e+06 -2.86249e+07 0 
0 0 0 
3.71884e+07 2.3614e+06 0 
2.3614e+06 -2.0052e+07 0 
0 0 0 
-6.59527e+07 1.03192e+07 0 
1.03192e+07 -6.95341e+07 0 
0 0 0 
-3.6545e+07 5.3754e+06 0 
5.3754e+06 -6.12729e+07 0 
0 0 0 
-4.14128e+07 -4.66414e+06 0 
-4.66414e+06 -4.81446e+07 0 
0 0 0 
-2.25349e+07 110617 0 
110617 -3.11335e+07 0 
0 0 0 
2.98096e+07 -9.3347e+06 0 
-9.3347e+06 1.35976e+06 0 
0 0 0 
1.95873e+07 -4.86344e+06 0 
-4.86344e+06 4.13177e+06 0 
0 0 0 
2.10522e+07 848707 0 
848707 7.86461e+06 0 
0 0 0 
-3.39972e+07 -3.77621e+06 0 
-3.77621e+06 -1.93103e+07 0 
0 0 0 
8.15825e+06 -1.27697e+06 0 
-1.27697e+06 4.53793e+06 0 
0 0 0 
-2.91911e+07 -95509.7 0 
-95509.7 -1.63216e+06 0 
0 0 0 
4.09468e+07 4.30957e+06 0 
4.30957e+06 2.78522e+07 0 
0 0 0 
8.96408e+06 1.00012e+07 0 
1.00012e+07 3.59509e+07 0 
0 0 0 
7.38115e+06 9.83736e+06 0 
9.83736e+06 3.58431e+07 0 
0 0 0 
7.42262e+06 5.28905e+06 0 
5.28905e+06 1.58205e+07 0 
0 0 0 
7.29854e+06 -5.19158e+06 0 
-5.19158e+06 1.26492e+07 0 
0 0 0 
-1.9868e+06 5.94766e+06 0 
5.94766e+06 4.37607e+06 0 
0 0 0 
1.44007e+07 -6.34465e+06 0 
-6.34465e+06 231019 0 
0 0 0 
-2.29976e+07 -2.07931e+06 0 
-2.07931e+06 -1.62203e+07 0 
0 0 0 
-3.47056e+07 4.938e+06 0 
4.938e+06 -1.89101e+07 0 
0 0 0 
1.38703e+07 -5.95136e+06 0 
-5.95136e+06 6.37929e+06 0 
0 0 0 
-1.19725e+07 -5.93174e+06 0 
-5.93174e+06 1.33476e+07 0 
0 0 0 
5.50118e+07 326089 0 
326089 3.66623e+07 0 
0 0 0 
3.719e+07 1.24154e+07 0 
1.24154e+07 4.46253e+07 0 
0 0 0 
3.69287e+07 -2.46584e+06 0 
-2.46584e+06 3.9469e+07 0 
0 0 0 
-3.93067e+07 1.09213e+06 0 
1.09213e+06 1.76236e+06 0 
0 0 0 
-1.94794e+07 -184301 0 
-184301 -3.58815e+06 0 
0 0 0 
-5.47655e+07 4.65735e+06 0 
4.65735e+06 -2.19273e+07 0 
0 0 0 
2.61524e+07 7.5287e+06 0 
7.5287e+06 1.25569e+07 0 
0 0 0 
-2.15532e+06 -700218 0 
-700218 6.69178e+06 0 
0 0 0 
4.5979e+07 -5.60455e+06 0 
-5.60455e+06 4.01352e+07 0 
0 0 0 
-1.74108e+06 -8.26415e+06 0 
-8.26415e+06 1.61728e+07 0 
0 0 0 
3.73178e+07 -8.48722e+06 0 
-8.48722e+06 2.0346e+07 0 
0 0 0 
-2.35774e+07 -2.88181e+06 0 
-2.88181e+06 -1.4295e+07 0 
0 0 0 
1.32316e+07 5.70399e+06 0 
5.70399e+06 -1.96836e+07 0 
0 0 0 
-5.92026e+07 4.56327e+06 0 
4.56327e+06 -5.63355e+07 0 
0 0 0 
-3.20048e+06 -4.41476e+06 0 
-4.41476e+06 -3.18389e+07 0 
0 0 0 
-1.85976e+07 -9.1214e+06 0 
-9.1214e+06 -2.00004e+07 0 
0 0 0 
5.2904e+07 -1.60878e+07 0 
-1.60878e+07 3.77035e+06 0 
0 0 0 
-1.57326e+07 -2.02968e+07 0 
-2.02968e+07 -1.95112e+07 0 
0 0 0 
4.09094e+07 -3.42926e+06 0 
-3.42926e+06 -5.96325e+06 0 
0 0 0 
-5.12767e+07 1.44827e+07 0 
1.44827e+07 -4.17988e+07 0 
0 0 0 
-3.5013e+06 1.34897e+07 0 
1.34897e+07 -1.7179e+07 0 
0 0 0 
-6.02151e+07 1.14871e+07 0 
1.14871e+07 -2.76442e+07 0 
0 0 0 
3.51853e+06 -6.18828e+06 0 
-6.18828e+06 -9.06182e+06 0 
0 0 0 
-4.39595e+07 -1.45289e+07 0 
-1.45289e+07 -1.7281e+07 0 
0 0 0 
5.587e+07 -1.69284e+07 0 
-1.69284e+07 1.98037e+07 0 
0 0 0 
7.16682e+06 -1.25037e+07 0 
-1.25037e+07 -2.79249e+06 0 
0 0 0 
2.74719e+07 -6.94708e+06 0 
-6.94708e+06 8.66579e+06 0 
0 0 0 
-2.46527e+07 3.85942e+06 0 
3.85942e+06 -2.11767e+07 0 
0 0 0 
-1.31095e+07 4.44261e+06 0 
4.44261e+06 -2.06786e+07 0 
0 0 0 
-3.05202e+07 8.98408e+06 0 
8.98408e+06 -3.20718e+07 0 
0 0 0 
-4.32478e+07 1.37784e+07 0 
1.37784e+07 -3.59925e+07 0 
0 0 0 
6.18157e+06 1.06956e+07 0 
1.06956e+07 -1.00617e+07 0 
0 0 0 
-3.21185e+07 1.06352e+07 0 
1.06352e+07 -1.75621e+07 0 
0 0 0 
1.54617e+07 5.57984e+06 0 
5.57984e+06 1.51233e+07 0 
0 0 0 
-1.42262e+07 7.30225e+06 0 
7.30225e+06 1.14404e+07 0 
0 0 0 
4.34214e+07 -4.42778e+06 0 
-4.42778e+06 3.85116e+07 0 
0 0 0 
-1.21222e+07 -1.30255e+06 0 
-1.30255e+06 3.60202e+07 0 
0 0 0 
7.36782e+07 -8.88978e+06 0 
-8.88978e+06 7.53944e+07 0 
0 0 0 
-1.40028e+06 -3.69435e+06 0 
-3.69435e+06 4.97067e+07 0 
0 0 0 
3.43969e+07 -1.91154e+06 0 
-1.91154e+06 5.48992e+07 0 
0 0 0 
2.04963e+06 1.78764e+06 0 
1.78764e+06 4.03514e+07 0 
0 0 0 
-2.04844e+07 -7.34679e+06 0 
-7.34679e+06 7.37794e+06 0 
0 0 0 
-7.2387e+06 -1.9929e+06 0 
-1.9929e+06 8.09675e+06 0 
0 0 0 
-4.24e+07 -4.64906e+06 0 
-4.64906e+06 -3.2608e+07 0 
0 0 0 
-2.09293e+07 -3.74163e+06 0 
-3.74163e+06 1.21286e+07 0 
0 0 0 
0 0 0 
0 0 0 
0 0 0 
-7.3736e+06 -6.53784e+06 0 
-6.53784e+06 -6.37527e+07 0 
0 0 0 
1.92849e+07 -2.69948e+06 0 
-2.69948e+06 -1.71162e+07 0 
0 0 0 
-2.56942e+06 1.09622e+07 0 
1.09622e+07 -6.94523e+07 0 
0 0 0 
1.4758e+07 2.64592e+07 0 
2.64592e+07 -9.19295e+06 0 
0 0 0 
8.7897e+06 1.31018e+07 0 
1.31018e+07 -6.20414e+06 0 
0 0 0 
-9.1262e+06 3.36053e+06 0 
3.36053e+06 -1.81582e+07 0 
0 0 0 
-4.28101e+07 1.17371e+07 0 
1.17371e+07 -1.0769e+08 0 
0 0 0 
-2.88334e+07 1.78161e+07 0 
1.78161e+07 -5.19194e+07 0 
0 0 0 
-2.88866e+06 1.35327e+07 0 
1.35327e+07 2.296e+07 0 
0 0 0 
-2.44505e+07 -5.11495e+06 0 
-5.11495e+06 1.26514e+07 0 
0 0 0 
-5.68774e+07 -1.08084e+07 0 
-1.08084e+07 -5.50538e+07 0 
0 0 0 
-5.26019e+07 5.56695e+06 0 
5.56695e+06 -5.78031e+07 0 
0 0 0 
-3.50828e+07 2.43882e+06 0 
2.43882e+06 -2.42766e+07 0 
0 0 0 
-5.71431e+06 6.6589e+06 0 
6.6589e+06 3.82691e+07 0 
0 0 0 
-1.16428e+07 -842840 0 
-842840 1.31063e+07 0 
0 0 0 
-4.56736e+07 -3.52984e+06 0 
-3.52984e+06 -4.04918e+07 0 
0 0 0 
-3.66508e+07 4.98733e+06 0 
4.98733e+06 -9.03296e+06 0 
0 0 0 
8.90177e+06 -5.92381e+06 0 
-5.92381e+06 -2.49393e+07 0 
0 0 0 
-4.88601e+07 -1.365e+07 0 
-1.365e+07 1.87167e+07 0 
0 0 0 
-6.62079e+07 9.89572e+06 0 
9.89572e+06 -1.36568e+07 0 
0 0 0 
3.771e+07 -1.43529e+07 0 
-1.43529e+07 7.64709e+07 0 
0 0 0 
1.46116e+07 2.33374e+06 0 
2.33374e+06 3.23076e+07 0 
0 0 0 
1.53939e+07 2.03386e+07 0 
2.03386e+07 1.08397e+08 0 
0 0 0 
1.68539e+07 2.90075e+06 0 
2.90075e+06 1.11157e+07 0 
0 0 0 
3.54629e+07 1.36251e+07 0 
1.36251e+07 4.80443e+07 0 
0 0 0 
1.2857e+07 2.52688e+07 0 
2.52688e+07 -5.85727e+06 0 
0 0 0 
5.24781e+07 1.12612e+07 0 
1.12612e+07 1.24455e+08 0 
0 0 0 
6.31722e+07 1.09381e+07 0 
1.09381e+07 9.02396e+07 0 
0 0 0 
8.23496e+07 6.59495e+06 0 
6.59495e+06 7.95094e+07 0 
0 0 0 
7.11357e+07 1.33128e+07 0 
1.33128e+07 4.43085e+07 0 
0 0 0 
9.34784e+07 1.0076e+07 0 
1.0076e+07 5.67412e+07 0 
0 0 0 
9.03325e+07 9.66824e+06 0 
9.66824e+06 5.5018e+07 0 
0 0 0 
1.19143e+08 1.60386e+06 0 
1.60386e+06 1.32481e+08 0 
0 0 0 
9.94022e+07 5.23365e+06 0 
5.23365e+06 9.07635e+07 0 
0 0 0 
5.21092e+07 1.21984e+07 0 
1.21984e+07 -3.18496e+07 0 
0 0 0 
7.18058e+07 2.09293e+07 0 
2.09293e+07 1.54555e+07 0 
0 0 0 
7.11485e+07 9.17435e+06 0 
9.17435e+06 -5.43142e+06 0 
0 0 0 
8.84528e+07 -9.38296e+06 0 
-9.38296e+06 7.19144e+07 0 
0 0 0 
5.41947e+07 7.75961e+06 0 
7.75961e+06 1.79945e+07 0 
0 0 0 
3.30112e+07 1.32121e+07 0 
1.32121e+07 -1.03259e+06 0 
0 0 0 
-1.16788e+07 2.37219e+06 0 
2.37219e+06 -8.19203e+07 0 
0 0 0 
1.09406e+07 860921 0 
860921 -3.23101e+07 0 
0 0 0 
9.46352e+06 -1.50865e+07 0 
-1.50865e+07 3.3571e+07 0 
0 0 0 
-3.9969e+07 -1.48765e+07 0 
-1.48765e+07 -7.8178e+07 0 
0 0 0 
-3.96518e+07 -1.30092e+07 0 
-1.30092e+07 -9.07489e+07 0 
0 0 0 
-1.21539e+07 -2.67695e+07 0 
-2.67695e+07 -1.787e+07 0 
0 0 0 
2.67712e+07 -7.12549e+06 0 
-7.12549e+06 3.17018e+07 0 
0 0 0 
1.19287e+07 -9.96486e+06 0 
-9.96486e+06 1.42658e+06 0 
0 0 0 
-6.64566e+07 -9.80103e+06 0 
-9.80103e+06 -1.08208e+08 0 
0 0 0 
-4.97514e+07 3.48038e+06 0 
3.48038e+06 -4.00816e+07 0 
0 0 0 
-5.00829e+07 2.64723e+06 0 
2.64723e+06 -3.48084e+07 0 
0 0 0 
-2.57154e+07 -1.5107e+07 0 
-1.5107e+07 2.14167e+07 0 
0 0 0 
-2.80468e+07 -1.36198e+07 0 
-1.36198e+07 -2.17904e+07 0 
0 0 0 
-7.32772e+07 -2.79214e+06 0 
-2.79214e+06 -8.04905e+07 0 
0 0 0 
-7.10902e+07 -1.18795e+06 0 
-1.18795e+06 -4.6242e+07 0 
0 0 0 
-5.5544e+07 -3.02093e+06 0 
-3.02093e+06 -6.16226e+07 0 
0 0 0 
-1.13605e+07 -1.20734e+07 0 
-1.20734e+07 1.52079e+07 0 
0 0 0 
-6.93906e+06 3.66925e+06 0 
3.66925e+06 -2.13111e+07 0 
0 0 0 
-703673 6.0331e+06 0 
6.0331e+06 2.98575e+07 0 
0 0 0 
-3.13192e+07 6.8593e+06 0 
6.8593e+06 1.21257e+06 0 
0 0 0 
-1.73323e+07 2.48344e+06 0 
2.48344e+06 3.72724e+07 0 
0 0 0 
-3.38942e+07 -6.30962e+06 0 
-6.30962e+06 -2.51042e+07 0 
0 0 0 
-1.62511e+07 -2.00947e+07 0 
-2.00947e+07 1.8996e+06 0 
0 0 0 
3.67361e+06 -1.20203e+07 0 
-1.20203e+07 2.00904e+07 0 
0 0 0 
9.28505e+06 -6.75752e+06 0 
-6.75752e+06 3.81598e+07 0 
0 0 0 
-2.86874e+07 996709 0 
996709 -2.63103e+06 0 
0 0 0 
-3.39037e+07 303130 0 
303130 -1.29552e+07 0 
0 0 0 
-1.76981e+07 -7.37842e+06 0 
-7.37842e+06 -3.20817e+07 0 
0 0 0 
0 0 0 
0 0 0 
0 0 0 
-2.53476e+06 -9.50519e+06 0 
-9.50519e+06 4.64313e+06 0 
0 0 0 
6.36674e+06 -9.10277e+06 0 
-9.10277e+06 1.15804e+07 0 
0 0 0 
4.15269e+07 -4.13125e+06 0 
-4.13125e+06 1.65126e+07 0 
0 0 0 
-4.23079e+07 -8.86678e+06 0 
-8.86678e+06 -6.45413e+06 0 
0 0 0 
-2.26768e+07 839952 0 
839952 -4.72557e+06 0 
0 0 0 
-4.06083e+07 -5.13258e+06 0 
-5.13258e+06 -2.37094e+07 0 
0 0 0 
-9.2276e+06 4.04183e+06 0 
4.04183e+06 -1.81282e+07 0 
0 0 0 
2.28526e+07 -2.42405e+06 0 
-2.42405e+06 -4.05422e+06 0 
0 0 0 
2.67489e+07 2.401e+06 0 
2.401e+06 1.21447e+07 0 
0 0 0 
1.78431e+07 966707 0 
966707 2.21934e+07 0 
0 0 0 
-2.21075e+07 -4.54807e+06 0 
-4.54807e+06 1.19024e+07 0 
0 0 0 
1.83398e+07 4.72726e+06 0 
4.72726e+06 1.63965e+07 0 
0 0 0 
-1.10719e+07 -99073.6 0 
-99073.6 6.13471e+06 0 
0 0 0 
3.78657e+07 1.75588e+07 0 
1.75588e+07 2.4141e+07 0 
0 0 0 
6.4302e+06 1.80695e+07 0 
1.80695e+07 1.43537e+07 0 
0 0 0 
-5.61441e+06 2.48658e+06 0 
2.48658e+06 2.49613e+06 0 
0 0 0 
-1.60863e+07 5.26318e+06 0 
5.26318e+06 -5.43996e+06 0 
0 0 0 
-9.95505e+06 -9.3498e+06 0 
-9.3498e+06 -4.98927e+06 0 
0 0 0 
4.69201e+06 -1.1966e+07 0 
-1.1966e+07 2.82375e+06 0 
0 0 0 
1.30559e+07 -8.73205e+06 0 
-8.73205e+06 34905.2 0 
0 0 0 
-2.28598e+06 -1.9859e+06 0 
-1.9859e+06 -9.47994e+06 0 
0 0 0 
-3.94367e+07 722206 0 
722206 -3.32154e+07 0 
0 0 0 
-1.8133e+06 6.96509e+06 0 
6.96509e+06 -1.27054e+07 0 
0 0 0 
-2.01341e+07 1.06134e+07 0 
1.06134e+07 -1.03232e+07 0 
0 0 0 
6.45606e+07 1.00124e+07 0 
1.00124e+07 1.84739e+07 0 
0 0 0 
4.38367e+06 3.7182e+06 0 
3.7182e+06 -9.49126e+06 0 
0 0 0 
8.89788e+06 -1.33521e+07 0 
-1.33521e+07 -8.98946e+06 0 
0 0 0 
-4.3395e+07 -1.03722e+07 0 
-1.03722e+07 -3.38143e+07 0 
0 0 0 
-2.64015e+07 -324084 0 
-324084 -3.34104e+07 0 
0 0 0 
-3.95175e+07 7.34114e+06 0 
7.34114e+06 -2.96667e+07 0 
0 0 0 
1.86044e+07 1.26291e+07 0 
1.26291e+07 -4.1614e+06 0 
0 0 0 
-1.19604e+07 7.52791e+06 0 
7.52791e+06 -4.72557e+06 0 
0 0 0 
2.73559e+07 4.54365e+06 0 
4.54365e+06 1.70752e+07 0 
0 0 0 
-3.51854e+06 -8.70415e+06 0 
-8.70415e+06 2.80862e+07 0 
0 0 0 
4.45278e+07 -1.48177e+07 0 
-1.48177e+07 4.28066e+07 0 
0 0 0 
-9.77616e+06 -9.12916e+06 0 
-9.12916e+06 3.32757e+07 0 
0 0 0 
4.38667e+07 -1.00379e+07 0 
-1.00379e+07 5.07808e+07 0 
0 0 0 
-3.33165e+07 2.18361e+06 0 
2.18361e+06 1.08702e+07 0 
0 0 0 
1.80668e+07 7.79186e+06 0 
7.79186e+06 2.62463e+07 0 
0 0 0 
-2.5341e+07 239012 0 
239012 1.78861e+07 0 
0 0 0 
7.73968e+07 -7.5038e+06 0 
-7.5038e+06 6.9414e+07 0 
0 0 0 
7.24761e+06 -1.22707e+07 0 
-1.22707e+07 6.74738e+07 0 
0 0 0 
9.17423e+07 -9.26266e+06 0 
-9.26266e+06 8.9682e+07 0 
0 0 0 
-1.4844e+07 -644344 0 
-644344 2.59597e+07 0 
0 0 0 
6.20898e+06 4.79565e+06 0 
4.79565e+06 -791373 0 
0 0 0 
-7.23099e+07 1.18795e+07 0 
1.18795e+07 -4.18783e+07 0 
0 0 0 
-5.77378e+06 4.16646e+06 0 
4.16646e+06 -1.58805e+07 0 
0 0 0 
-5.80964e+07 1.3985e+06 0 
1.3985e+06 -2.26297e+07 0 
0 0 0 
4.70324e+07 -1.20945e+07 0 
-1.20945e+07 3.46663e+07 0 
0 0 0 
1.5935e+07 -1.66448e+07 0 
-1.66448e+07 4.64174e+07 0 
0 0 0 
6.82908e+07 -2.19734e+07 0 
-2.19734e+07 6.81732e+07 0 
0 0 0 
1.84245e+07 -1.42809e+07 0 
-1.42809e+07 4.86272e+07 0 
0 0 0 
1.31117e+07 -1.5876e+06 0 
-1.5876e+06 3.89554e+07 0 
0 0 0 
-1.60913e+07 1.23722e+06 0 
1.23722e+06 3.2048e+07 0 
0 0 0 
-1.97369e+07 1.19714e+07 0 
1.19714e+07 1.30231e+07 0 
0 0 0 
5.69341e+06 3.01579e+06 0 
3.01579e+06 1.28547e+07 0 
0 0 0 
-8.04029e+06 6.06377e+06 0 
6.06377e+06 1.21155e+07 0 
0 0 0 
1.09824e+07 6.59012e+06 0 
6.59012e+06 1.46301e+07 0 
0 0 0 
-1.04982e+07 3.2579e+06 0 
3.2579e+06 1.75599e+07 0 
0 0 0 
3.0307e+07 5.53063e+06 0 
5.53063e+06 4.46511e+07 0 
0 0 0 
-1.75157e+07 932198 0 
932198 2.7459e+07 0 
0 0 0 
6.55748e+07 -7.66376e+06 0 
-7.66376e+06 4.53733e+07 0 
0 0 0 
-3.00111e+06 -1.64929e+06 0 
-1.64929e+06 3.50885e+07 0 
0 0 0 
3.07686e+07 -3.85731e+06 0 
-3.85731e+06 5.08278e+07 0 
0 0 0 
-1.01266e+07 -2.19778e+06 0 
-2.19778e+06 3.00548e+07 0 
0 0 0 
-3.18859e+06 -1.2697e+07 0 
-1.2697e+07 3.84468e+07 0 
0 0 0 
-1.20074e+07 5.8484e+06 0 
5.8484e+06 4.40289e+07 0 
0 0 0 
6.17682e+06 -4.52896e+06 0 
-4.52896e+06 6.33633e+07 0 
0 0 0 
2.77706e+06 -2.05845e+06 0 
-2.05845e+06 1.71598e+07 0 
0 0 0 
3.528e+07 3.7609e+06 0 
3.7609e+06 9.22604e+07 0 
0 0 0 
0 0 0 
0 0 0 
0 0 0 
-2.48388e+07 -4.47369e+06 0 
-4.47369e+06 -8.85259e+07 0 
0 0 0 
3.25065e+06 -1.08639e+07 0 
-1.08639e+07 -3.77133e+06 0 
0 0 0 
1.52008e+06 5.83642e+06 0 
5.83642e+06 -4.32613e+07 0 
0 0 0 
1.40382e+07 1.2019e+07 0 
1.2019e+07 -8.67576e+06 0 
0 0 0 
4.24585e+06 1.03804e+07 0 
1.03804e+07 -2.11526e+07 0 
0 0 0 
1.60568e+07 -2.22647e+06 0 
-2.22647e+06 -3.01364e+07 0 
0 0 0 
-6.82383e+06 545762 0 
545762 -8.88336e+07 0 
0 0 0 
1.07163e+07 7.03116e+06 0 
7.03116e+06 -2.38228e+07 0 
0 0 0 
-9.92728e+06 -1.77829e+06 0 
-1.77829e+06 -1.56993e+06 0 
0 0 0 
-1.08679e+07 -8.09664e+06 0 
-8.09664e+06 1.48302e+07 0 
0 0 0 
-1.18971e+07 -6.07536e+06 0 
-6.07536e+06 -3.41849e+07 0 
0 0 0 
-5.51409e+06 6.31677e+06 0 
6.31677e+06 -3.21289e+07 0 
0 0 0 
1.17023e+07 1.76805e+07 0 
1.76805e+07 -4.42454e+06 0 
0 0 0 
2.64001e+07 1.11547e+07 0 
1.11547e+07 4.37835e+07 0 
0 0 0 
1.77991e+07 -3.51673e+06 0 
-3.51673e+06 216796 0 
0 0 0 
2.88504e+07 -1.30921e+07 0 
-1.30921e+07 5.81381e+06 0 
0 0 0 
5.80092e+07 1.84792e+07 0 
1.84792e+07 2.11208e+07 0 
0 0 0 
4.21655e+07 1.75138e+07 0 
1.75138e+07 -5.25601e+06 0 
0 0 0 
-2.93054e+07 1.99428e+07 0 
1.99428e+07 7.21417e+07 0 
0 0 0 
2.04951e+07 -3.12509e+07 0 
-3.12509e+07 5.05664e+07 0 
0 0 0 
4.27181e+07 -4.67265e+07 0 
-4.67265e+07 9.47818e+07 0 
0 0 0 
-3.47738e+06 2.87899e+07 0 
2.87899e+07 3.6039e+07 0 
0 0 0 
5.66048e+07 2.18203e+07 0 
2.18203e+07 8.27514e+07 0 
0 0 0 
3.68655e+07 3.22423e+06 0 
3.22423e+06 1.66458e+07 0 
0 0 0 
4.77193e+07 8.7438e+06 0 
8.7438e+06 5.73687e+07 0 
0 0 0 
2.19073e+07 2.3645e+07 0 
2.3645e+07 1.07388e+07 0 
0 0 0 
4.32981e+07 1.32736e+07 0 
1.32736e+07 9.86548e+07 0 
0 0 0 
2.20172e+07 1.19847e+07 0 
1.19847e+07 7.57381e+07 0 
0 0 0 
1.40973e+07 -1.63021e+06 0 
-1.63021e+06 5.45672e+07 0 
0 0 0 
5.91508e+06 1.06917e+07 0 
1.06917e+07 3.36368e+07 0 
0 0 0 
-6.88527e+06 6.52988e+06 0 
6.52988e+06 1.49738e+07 0 
0 0 0 
6.75894e+06 5.80334e+06 0 
5.80334e+06 2.39035e+07 0 
0 0 0 
3.72233e+07 -1.31447e+06 0 
-1.31447e+06 1.00524e+08 0 
0 0 0 
4.67102e+07 2.14281e+06 0 
2.14281e+06 8.34898e+07 0 
0 0 0 
1.14336e+07 2.90176e+06 0 
2.90176e+06 -2.71889e+07 0 
0 0 0 
1.70983e+07 1.54179e+07 0 
1.54179e+07 5.5493e+06 0 
0 0 0 
-2.30446e+07 1.45404e+07 0 
1.45404e+07 -5.86501e+07 0 
0 0 0 
1.79041e+07 8.98215e+06 0 
8.98215e+06 4.27689e+07 0 
0 0 0 
1.2434e+07 4.64322e+06 0 
4.64322e+06 1.03269e+07 0 
0 0 0 
-8.59919e+06 1.10028e+07 0 
1.10028e+07 2.86839e+06 0 
0 0 0 
-2.99601e+07 6.94281e+06 0 
6.94281e+06 -1.15829e+08 0 
0 0 0 
-1.00908e+07 -2.87196e+06 0 
-2.87196e+06 -2.21662e+07 0 
0 0 0 
2.1316e+07 -1.19148e+07 0 
-1.19148e+07 6.42195e+06 0 
0 0 0 
2.14132e+07 -2.22034e+07 0 
-2.22034e+07 -4.96015e+07 0 
0 0 0 
-5.1888e+06 -1.69689e+07 0 
-1.69689e+07 -9.62119e+07 0 
0 0 0 
1.57135e+07 -2.04741e+07 0 
-2.04741e+07 2.31032e+06 0 
0 0 0 
5.88306e+06 -1.65017e+07 0 
-1.65017e+07 2.72424e+07 0 
0 0 0 
-1.68523e+07 -1.57532e+07 0 
-1.57532e+07 -6.53797e+06 0 
0 0 0 
-2.27297e+07 -4.59217e+06 0 
-4.59217e+06 -7.72718e+07 0 
0 0 0 
9.19536e+06 6.37867e+06 0 
6.37867e+06 -1.53913e+07 0 
0 0 0 
-6.29688e+06 -1.49773e+06 0 
-1.49773e+06 -3.73405e+07 0 
0 0 0 
-3.13186e+06 -1.10476e+07 0 
-1.10476e+07 2.29774e+07 0 
0 0 0 
-1.77121e+07 -1.37793e+07 0 
-1.37793e+07 -1.38228e+07 0 
0 0 0 
-2.12849e+06 -5.97853e+06 0 
-5.97853e+06 -3.35791e+07 0 
0 0 0 
6.12266e+06 6.69698e+06 0 
6.69698e+06 -3.39212e+07 0 
0 0 0 
8.43083e+06 2.17442e+06 0 
2.17442e+06 -2.93649e+07 0 
0 0 0 
2.21071e+07 -3.83729e+06 0 
-3.83729e+06 8.48322e+06 0 
0 0 0 
-1.3916e+06 -2.97346e+06 0 
-2.97346e+06 -7.31964e+06 0 
0 0 0 
5.4968e+06 -1.51605e+06 0 
-1.51605e+06 4.40669e+07 0 
0 0 0 
-1.0597e+07 -7.03864e+06 0 
-7.03864e+06 2.04502e+06 0 
0 0 0 
5.24996e+06 -2.17405e+06 0 
-2.17405e+06 3.38396e+07 0 
0 0 0 
-1.65626e+07 -3.52939e+06 0 
-3.52939e+06 -3.12477e+07 0 
0 0 0 
-1.62859e+06 -6.24031e+06 0 
-6.24031e+06 1.21297e+07 0 
0 0 0 
2.10918e+07 -4.0249e+06 0 
-4.0249e+06 1.64364e+07 0 
0 0 0 
4.34094e+07 -4.46378e+06 0 
-4.46378e+06 7.76498e+07 0 
0 0 0 
2.73017e+07 -648604 0 
-648604 8.47241e+06 0 
0 0 0 
3.53444e+07 2.875e+06 0 
2.875e+06 1.88274e+07 0 
0 0 0 
2.55304e+06 -5.4046e+06 0 
-5.4046e+06 -3.65124e+07 0 
0 0 0 
1.94004e+07 91683.6 0 
91683.6 3.04131e+07 0 
0 0 0 
0 0 0 
0 0 0 
0 0 0 
-1.5596e+07 -4.08832e+06 0 
-4.08832e+06 -9.36029e+06 0 
0 0 0 
1.26379e+07 -1.748e+06 0 
-1.748e+06 -2.86116e+06 0 
0 0 0 
1.31621e+07 -8.03715e+06 0 
-8.03715e+06 -9.17806e+06 0 
0 0 0 
-5.13722e+07 -4.38868e+06 0 
-4.38868e+06 -4.8007e+07 0 
0 0 0 
-1.85607e+07 2.86714e+06 0 
2.86714e+06 -4.05201e+07 0 
0 0 0 
-4.7291e+07 6.07866e+06 0 
6.07866e+06 -3.23284e+07 0 
0 0 0 
8.92844e+06 1.01011e+07 0 
1.01011e+07 -8.62359e+06 0 
0 0 0 
7.445e+06 1.0305e+07 0 
1.0305e+07 -6.37204e+06 0 
0 0 0 
1.63651e+07 3.04737e+06 0 
3.04737e+06 8.2199e+06 0 
0 0 0 
-3.16468e+06 -4.89077e+06 0 
-4.89077e+06 -7.45584e+06 0 
0 0 0 
-4.89871e+06 -2.98655e+06 0 
-2.98655e+06 -5.00909e+06 0 
0 0 0 
1.98104e+07 6.60469e+06 0 
6.60469e+06 1.10284e+07 0 
0 0 0 
-6.32592e+06 7.09324e+06 0 
7.09324e+06 1.12257e+07 0 
0 0 0 
4.90613e+07 6.76399e+06 0 
6.76399e+06 3.77941e+07 0 
0 0 0 
-1.4629e+07 6.04716e+06 0 
6.04716e+06 2.4457e+06 0 
0 0 0 
842246 -6.5657e+06 0 
-6.5657e+06 6.15169e+06 0 
0 0 0 
-2.10952e+07 -4.17366e+06 0 
-4.17366e+06 -8.68916e+06 0 
0 0 0 
-1.70821e+07 4.09966e+06 0 
4.09966e+06 -6.84357e+06 0 
0 0 0 
8.47805e+06 6.97516e+06 0 
6.97516e+06 4.97972e+06 0 
0 0 0 
1.82197e+07 -4.54587e+06 0 
-4.54587e+06 1.44396e+07 0 
0 0 0 
-3.02612e+06 -6.84115e+06 0 
-6.84115e+06 1.87486e+07 0 
0 0 0 
-3.73882e+06 -1.00545e+07 0 
-1.00545e+07 3.56465e+07 0 
0 0 0 
2.67178e+07 4.53042e+06 0 
4.53042e+06 3.69777e+07 0 
0 0 0 
-5.72192e+06 6.25995e+06 0 
6.25995e+06 2.34819e+07 0 
0 0 0 
5.95319e+07 -367955 0 
-367955 4.16571e+07 0 
0 0 0 
-7.01164e+06 -3.94579e+06 0 
-3.94579e+06 -2.54988e+06 0 
0 0 0 
3.49099e+06 -6.37965e+06 0 
-6.37965e+06 -3.52792e+06 0 
0 0 0 
-3.0517e+07 -1.58401e+07 0 
-1.58401e+07 -7.25646e+06 0 
0 0 0 
2.48164e+06 -22100.6 0 
-22100.6 6.32561e+06 0 
0 0 0 
-6.71923e+06 1.03761e+07 0 
1.03761e+07 1.03765e+07 0 
0 0 0 
2.95046e+07 1.66416e+07 0 
1.66416e+07 2.04335e+07 0 
0 0 0 
-1.18339e+07 1.23513e+07 0 
1.23513e+07 9.10371e+06 0 
0 0 0 
2.19334e+07 1.29423e+07 0 
1.29423e+07 2.35478e+07 0 
0 0 0 
-1.6189e+07 9.00048e+06 0 
9.00048e+06 2.21976e+07 0 
0 0 0 
3.04316e+07 -1.37657e+07 0 
-1.37657e+07 5.41461e+07 0 
0 0 0 
-5.03624e+06 -2.55941e+06 0 
-2.55941e+06 3.50519e+07 0 
0 0 0 
4.96064e+07 -7.94124e+06 0 
-7.94124e+06 4.99424e+07 0 
0 0 0 
-1.17678e+07 211251 0 
211251 1.96655e+07 0 
0 0 0 
9.43782e+06 7.22567e+06 0 
7.22567e+06 1.92844e+07 0 
0 0 0 
-1.9043e+07 9.25291e+06 0 
9.25291e+06 1.07641e+07 0 
0 0 0 
2.95754e+07 834041 0 
834041 2.21734e+07 0 
0 0 0 
666201 -7.52626e+06 0 
-7.52626e+06 9.55571e+06 0 
0 0 0 
5.96301e+07 -1.55673e+07 0 
-1.55673e+07 3.96244e+07 0 
0 0 0 
4.09535e+06 -1.12562e+07 0 
-1.12562e+07 1.99614e+07 0 
0 0 0 
1.80758e+07 -7.20655e+06 0 
-7.20655e+06 1.52763e+07 0 
0 0 0 
-4.86627e+07 9.78158e+06 0 
9.78158e+06 -2.61829e+07 0 
0 0 0 
-1.39319e+07 7.58558e+06 0 
7.58558e+06 -2.65364e+07 0 
0 0 0 
-6.66206e+07 1.22868e+07 0 
1.22868e+07 -4.41544e+07 0 
0 0 0 
-8.49872e+06 8.84929e+06 0 
8.84929e+06 -1.10858e+07 0 
0 0 0 
7.32513e+06 -371067 0 
-371067 1.47572e+07 0 
0 0 0 
5.00799e+07 -5.56659e+06 0 
-5.56659e+06 4.8586e+07 0 
0 0 0 
4.70326e+07 -1.80951e+07 0 
-1.80951e+07 6.07152e+07 0 
0 0 0 
2.01148e+07 -8.98307e+06 0 
-8.98307e+06 5.43319e+07 0 
0 0 0 
-4.22098e+06 -5.3262e+06 0 
-5.3262e+06 3.89523e+07 0 
0 0 0 
-1.10413e+07 -1.67197e+06 0 
-1.67197e+06 3.59447e+07 0 
0 0 0 
1.19651e+07 5.84971e+06 0 
5.84971e+06 2.57101e+07 0 
0 0 0 
-1.33192e+07 -247875 0 
-247875 -9.88829e+06 0 
0 0 0 
1.35363e+07 7.28428e+06 0 
7.28428e+06 -7.35413e+06 0 
0 0 0 
-2.66479e+07 1.20021e+07 0 
1.20021e+07 -6.99245e+06 0 
0 0 0 
1.53354e+07 1.01134e+06 0 
1.01134e+06 1.79284e+07 0 
0 0 0 
-2.28258e+07 -4.16027e+06 0 
-4.16027e+06 7.40029e+06 0 
0 0 0 
4.29892e+07 -1.03086e+07 0 
-1.03086e+07 4.11767e+07 0 
0 0 0 
3.03825e+06 -1.56562e+07 0 
-1.56562e+07 1.70485e+07 0 
0 0 0 
1.47995e+07 -1.36627e+07 0 
-1.36627e+07 7.51621e+06 0 
0 0 0 
-3.21865e+07 -1.05928e+07 0 
-1.05928e+07 -1.32786e+07 0 
0 0 0 
-991029 -9.83162e+06 0 
-9.83162e+06 1.51444e+06 0 
0 0 0 
-3.87982e+07 -1.15357e+06 0 
-1.15357e+06 -2.65502e+07 0 
0 0 0 
-5.90098e+06 1.65847e+07 0 
1.65847e+07 -3.68924e+07 0 
0 0 0 
-1.63709e+07 1.41952e+07 0 
1.41952e+07 -3.84671e+07 0 
0 0 0 
2.97594e+07 -276499 0 
-276499 1.03206e+08 0 
0 0 0 
-3.03359e+07 1.05573e+07 0 
1.05573e+07 -4.52761e+07 0 
0 0 0 
0 0 0 
0 0 0 
0 0 0 
-1.68288e+07 1.4231e+07 0 
1.4231e+07 -8.3786e+07 0 
0 0 0 
3.11822e+07 3.0287e+06 0 
3.0287e+06 -2.71294e+06 0 
0 0 0 
2.38155e+07 1.00264e+07 0 
1.00264e+07 -1.79447e+07 0 
0 0 0 
1.44561e+07 1.12975e+06 0 
1.12975e+06 -2.58884e+07 0 
0 0 0 
2.88774e+07 5.17488e+06 0 
5.17488e+06 7.51556e+06 0 
0 0 0 
2.67982e+07 2.03198e+07 0 
2.03198e+07 -2.08951e+07 0 
0 0 0 
-1.60314e+07 7.2554e+06 0 
7.2554e+06 -1.18777e+08 0 
0 0 0 
-9.22694e+06 1.1654e+07 0 
1.1654e+07 -1.8674e+07 0 
0 0 0 
-5.57173e+06 -7.28879e+06 0 
-7.28879e+06 -8.42336e+06 0 
0 0 0 
-5.85694e+06 2.23729e+06 0 
2.23729e+06 6.86428e+06 0 
0 0 0 
4.10004e+06 -1.58916e+06 0 
-1.58916e+06 -1.72102e+07 0 
0 0 0 
1.29817e+07 1.05282e+07 0 
1.05282e+07 -1.21994e+07 0 
0 0 0 
2.8402e+06 1.18566e+07 0 
1.18566e+07 -1.64125e+06 0 
0 0 0 
1.32346e+07 8.77994e+06 0 
8.77994e+06 1.99313e+07 0 
0 0 0 
-9.24157e+06 3.31273e+06 0 
3.31273e+06 -9.40158e+06 0 
0 0 0 
-8.54731e+06 1.54319e+06 0 
1.54319e+06 -1.1572e+07 0 
0 0 0 
-1.9081e+07 1.55627e+07 0 
1.55627e+07 1.85266e+07 0 
0 0 0 
-2.29448e+07 1.99638e+07 0 
1.99638e+07 -849619 0 
0 0 0 
-7.17369e+07 -1.53588e+07 0 
-1.53588e+07 -1.26591e+07 0 
0 0 0 
-8.87355e+07 -5.05882e+06 0 
-5.05882e+06 -3.10167e+07 0 
0 0 0 
-6.96851e+07 167892 0 
167892 4.10264e+07 0 
0 0 0 
-2.97524e+07 2.87662e+07 0 
2.87662e+07 1.50259e+07 0 
0 0 0 
5.13567e+07 -4.22521e+06 0 
-4.22521e+06 1.08852e+08 0 
0 0 0 
1.31289e+07 1.01299e+07 0 
1.01299e+07 2.33435e+07 0 
0 0 0 
3.60576e+07 1.12719e+07 0 
1.12719e+07 4.9875e+07 0 
0 0 0 
3.6784e+07 2.18021e+07 0 
2.18021e+07 3.41689e+07 0 
0 0 0 
5.41542e+07 1.30629e+07 0 
1.30629e+07 8.7788e+07 0 
0 0 0 
5.75427e+07 1.79227e+07 0 
1.79227e+07 7.05079e+07 0 
0 0 0 
5.30137e+07 6.79235e+06 0 
6.79235e+06 6.92203e+07 0 
0 0 0 
5.37099e+07 1.0656e+07 0 
1.0656e+07 5.38522e+07 0 
0 0 0 
4.6337e+07 1.35636e+07 0 
1.35636e+07 4.36364e+07 0 
0 0 0 
4.35838e+07 2.98716e+07 0 
2.98716e+07 4.63038e+07 0 
0 0 0 
6.8201e+07 2.1118e+07 0 
2.1118e+07 9.16055e+07 0 
0 0 0 
7.02741e+07 1.51129e+07 0 
1.51129e+07 7.85102e+07 0 
0 0 0 
6.5084e+07 3.26641e+06 0 
3.26641e+06 6.70092e+06 0 
0 0 0 
7.32964e+07 1.39751e+07 0 
1.39751e+07 3.68299e+07 0 
0 0 0 
4.77564e+07 2.73756e+06 0 
2.73756e+06 -2.90562e+07 0 
0 0 0 
5.64319e+07 1.40542e+07 0 
1.40542e+07 4.13195e+07 0 
0 0 0 
4.20461e+07 1.24479e+06 0 
1.24479e+06 1.87636e+07 0 
0 0 0 
3.68634e+07 2.77186e+06 0 
2.77186e+06 9.32091e+06 0 
0 0 0 
-3.7557e+07 -2.91395e+06 0 
-2.91395e+06 -1.23486e+08 0 
0 0 0 
-7.29978e+06 -1.23246e+07 0 
-1.23246e+07 -2.38346e+07 0 
0 0 0 
-1.27459e+07 -6.22218e+06 0 
-6.22218e+06 -1.10207e+07 0 
0 0 0 
-1.57018e+07 -1.21739e+07 0 
-1.21739e+07 -7.09195e+07 0 
0 0 0 
-1.95945e+07 -2.31236e+07 0 
-2.31236e+07 -1.05149e+08 0 
0 0 0 
1.76978e+07 -2.89358e+07 0 
-2.89358e+07 3.34295e+06 0 
0 0 0 
3.20116e+07 -1.90895e+07 0 
-1.90895e+07 3.44842e+07 0 
0 0 0 
2.84833e+07 -2.12423e+07 0 
-2.12423e+07 2.18088e+07 0 
0 0 0 
-3.64903e+06 -9.89718e+06 0 
-9.89718e+06 -5.62487e+07 0 
0 0 0 
-1.17952e+07 -616730 0 
-616730 -1.41017e+07 0 
0 0 0 
-3.08313e+07 -1.17404e+06 0 
-1.17404e+06 -5.78136e+07 0 
0 0 0 
1.56135e+07 -8.16823e+06 0 
-8.16823e+06 2.4565e+07 0 
0 0 0 
-4.50173e+06 -1.70222e+07 0 
-1.70222e+07 -2.1285e+07 0 
0 0 0 
-3.38673e+07 -1.2008e+07 0 
-1.2008e+07 -1.63102e+07 0 
0 0 0 
-4.28258e+07 1.103e+07 0 
1.103e+07 -3.25658e+07 0 
0 0 0 
-6.50019e+07 3.2876e+06 0 
3.2876e+06 -7.90339e+07 0 
0 0 0 
-4.59865e+07 -8.54648e+06 0 
-8.54648e+06 -1.70096e+07 0 
0 0 0 
-3.544e+07 -8.81918e+06 0 
-8.81918e+06 -2.2806e+07 0 
0 0 0 
-1.88163e+07 -7.01987e+06 0 
-7.01987e+06 5.71055e+07 0 
0 0 0 
-4.83926e+07 -2.55987e+06 0 
-2.55987e+06 -1.82912e+07 0 
0 0 0 
-6.02849e+07 -1.84517e+06 0 
-1.84517e+06 -5.57814e+06 0 
0 0 0 
-6.53355e+07 -5.10645e+06 0 
-5.10645e+06 -1.98317e+07 0 
0 0 0 
-3.38058e+07 1.06452e+07 0 
1.06452e+07 -3.99637e+06 0 
0 0 0 
-1.11092e+07 1.38357e+07 0 
1.38357e+07 4.59036e+06 0 
0 0 0 
3.49002e+07 -3.01016e+06 0 
-3.01016e+06 7.5691e+07 0 
0 0 0 
5.34438e+06 -6.90684e+06 0 
-6.90684e+06 -1.17895e+07 0 
0 0 0 
4.59489e+06 -5.50572e+06 0 
-5.50572e+06 2.22046e+07 0 
0 0 0 
-4.99154e+06 -8.12286e+06 0 
-8.12286e+06 -4.65793e+07 0 
0 0 0 
3.55241e+07 -2.97696e+06 0 
-2.97696e+06 4.89496e+07 0 
0 0 0 
6.46844e+07 -2.08202e+06 0 
-2.08202e+06 1.13953e+08 0 
0 0 0 
0 0 0 
0 0 0 
0 0 0 
-1.37941e+07 -4.87665e+06 0 
-4.87665e+06 4.4857e+06 0 
0 0 0 
1.97983e+07 -1.22605e+07 0 
-1.22605e+07 1.1132e+07 0 
0 0 0 
4.1726e+06 -5.94034e+06 0 
-5.94034e+06 9.59778e+06 0 
0 0 0 
-1.34106e+07 -8.27125e+06 0 
-8.27125e+06 1.47248e+07 0 
0 0 0 
2.54968e+06 7.47177e+06 0 
7.47177e+06 1.95484e+07 0 
0 0 0 
-3.10287e+07 3.38428e+06 0 
3.38428e+06 4.33468e+06 0 
0 0 0 
3.4236e+07 4.39816e+06 0 
4.39816e+06 2.01975e+07 0 
0 0 0 
-2.20851e+07 8.90723e+06 0 
8.90723e+06 1.19569e+07 0 
0 0 0 
2.43127e+07 -2.6979e+06 0 
-2.6979e+06 2.37271e+07 0 
0 0 0 
-4.52483e+06 -834900 0 
-834900 1.32439e+07 0 
0 0 0 
1.71306e+07 -455446 0 
-455446 1.96073e+07 0 
0 0 0 
4.28625e+07 -585784 0 
-585784 1.60797e+07 0 
0 0 0 
-2.31793e+07 1.57319e+07 0 
1.57319e+07 -1.29883e+07 0 
0 0 0 
1.87319e+07 3.03838e+06 0 
3.03838e+06 -2.80955e+06 0 
0 0 0 
-2.8136e+07 -2.49015e+06 0 
-2.49015e+06 -2.67071e+07 0 
0 0 0 
-5.44708e+06 -4.57372e+06 0 
-4.57372e+06 -2.79947e+07 0 
0 0 0 
-2.72303e+07 -7.79469e+06 0 
-7.79469e+06 -3.3951e+07 0 
0 0 0 
-9.32745e+06 1.10498e+06 0 
1.10498e+06 -3.47003e+07 0 
0 0 0 
-1.92885e+07 -4.81272e+06 0 
-4.81272e+06 -3.71555e+07 0 
0 0 0 
-1.11125e+07 -8.34642e+06 0 
-8.34642e+06 -3.4884e+07 0 
0 0 0 
-1.71458e+07 -757883 0 
-757883 -3.42049e+07 0 
0 0 0 
-1.43425e+07 7.36572e+06 0 
7.36572e+06 -2.96438e+07 0 
0 0 0 
1.43363e+07 2.09994e+06 0 
2.09994e+06 3.83875e+06 0 
0 0 0 
-1.55195e+07 738990 0 
738990 -5.25602e+06 0 
0 0 0 
4.61928e+07 -6.76737e+06 0 
-6.76737e+06 895724 0 
0 0 0 
-1.87826e+07 -5.33269e+06 0 
-5.33269e+06 -1.29763e+07 0 
0 0 0 
-5.82236e+06 -1.23462e+07 0 
-1.23462e+07 -2.54371e+07 0 
0 0 0 
-3.36949e+07 -1.11773e+06 0 
-1.11773e+06 -3.91728e+07 0 
0 0 0 
-103402 3.41664e+06 0 
3.41664e+06 -1.94309e+07 0 
0 0 0 
9.98243e+06 1.35156e+07 0 
1.35156e+07 -3.20084e+07 0 
0 0 0 
5.87168e+06 1.82457e+07 0 
1.82457e+07 -2.50553e+07 0 
0 0 0 
-1.97444e+07 1.55562e+07 0 
1.55562e+07 -2.90843e+07 0 
0 0 0 
-7.54749e+06 1.06022e+07 0 
1.06022e+07 -2.04003e+07 0 
0 0 0 
-4.50789e+07 5.29249e+06 0 
5.29249e+06 -3.57768e+07 0 
0 0 0 
-5.61466e+06 -9.62333e+06 0 
-9.62333e+06 -1.64151e+07 0 
0 0 0 
-1.20687e+07 -3.95242e+06 0 
-3.95242e+06 -1.31169e+07 0 
0 0 0 
2.39333e+07 -9.4901e+06 0 
-9.4901e+06 -1.02025e+07 0 
0 0 0 
-2.27238e+07 -1.07035e+07 0 
-1.07035e+07 -1.84711e+07 0 
0 0 0 
1.87271e+07 394203 0 
394203 -1.94365e+07 0 
0 0 0 
-4.46659e+07 6.23113e+06 0 
6.23113e+06 -5.74396e+07 0 
0 0 0 
5.78712e+06 5.72529e+06 0 
5.72529e+06 -3.86629e+07 0 
0 0 0 
-3.46779e+07 4.9342e+06 0 
4.9342e+06 -4.26307e+07 0 
0 0 0 
3.43306e+07 -5.3443e+06 0 
-5.3443e+06 -1.09185e+07 0 
0 0 0 
-3.37358e+06 -1.1562e+07 0 
-1.1562e+07 -8.76815e+06 0 
0 0 0 
2.3541e+07 -1.52443e+07 0 
-1.52443e+07 -4.21806e+06 0 
0 0 0 
-3.33587e+07 -3.81116e+06 0 
-3.81116e+06 -2.71705e+07 0 
0 0 0 
-1.72141e+07 -4.54956e+06 0 
-4.54956e+06 -3.47934e+07 0 
0 0 0 
-4.79994e+07 1.41599e+07 0 
1.41599e+07 -3.36457e+07 0 
0 0 0 
-3.45842e+07 1.42676e+07 0 
1.42676e+07 -1.99778e+07 0 
0 0 0 
-7.51034e+06 1.3581e+07 0 
1.3581e+07 -1.16435e+07 0 
0 0 0 
3.08019e+07 1.41577e+06 0 
1.41577e+06 2.08449e+06 0 
0 0 0 
1.19615e+07 -6.64592e+06 0 
-6.64592e+06 -1.67336e+07 0 
0 0 0 
-1.35159e+07 -1.10251e+07 0 
-1.10251e+07 -3.05868e+07 0 
0 0 0 
-7.78569e+06 -4.5277e+06 0 
-4.5277e+06 -1.67042e+07 0 
0 0 0 
-2.61816e+07 -2.80318e+06 0 
-2.80318e+06 -2.51432e+07 0 
0 0 0 
9.54641e+06 -4.85397e+06 0 
-4.85397e+06 -2.0931e+07 0 
0 0 0 
-2.58517e+07 30304.8 0 
30304.8 -2.77934e+07 0 
0 0 0 
3.12474e+07 8.33963e+06 0 
8.33963e+06 -1.80549e+07 0 
0 0 0 
-6.31807e+07 1.85502e+07 0 
1.85502e+07 -5.8061e+07 0 
0 0 0 
-9.56297e+06 6.98716e+06 0 
6.98716e+06 -3.41906e+07 0 
0 0 0 
-3.00021e+07 937386 0 
937386 -3.27946e+07 0 
0 0 0 
898585 -1.3114e+06 0 
-1.3114e+06 -2.12801e+07 0 
0 0 0 
-7.60703e+06 -1.21517e+07 0 
-1.21517e+07 -2.13831e+07 0 
0 0 0 
-4.24918e+06 -1.42078e+07 0 
-1.42078e+07 -2.40707e+07 0 
0 0 0 
-2.65799e+07 -1.14882e+07 0 
-1.14882e+07 -3.1503e+07 0 
0 0 0 
-1.7347e+06 797492 0 
797492 -1.49375e+07 0 
0 0 0 
-8.298e+06 -4.91555e+06 0 
-4.91555e+06 919485 0 
0 0 0 
7.62936e+06 7.41669e+06 0 
7.41669e+06 9.50662e+06 0 
0 0 0 
3.82019e+06 8.74048e+06 0 
8.74048e+06 8.95299e+06 0 
0 0 0 
-2.41047e+07 6.58706e+06 0 
6.58706e+06 -6.09113e+06 0 
0 0 0 
1.87691e+07 1.32607e+06 0 
1.32607e+06 -2.03556e+07 0 
0 0 0 
1.04143e+07 8.47906e+06 0 
8.47906e+06 -2.50133e+06 0 
0 0 0 
0 0 0 
0 0 0 
0 0 0 
-2.49422e+07 1.15094e+07 0 
1.15094e+07 -6.57978e+07 0 
0 0 0 
-1.63246e+07 8.27796e+06 0 
8.27796e+06 -3.05755e+07 0 
0 0 0 
-1.7476e+07 3.3525e+06 0 
3.3525e+06 -4.18437e+07 0 
0 0 0 
-9.99859e+06 5.21941e+06 0 
5.21941e+06 -4.38005e+07 0 
0 0 0 
1.6657e+07 6.24174e+06 0 
6.24174e+06 2.66302e+07 0 
0 0 0 
-9.52615e+06 4.23445e+06 0 
4.23445e+06 -1.63147e+07 0 
0 0 0 
-3.08689e+07 -126825 0 
-126825 -1.43954e+08 0 
0 0 0 
2.12192e+07 -1.31234e+06 0 
-1.31234e+06 -1.4808e+07 0 
0 0 0 
1.54715e+07 -7.02895e+06 0 
-7.02895e+06 -707963 0 
0 0 0 
5.30297e+07 1.0256e+07 0 
1.0256e+07 4.53848e+07 0 
0 0 0 
2.35605e+07 2.04367e+07 0 
2.04367e+07 -1.7176e+07 0 
0 0 0 
2.28124e+07 7.45243e+06 0 
7.45243e+06 -6.93798e+06 0 
0 0 0 
3.04689e+07 7.6893e+06 0 
7.6893e+06 -1.54227e+07 0 
0 0 0 
4.92828e+07 5.78726e+06 0 
5.78726e+06 5.59066e+07 0 
0 0 0 
3.49134e+07 -2.94716e+06 0 
-2.94716e+06 -1.64831e+07 0 
0 0 0 
5.63989e+07 1.26402e+06 0 
1.26402e+06 2.02056e+07 0 
0 0 0 
6.03456e+07 -664139 0 
-664139 5.07666e+07 0 
0 0 0 
2.06925e+07 1.93627e+07 0 
1.93627e+07 4.93929e+07 0 
0 0 0 
2.78516e+07 5.99918e+06 0 
5.99918e+06 5.57476e+07 0 
0 0 0 
-7.06606e+07 1.72898e+07 0 
1.72898e+07 -7.491e+07 0 
0 0 0 
-3.61677e+07 2.19397e+07 0 
2.19397e+07 -8.71143e+06 0 
0 0 0 
7.94435e+07 -9.42664e+06 0 
-9.42664e+06 1.08802e+08 0 
0 0 0 
8.04613e+07 -6.87936e+06 0 
-6.87936e+06 1.06221e+08 0 
0 0 0 
4.12265e+07 -1.89203e+07 0 
-1.89203e+07 4.61545e+07 0 
0 0 0 
1.99218e+07 1.59822e+07 0 
1.59822e+07 5.80043e+07 0 
0 0 0 
-1.71111e+06 6.25692e+06 0 
6.25692e+06 3.33612e+07 0 
0 0 0 
6.59301e+06 2.97529e+07 0 
2.97529e+07 7.8067e+07 0 
0 0 0 
2.69185e+06 2.06291e+07 0 
2.06291e+07 4.52506e+07 0 
0 0 0 
3.25414e+07 2.88122e+07 0 
2.88122e+07 5.36457e+07 0 
0 0 0 
5.01641e+07 1.97918e+07 0 
1.97918e+07 6.18154e+07 0 
0 0 0 
4.57494e+07 2.26498e+07 0 
2.26498e+07 6.24777e+07 0 
0 0 0 
3.49464e+07 2.43952e+07 0 
2.43952e+07 3.89075e+07 0 
0 0 0 
3.60501e+07 1.66341e+07 0 
1.66341e+07 7.50048e+07 0 
0 0 0 
2.02409e+07 2.49629e+07 0 
2.49629e+07 3.72119e+07 0 
0 0 0 
-1.34172e+07 1.17964e+07 0 
1.17964e+07 -1.49268e+07 0 
0 0 0 
-1.65048e+07 603368 0 
603368 -8.18212e+06 0 
0 0 0 
-1.35929e+07 1.47782e+06 0 
1.47782e+06 -3.06451e+07 0 
0 0 0 
1.68788e+07 -1.3564e+06 0 
-1.3564e+06 2.11663e+07 0 
0 0 0 
7.65494e+06 -340506 0 
-340506 6.80801e+06 0 
0 0 0 
-1.85243e+06 -916963 0 
-916963 -1.32957e+07 0 
0 0 0 
-2.26401e+07 2.68252e+06 0 
2.68252e+06 -1.15885e+08 0 
0 0 0 
7.82838e+06 -3.88322e+06 0 
-3.88322e+06 -1.97353e+07 0 
0 0 0 
1.10653e+07 -4.07136e+06 0 
-4.07136e+06 -8.75636e+06 0 
0 0 0 
-9.65653e+06 3.04099e+06 0 
3.04099e+06 -5.70885e+07 0 
0 0 0 
-9.64622e+06 -6.93084e+06 0 
-6.93084e+06 -1.18212e+08 0 
0 0 0 
2.59497e+07 -1.82145e+07 0 
-1.82145e+07 -2.05761e+07 0 
0 0 0 
3.57107e+07 -3.34737e+07 0 
-3.34737e+07 4.6811e+07 0 
0 0 0 
1.21419e+07 -1.73227e+07 0 
-1.73227e+07 2.6627e+07 0 
0 0 0 
-1.60262e+07 -8.72512e+06 0 
-8.72512e+06 -4.47649e+07 0 
0 0 0 
-5.21869e+06 -1.28507e+07 0 
-1.28507e+07 -1.63173e+07 0 
0 0 0 
-3.21602e+07 -9.6325e+06 0 
-9.6325e+06 -5.41559e+07 0 
0 0 0 
-1.58525e+07 -3.80931e+06 0 
-3.80931e+06 1.07897e+07 0 
0 0 0 
-1.33321e+07 -1.99488e+07 0 
-1.99488e+07 -3.99798e+07 0 
0 0 0 
1.76591e+07 -1.54838e+07 0 
-1.54838e+07 2.72837e+07 0 
0 0 0 
-2.11521e+07 -1.446e+06 0 
-1.446e+06 -1.38908e+07 0 
0 0 0 
-4.76346e+07 -1.81125e+06 0 
-1.81125e+06 -7.6675e+07 0 
0 0 0 
-1.74591e+07 8.69312e+06 0 
8.69312e+06 -2.63599e+07 0 
0 0 0 
-957571 -5.96782e+06 0 
-5.96782e+06 -1.09759e+07 0 
0 0 0 
3.89746e+07 -1.09978e+07 0 
-1.09978e+07 8.53684e+07 0 
0 0 0 
1.48022e+07 -9.28847e+06 0 
-9.28847e+06 4.89753e+06 0 
0 0 0 
2.3408e+07 -1.13455e+07 0 
-1.13455e+07 6.39819e+06 0 
0 0 0 
3.27805e+07 6.25732e+06 0 
6.25732e+06 4.41264e+07 0 
0 0 0 
1.65834e+07 1.19886e+07 0 
1.19886e+07 2.27312e+07 0 
0 0 0 
5.05691e+06 1.97641e+07 0 
1.97641e+07 -2.53433e+06 0 
0 0 0 
3.49257e+07 4.81153e+06 0 
4.81153e+06 6.0348e+07 0 
0 0 0 
1.19664e+07 -9.5206e+06 0 
-9.5206e+06 -1.8583e+07 0 
0 0 0 
2.4329e+07 -4.26888e+06 0 
-4.26888e+06 4.18691e+07 0 
0 0 0 
-1.50493e+07 5.37792e+06 0 
5.37792e+06 -3.22639e+07 0 
0 0 0 
-289015 6.03425e+06 0 
6.03425e+06 2.2435e+07 0 
0 0 0 
1.47956e+07 -1.18427e+07 0 
-1.18427e+07 7.88889e+07 0 
0 0 0 
-3.00266e+07 -1.56173e+07 0 
-1.56173e+07 -2.63451e+07 0 
0 0 0 
0 0 0 
0 0 0 
0 0 0 
-1.60328e+07 1.23958e+06 0 
1.23958e+06 -1.119e+07 0 
0 0 0 
1.76097e+06 -9.06765e+06 0 
-9.06765e+06 -917530 0 
0 0 0 
1.37799e+07 1.18184e+06 0 
1.18184e+06 7.80985e+06 0 
0 0 0 
-2.56178e+07 -7.68684e+06 0 
-7.68684e+06 -3.61994e+06 0 
0 0 0 
1.84096e+07 7.12758e+06 0 
7.12758e+06 1.25435e+07 0 
0 0 0 
-4.49683e+07 5.22746e+06 0 
5.22746e+06 -1.17114e+07 0 
0 0 0 
4.65408e+07 6.97239e+06 0 
6.97239e+06 2.5568e+07 0 
0 0 0 
-4.84232e+07 1.23216e+07 0 
1.23216e+07 -1.56062e+07 0 
0 0 0 
1.29515e+07 3.19248e+06 0 
3.19248e+06 -3.27133e+06 0 
0 0 0 
-9.45155e+06 2.36045e+06 0 
2.36045e+06 -5.88004e+06 0 
0 0 0 
2.21709e+07 4.98214e+06 0 
4.98214e+06 7.78545e+06 0 
0 0 0 
3.59297e+07 -1.98934e+06 0 
-1.98934e+06 2.19602e+07 0 
0 0 0 
-2.85587e+06 374947 0 
374947 1.50379e+07 0 
0 0 0 
1.2399e+07 1.37077e+06 0 
1.37077e+06 1.21535e+07 0 
0 0 0 
-3.51051e+07 -4.45491e+06 0 
-4.45491e+06 -1.40075e+07 0 
0 0 0 
2.05942e+07 -2.78469e+06 0 
-2.78469e+06 2.93806e+06 0 
0 0 0 
-2.49932e+07 -3.96355e+06 0 
-3.96355e+06 -4.35127e+06 0 
0 0 0 
7.14535e+06 -5.17754e+06 0 
-5.17754e+06 9.3887e+06 0 
0 0 0 
-5.91649e+06 1.5223e+06 0 
1.5223e+06 -645718 0 
0 0 0 
8.61814e+06 3.35482e+06 0 
3.35482e+06 9.85449e+06 0 
0 0 0 
-3.30362e+06 7.65104e+06 0 
7.65104e+06 2.95986e+06 0 
0 0 0 
3.17104e+06 7.40247e+06 0 
7.40247e+06 1.25323e+07 0 
0 0 0 
-9.17459e+06 3.89472e+06 0 
3.89472e+06 -3.37588e+06 0 
0 0 0 
-8.68307e+06 -5.89801e+06 0 
-5.89801e+06 -1.7231e+07 0 
0 0 0 
3.93594e+07 -5.85812e+06 0 
-5.85812e+06 9.63555e+06 0 
0 0 0 
-3.43993e+07 -1.56979e+07 0 
-1.56979e+07 -1.1474e+07 0 
0 0 0 
4.00232e+07 -1.82441e+07 0 
-1.82441e+07 2.38277e+07 0 
0 0 0 
-2.14389e+07 403276 0 
403276 7.09804e+06 0 
0 0 0 
3.34959e+07 3.14841e+06 0 
3.14841e+06 2.31064e+07 0 
0 0 0 
2.46498e+07 5.84288e+06 0 
5.84288e+06 2.63296e+07 0 
0 0 0 
3.59781e+07 1.39215e+07 0 
1.39215e+07 1.23502e+07 0 
0 0 0 
-3.59849e+07 7.6054e+06 0 
7.6054e+06 -2.04053e+07 0 
0 0 0 
-1.75087e+07 4.80138e+06 0 
4.80138e+06 -2.56447e+07 0 
0 0 0 
-5.21382e+07 -926077 0 
-926077 -5.35554e+07 0 
0 0 0 
-1.8116e+07 7.4367e+06 0 
7.4367e+06 -3.49467e+07 0 
0 0 0 
-5.02931e+06 -7.6199e+06 0 
-7.6199e+06 153733 0 
0 0 0 
2.60813e+07 -4.20384e+06 0 
-4.20384e+06 3.04715e+07 0 
0 0 0 
5.4077e+06 -2.91057e+06 0 
-2.91057e+06 3.01136e+07 0 
0 0 0 
4.05382e+07 -1.02922e+07 0 
-1.02922e+07 3.51824e+07 0 
0 0 0 
-2.05425e+07 -3.90751e+06 0 
-3.90751e+06 -6.11672e+06 0 
0 0 0 
1.20786e+07 -585674 0 
-585674 -1.12618e+07 0 
0 0 0 
-2.31182e+07 3.70797e+06 0 
3.70797e+06 -2.77815e+07 0 
0 0 0 
1.29341e+07 8.66187e+06 0 
8.66187e+06 -44849.3 0 
0 0 0 
-8.85741e+06 -1.1004e+07 0 
-1.1004e+07 -4.18761e+06 0 
0 0 0 
3.01815e+07 -1.30272e+07 0 
-1.30272e+07 2.7593e+07 0 
0 0 0 
-9.45564e+06 -1.75541e+07 0 
-1.75541e+07 1.74613e+07 0 
0 0 0 
6.23746e+06 -1.43431e+07 0 
-1.43431e+07 1.32377e+07 0 
0 0 0 
-2.93795e+07 3.68058e+06 0 
3.68058e+06 -3.1123e+07 0 
0 0 0 
-3.90564e+07 1.23652e+07 0 
1.23652e+07 -5.2322e+07 0 
0 0 0 
-4.87756e+07 5.31162e+06 0 
5.31162e+06 -6.73721e+07 0 
0 0 0 
3.92582e+06 -2.69355e+06 0 
-2.69355e+06 -6.08391e+07 0 
0 0 0 
-324371 -1.75498e+07 0 
-1.75498e+07 -3.52908e+07 0 
0 0 0 
-1.94506e+07 -9.10156e+06 0 
-9.10156e+06 -3.07184e+07 0 
0 0 0 
-2.38514e+06 -1.12487e+06 0 
-1.12487e+06 -2.64266e+07 0 
0 0 0 
-2.5108e+07 -1.27808e+07 0 
-1.27808e+07 -2.92966e+07 0 
0 0 0 
1.57802e+07 -8.33261e+06 0 
-8.33261e+06 -1.4635e+07 0 
0 0 0 
-1.79391e+07 -8.56322e+06 0 
-8.56322e+06 -2.76065e+07 0 
0 0 0 
2.67335e+07 -1.27297e+07 0 
-1.27297e+07 -1.85097e+07 0 
0 0 0 
-5.29192e+07 5.77857e+06 0 
5.77857e+06 -5.87709e+07 0 
0 0 0 
-2.35917e+07 5.26128e+06 0 
5.26128e+06 -6.30975e+07 0 
0 0 0 
-4.70149e+07 136995 0 
136995 -7.8679e+07 0 
0 0 0 
-2.23427e+07 -3.96781e+06 0 
-3.96781e+06 -7.17071e+07 0 
0 0 0 
-3.00404e+07 -1.0027e+07 0 
-1.0027e+07 -6.42271e+07 0 
0 0 0 
-2.63142e+07 -1.55738e+07 0 
-1.55738e+07 -4.98516e+07 0 
0 0 0 
-1.19109e+07 -6.74535e+06 0 
-6.74535e+06 -3.75633e+07 0 
0 0 0 
-1.49567e+07 -4.24432e+06 0 
-4.24432e+06 -2.89142e+07 0 
0 0 0 
1.02622e+06 -1.32977e+07 0 
-1.32977e+07 -3.42876e+07 0 
0 0 0 
-2.06055e+07 535757 0 
535757 -5.60843e+07 0 
0 0 0 
-3.02244e+07 -2.18658e+06 0 
-2.18658e+06 -8.28231e+07 0 
0 0 0 
-3.02923e+07 -1.09906e+06 0 
-1.09906e+06 -8.07814e+07 0 
0 0 0 
-3.61846e+07 1.26623e+06 0 
1.26623e+06 -7.91744e+07 0 
0 0 0 
-3.25047e+07 -1.20845e+07 0 
-1.20845e+07 -8.32995e+06 0 
0 0 0 
-3.33212e+07 3.1084e+06 0 
3.1084e+06 -6.3198e+07 0 
0 0 0 
0 0 0 
0 0 0 
0 0 0 
-1.23742e+07 1.65404e+07 0 
1.65404e+07 -4.14157e+07 0 
0 0 0 
-8.22881e+06 7.83017e+06 0 
7.83017e+06 -4.02457e+07 0 
0 0 0 
-1.71929e+07 3.32297e+06 0 
3.32297e+06 -5.44055e+07 0 
0 0 0 
-2.53556e+07 1.14815e+07 0 
1.14815e+07 -3.55244e+07 0 
0 0 0 
-2.57889e+07 5.3795e+06 0 
5.3795e+06 1.05136e+07 0 
0 0 0 
-6.15455e+07 -290499 0 
-290499 -4.40437e+07 0 
0 0 0 
-1.2969e+08 5.11047e+06 0 
5.11047e+06 -1.59665e+08 0 
0 0 0 
-9.69538e+07 2.93086e+06 0 
2.93086e+06 -7.06974e+07 0 
0 0 0 
-5.07822e+07 3.63504e+06 0 
3.63504e+06 -1.39633e+07 0 
0 0 0 
-3.82778e+07 4.71238e+06 0 
4.71238e+06 2.94476e+07 0 
0 0 0 
-5.1517e+07 553289 0 
553289 -4.29884e+07 0 
0 0 0 
-5.3481e+07 2.47806e+06 0 
2.47806e+06 -5.09894e+07 0 
0 0 0 
-7.34836e+07 5.4907e+06 0 
5.4907e+06 -4.27492e+07 0 
0 0 0 
-6.24112e+07 6.42839e+06 0 
6.42839e+06 1.86898e+07 0 
0 0 0 
-8.0594e+07 1.01749e+07 0 
1.01749e+07 -4.60469e+07 0 
0 0 0 
-6.53806e+07 1.0648e+07 0 
1.0648e+07 -3.74941e+07 0 
0 0 0 
-4.93616e+07 -1.41384e+07 0 
-1.41384e+07 1.62875e+07 0 
0 0 0 
-1.03626e+07 1.42438e+07 0 
1.42438e+07 4.22151e+07 0 
0 0 0 
-3.33358e+07 6.77832e+07 0 
6.77832e+07 1.47905e+07 0 
0 0 0 
-7.83238e+07 6.66676e+07 0 
6.66676e+07 -3.32713e+07 0 
0 0 0 
-5.38595e+07 -1.53931e+07 0 
-1.53931e+07 1.48416e+07 0 
0 0 0 
-7.01227e+07 -4.71817e+07 0 
-4.71817e+07 6.54064e+07 0 
0 0 0 
-2.93645e+07 -3.86252e+07 0 
-3.86252e+07 3.39969e+07 0 
0 0 0 
-1.93914e+07 2.67896e+06 0 
2.67896e+06 6.69884e+07 0 
0 0 0 
9.11599e+06 1.45655e+07 0 
1.45655e+07 5.7403e+07 0 
0 0 0 
2.4172e+07 1.68067e+07 0 
1.68067e+07 6.4123e+07 0 
0 0 0 
3.15358e+07 1.50353e+07 0 
1.50353e+07 8.64141e+07 0 
0 0 0 
4.43381e+06 2.44996e+07 0 
2.44996e+07 5.21668e+07 0 
0 0 0 
-2.7572e+07 2.13167e+07 0 
2.13167e+07 1.78233e+07 0 
0 0 0 
-2.93077e+07 1.27453e+07 0 
1.27453e+07 3.96284e+07 0 
0 0 0 
-2.57384e+07 874036 0 
874036 4.01928e+07 0 
0 0 0 
-5.03219e+07 1.26055e+07 0 
1.26055e+07 1.0299e+07 0 
0 0 0 
-1.63732e+07 2.29878e+07 0 
2.29878e+07 7.67102e+07 0 
0 0 0 
-4.16489e+07 1.72473e+07 0 
1.72473e+07 -1.46152e+07 0 
0 0 0 
-2.80858e+07 9.42181e+06 0 
9.42181e+06 -7.46881e+06 0 
0 0 0 
-2.02814e+07 1.89143e+07 0 
1.89143e+07 -3.54247e+07 0 
0 0 0 
1.11213e+07 1.9613e+07 0 
1.9613e+07 9.89328e+06 0 
0 0 0 
2.27836e+07 1.79755e+07 0 
1.79755e+07 2.34979e+06 0 
0 0 0 
4.09583e+07 1.7565e+06 0 
1.7565e+06 1.41867e+07 0 
0 0 0 
4.41194e+07 4.20623e+06 0 
4.20623e+06 2.05632e+06 0 
0 0 0 
1.04866e+07 3.53966e+06 0 
3.53966e+06 -1.00034e+08 0 
0 0 0 
3.30779e+07 -1.38494e+07 0 
-1.38494e+07 -3.38302e+07 0 
0 0 0 
4.13944e+07 -1.27955e+07 0 
-1.27955e+07 1.76239e+07 0 
0 0 0 
8.89943e+06 -3.82291e+06 0 
-3.82291e+06 -5.09499e+07 0 
0 0 0 
-3.08758e+07 -1.13304e+07 0 
-1.13304e+07 -1.27068e+08 0 
0 0 0 
2.12231e+06 -2.10429e+07 0 
-2.10429e+07 -5.79269e+07 0 
0 0 0 
4.74414e+07 -1.9536e+07 0 
-1.9536e+07 5.10206e+07 0 
0 0 0 
5.38993e+07 -2.67264e+07 0 
-2.67264e+07 5.69877e+07 0 
0 0 0 
1.42606e+07 -1.38708e+07 0 
-1.38708e+07 -3.25455e+07 0 
0 0 0 
4.18616e+06 -1.64261e+07 0 
-1.64261e+07 -1.69434e+07 0 
0 0 0 
-5.60754e+06 -8.17422e+06 0 
-8.17422e+06 -3.12695e+07 0 
0 0 0 
-4.78433e+06 -2.97093e+06 0 
-2.97093e+06 1.21275e+07 0 
0 0 0 
-4.57704e+07 -9.81779e+06 0 
-9.81779e+06 -6.30935e+07 0 
0 0 0 
-1.26101e+07 -2.02478e+07 0 
-2.02478e+07 2.6761e+07 0 
0 0 0 
-2.5542e+07 -1.39322e+07 0 
-1.39322e+07 -1.50866e+07 0 
0 0 0 
-5.11517e+07 -2.63576e+06 0 
-2.63576e+06 -6.08372e+07 0 
0 0 0 
-4.52392e+07 5.6302e+06 0 
5.6302e+06 -3.3678e+07 0 
0 0 0 
-5.4142e+07 5.82635e+06 0 
5.82635e+06 -4.19367e+07 0 
0 0 0 
-1.01046e+07 -6.18467e+06 0 
-6.18467e+06 6.24041e+07 0 
0 0 0 
-2.01437e+07 -6.72516e+06 0 
-6.72516e+06 -6.3022e+06 0 
0 0 0 
-2.98487e+06 4.47385e+06 0 
4.47385e+06 1.95208e+07 0 
0 0 0 
2.03395e+07 9.37641e+06 0 
9.37641e+06 4.95077e+07 0 
0 0 0 
1.32016e+07 8.95727e+06 0 
8.95727e+06 9.41874e+06 0 
0 0 0 
1.47597e+06 4.77256e+06 0 
4.77256e+06 -5.39746e+06 0 
0 0 0 
-9.28524e+06 117137 0 
117137 3.34557e+07 0 
0 0 0 
-2.95566e+07 -8.53586e+06 0 
-8.53586e+06 -2.69004e+07 0 
0 0 0 
-6.67374e+06 -5.69196e+06 0 
-5.69196e+06 3.39004e+07 0 
0 0 0 
8.6996e+06 2.41124e+06 0 
2.41124e+06 -1.64531e+06 0 
0 0 0 
3.51463e+07 -3.27431e+06 0 
-3.27431e+06 2.82623e+06 0 
0 0 0 
7.7213e+07 -4.60974e+06 0 
-4.60974e+06 8.60728e+07 0 
0 0 0 
6.86349e+07 -6.46674e+06 0 
-6.46674e+06 2.88603e+07 0 
0 0 0 
6.39136e+07 4.11433e+06 0 
4.11433e+06 1.84232e+07 0 
0 0 0 
0 0 0 
0 0 0 
0 0 0 
1.35143e+06 -1.05659e+06 0 
-1.05659e+06 3.17835e+06 0 
0 0 0 
-1.30517e+06 2.80434e+06 0 
2.80434e+06 1.06649e+07 0 
0 0 0 
2.11972e+07 6.56664e+06 0 
6.56664e+06 2.65814e+07 0 
0 0 0 
-2.37098e+07 4.2674e+06 0 
4.2674e+06 2.59486e+07 0 
0 0 0 
3.95802e+07 3.00053e+06 0 
3.00053e+06 4.95306e+07 0 
0 0 0 
-3.23243e+07 3.22715e+06 0 
3.22715e+06 1.80268e+07 0 
0 0 0 
4.31663e+07 6.1255e+06 0 
6.1255e+06 3.70297e+07 0 
0 0 0 
-3.42098e+07 1.59331e+06 0 
1.59331e+06 4.25563e+06 0 
0 0 0 
1.14921e+07 6.94062e+06 0 
6.94062e+06 1.84826e+07 0 
0 0 0 
-9.65455e+06 3.27146e+06 0 
3.27146e+06 6.67468e+06 0 
0 0 0 
2.22942e+07 -3.95825e+06 0 
-3.95825e+06 5.98209e+06 0 
0 0 0 
1.47977e+07 -4.24649e+06 0 
-4.24649e+06 -3.70158e+06 0 
0 0 0 
-5.74505e+06 2.77649e+06 0 
2.77649e+06 -2.17954e+07 0 
0 0 0 
9.88262e+06 -357846 0 
-357846 -1.25655e+07 0 
0 0 0 
-3.89207e+07 -2.19591e+06 0 
-2.19591e+06 -2.24869e+07 0 
0 0 0 
1.22904e+07 3.09724e+06 0 
3.09724e+06 -1.94391e+06 0 
0 0 0 
-2.98329e+07 -8.822e+06 0 
-8.822e+06 -1.52697e+07 0 
0 0 0 
2.08188e+07 1.76964e+06 0 
1.76964e+06 -7.45514e+06 0 
0 0 0 
-2.52293e+07 745289 0 
745289 -3.52372e+07 0 
0 0 0 
750760 2.43866e+06 0 
2.43866e+06 -3.5244e+07 0 
0 0 0 
-2.84142e+07 -335338 0 
-335338 -3.31459e+07 0 
0 0 0 
-2.31749e+07 1.85085e+06 0 
1.85085e+06 -4.79469e+07 0 
0 0 0 
-9.45886e+06 3.77581e+06 0 
3.77581e+06 -3.55191e+07 0 
0 0 0 
-1.0592e+07 3.90999e+06 0 
3.90999e+06 -1.63066e+07 0 
0 0 0 
1.27884e+07 1.81186e+06 0 
1.81186e+06 4.12139e+06 0 
0 0 0 
-3.50385e+07 -1.48878e+07 0 
-1.48878e+07 -1.32052e+07 0 
0 0 0 
3.42231e+07 -1.38202e+07 0 
-1.38202e+07 2.55354e+06 0 
0 0 0 
-565740 -1.21755e+07 0 
-1.21755e+07 -4.5543e+06 0 
0 0 0 
2.88599e+07 3.02709e+06 0 
3.02709e+06 -145338 0 
0 0 0 
2.5849e+07 4.5405e+06 0 
4.5405e+06 -3.93716e+06 0 
0 0 0 
1.25799e+07 2.17143e+06 0 
2.17143e+06 -1.07189e+07 0 
0 0 0 
-4.3004e+07 -4.76334e+06 0 
-4.76334e+06 -4.39596e+07 0 
0 0 0 
-2.50749e+07 -1.06079e+06 0 
-1.06079e+06 -5.42426e+07 0 
0 0 0 
-4.6461e+07 4.11125e+06 0 
4.11125e+06 -5.72846e+07 0 
0 0 0 
-3.6143e+07 5.33169e+06 0 
5.33169e+06 -5.83548e+07 0 
0 0 0 
-1.603e+07 1.3013e+07 0 
1.3013e+07 -6.04654e+07 0 
0 0 0 
-3.46188e+06 5.76089e+06 0 
5.76089e+06 -4.43687e+07 0 
0 0 0 
-2.9759e+07 -43052.8 0 
-43052.8 -4.27878e+07 0 
0 0 0 
2.26387e+07 -1.90571e+07 0 
-1.90571e+07 -1.30336e+07 0 
0 0 0 
-1.47563e+07 -5.79383e+06 0 
-5.79383e+06 -5.18159e+06 0 
0 0 0 
3.13431e+07 -4.41296e+06 0 
-4.41296e+06 2.30651e+07 0 
0 0 0 
6.65393e+06 1.13495e+07 0 
1.13495e+07 2.0648e+07 0 
0 0 0 
5.6925e+06 9.63606e+06 0 
9.63606e+06 1.27893e+07 0 
0 0 0 
-1.37431e+07 4.16068e+06 0 
4.16068e+06 1.19289e+07 0 
0 0 0 
7.58014e+06 -1.3068e+06 0 
-1.3068e+06 1.75051e+07 0 
0 0 0 
-2.45556e+06 -1.29368e+07 0 
-1.29368e+07 1.44191e+07 0 
0 0 0 
1.94977e+07 -8.24833e+06 0 
-8.24833e+06 2.50184e+07 0 
0 0 0 
330665 -3.32084e+06 0 
-3.32084e+06 2.68219e+07 0 
0 0 0 
-2.50326e+07 1.80367e+06 0 
1.80367e+06 -3.07612e+06 0 
0 0 0 
-2.89471e+07 713117 0 
713117 -1.86478e+07 0 
0 0 0 
-4.66574e+06 3.52453e+06 0 
3.52453e+06 -1.98286e+07 0 
0 0 0 
-2.19631e+06 1.68175e+06 0 
1.68175e+06 -3.21697e+07 0 
0 0 0 
8.5481e+06 -598011 0 
-598011 -1.21996e+07 0 
0 0 0 
-4.99795e+06 1.25547e+07 0 
1.25547e+07 -1.32414e+07 0 
0 0 0 
-1.48138e+07 9.77686e+06 0 
9.77686e+06 -2.16876e+06 0 
0 0 0 
1.47429e+07 -3.59109e+06 0 
-3.59109e+06 2.75398e+07 0 
0 0 0 
-6.14567e+06 -1.26369e+07 0 
-1.26369e+07 1.79547e+07 0 
0 0 0 
5.20492e+07 -8.12652e+06 0 
-8.12652e+06 4.02451e+07 0 
0 0 0 
-2.61332e+07 -4.28361e+06 0 
-4.28361e+06 1.41983e+06 0 
0 0 0 
2.71954e+06 -2.78603e+06 0 
-2.78603e+06 -1.7527e+07 0 
0 0 0 
-4.28927e+07 -2.37692e+06 0 
-2.37692e+06 -4.48092e+07 0 
0 0 0 
-2.11781e+07 -4.00762e+06 0 
-4.00762e+06 -3.9518e+07 0 
0 0 0 
-2.04825e+07 -4.93864e+06 0 
-4.93864e+06 -3.30653e+07 0 
0 0 0 
-7.90601e+06 -2.26764e+06 0 
-2.26764e+06 -1.78602e+07 0 
0 0 0 
-2.27196e+07 -3.46092e+06 0 
-3.46092e+06 -1.71847e+07 0 
0 0 0 
5.94002e+06 4.5056e+06 0 
4.5056e+06 -1.40329e+07 0 
0 0 0 
-3.17164e+06 -1.01235e+07 0 
-1.01235e+07 -1.05669e+07 0 
0 0 0 
5.82486e+06 -7.56074e+06 0 
-7.56074e+06 -1.11099e+06 0 
0 0 0 
-1.91196e+06 -3.00675e+06 0 
-3.00675e+06 9.17648e+06 0 
0 0 0 
1.38127e+07 5.4877e+06 0 
5.4877e+06 5.01009e+06 0 
0 0 0 
-2.55986e+06 9.61794e+06 0 
9.61794e+06 -3.10234e+06 0 
0 0 0 
-2.4566e+07 1.20491e+07 0 
1.20491e+07 -1.82215e+07 0 
0 0 0 
3.28865e+07 -210740 0 
-210740 -2.32259e+07 0 
0 0 0 
1.53007e+07 -4.81257e+06 0 
-4.81257e+06 -1.14433e+07 0 
0 0 0 
0 0 0 
0 0 0 
0 0 0 
-2.9582e+07 3.65209e+06 0 
3.65209e+06 -2.72851e+07 0 
0 0 0 
-6.64801e+07 1.01771e+07 0 
1.01771e+07 -6.85754e+07 0 
0 0 0 
-7.33169e+07 -211513 0 
-211513 -9.42591e+07 0 
0 0 0 
-6.03814e+07 -9.09922e+06 0 
-9.09922e+06 -4.22745e+07 0 
0 0 0 
-5.76402e+07 -1.20829e+07 0 
-1.20829e+07 407695 0 
0 0 0 
-7.1068e+07 -3.8393e+06 0 
-3.8393e+06 -2.20352e+07 0 
0 0 0 
-1.13377e+08 7.55256e+06 0 
7.55256e+06 -1.62631e+08 0 
0 0 0 
-7.31735e+07 1.48539e+07 0 
1.48539e+07 -6.30599e+07 0 
0 0 0 
-4.71528e+07 1.47871e+07 0 
1.47871e+07 -3.71928e+06 0 
0 0 0 
-2.60653e+07 1.76331e+07 0 
1.76331e+07 2.67362e+07 0 
0 0 0 
-6.14688e+07 1.50631e+07 0 
1.50631e+07 -5.06603e+07 0 
0 0 0 
-6.93307e+07 1.16189e+06 0 
1.16189e+06 -8.14835e+07 0 
0 0 0 
-3.10013e+07 -2.36712e+06 0 
-2.36712e+06 3.95374e+06 0 
0 0 0 
-1.87167e+07 1.61938e+07 0 
1.61938e+07 2.3802e+07 0 
0 0 0 
-1.5637e+07 9.77372e+06 0 
9.77372e+06 -1.01974e+07 0 
0 0 0 
-4.75786e+07 3.44772e+06 0 
3.44772e+06 -6.44483e+07 0 
0 0 0 
-5.63598e+06 -5.92682e+06 0 
-5.92682e+06 2.26545e+07 0 
0 0 0 
1.00029e+07 2.82692e+07 0 
2.82692e+07 8.97895e+07 0 
0 0 0 
-2.86822e+07 3.6937e+07 0 
3.6937e+07 1.10938e+08 0 
0 0 0 
-5.49696e+06 1.01244e+07 0 
1.01244e+07 -3.20804e+07 0 
0 0 0 
1.98726e+07 -1.11197e+07 0 
-1.11197e+07 5.05627e+07 0 
0 0 0 
-5.50662e+07 -5.13126e+07 0 
-5.13126e+07 1.19738e+08 0 
0 0 0 
-2.47014e+07 -2.56192e+07 0 
-2.56192e+07 1.23841e+08 0 
0 0 0 
1.3412e+07 1.10531e+07 0 
1.10531e+07 7.98845e+07 0 
0 0 0 
-4.56825e+06 1.45133e+07 0 
1.45133e+07 7.39845e+07 0 
0 0 0 
-2.2371e+07 2.03809e+07 0 
2.03809e+07 4.76016e+07 0 
0 0 0 
-1.67933e+07 1.1561e+07 0 
1.1561e+07 6.64104e+07 0 
0 0 0 
-2.81565e+07 1.69272e+07 0 
1.69272e+07 5.55382e+07 0 
0 0 0 
-3.56596e+07 2.4984e+07 0 
2.4984e+07 -4.51476e+06 0 
0 0 0 
-7.64588e+06 1.61288e+07 0 
1.61288e+07 4.02205e+07 0 
0 0 0 
8.10125e+06 1.05739e+07 0 
1.05739e+07 5.17358e+07 0 
0 0 0 
2.39849e+07 1.0994e+07 0 
1.0994e+07 5.42678e+07 0 
0 0 0 
3.74832e+07 2.76098e+07 0 
2.76098e+07 1.12704e+08 0 
0 0 0 
1.34989e+06 2.60034e+07 0 
2.60034e+07 -1.67835e+07 0 
0 0 0 
-9.69234e+06 1.73295e+07 0 
1.73295e+07 -1.22336e+07 0 
0 0 0 
-8.32732e+06 2.10705e+07 0 
2.10705e+07 -1.30051e+07 0 
0 0 0 
-2.15506e+06 2.69463e+07 0 
2.69463e+07 1.59299e+07 0 
0 0 0 
-7.70645e+06 2.56754e+07 0 
2.56754e+07 -1.78129e+07 0 
0 0 0 
8.87134e+06 1.59669e+07 0 
1.59669e+07 -1.83696e+07 0 
0 0 0 
2.05908e+07 5.39336e+06 0 
5.39336e+06 -1.76808e+07 0 
0 0 0 
-5.29e+06 -452713 0 
-452713 -9.89356e+07 0 
0 0 0 
7.44014e+06 -6.80953e+06 0 
-6.80953e+06 -6.62417e+07 0 
0 0 0 
5.43332e+07 -1.4188e+07 0 
-1.4188e+07 2.47182e+07 0 
0 0 0 
1.06327e+07 -2.68926e+07 0 
-2.68926e+07 -4.8922e+07 0 
0 0 0 
-3.06591e+06 1.71414e+06 0 
1.71414e+06 -9.5226e+07 0 
0 0 0 
3.2133e+07 -2.15334e+06 0 
-2.15334e+06 -6.018e+07 0 
0 0 0 
4.78432e+07 -3.40724e+07 0 
-3.40724e+07 2.24253e+07 0 
0 0 0 
4.01351e+07 -2.94323e+07 0 
-2.94323e+07 5.61995e+07 0 
0 0 0 
5.81593e+06 -2.82084e+07 0 
-2.82084e+07 -2.12564e+07 0 
0 0 0 
-1.02792e+07 -2.5907e+07 0 
-2.5907e+07 -2.83128e+07 0 
0 0 0 
-2.11335e+07 -2.40634e+07 0 
-2.40634e+07 -1.80539e+07 0 
0 0 0 
-2.17473e+07 -1.55265e+07 0 
-1.55265e+07 2.58626e+06 0 
0 0 0 
-5.00556e+07 -2.08836e+07 0 
-2.08836e+07 -5.92643e+07 0 
0 0 0 
-2.39244e+07 -6.48415e+06 0 
-6.48415e+06 1.54819e+07 0 
0 0 0 
-2.45126e+07 -2.00348e+07 0 
-2.00348e+07 -1.37396e+07 0 
0 0 0 
-3.16667e+07 516980 0 
516980 -2.50677e+07 0 
0 0 0 
-2.38221e+07 1.41251e+07 0 
1.41251e+07 -3.69433e+07 0 
0 0 0 
1.19757e+07 4.99806e+06 0 
4.99806e+06 -3.32962e+06 0 
0 0 0 
3.36541e+07 9.62148e+06 0 
9.62148e+06 5.61172e+07 0 
0 0 0 
1.6318e+07 4.93765e+06 0 
4.93765e+06 1.91128e+07 0 
0 0 0 
2.72936e+07 1.02465e+07 0 
1.02465e+07 3.1622e+07 0 
0 0 0 
3.72599e+07 2.21041e+06 0 
2.21041e+06 4.4237e+07 0 
0 0 0 
1.55301e+07 -493652 0 
-493652 -444804 0 
0 0 0 
-1.60574e+07 -3.15926e+06 0 
-3.15926e+06 -4.35528e+06 0 
0 0 0 
-1.60846e+07 -551113 0 
-551113 1.76274e+07 0 
0 0 0 
-1.36143e+07 -4.75998e+06 0 
-4.75998e+06 -7.75248e+06 0 
0 0 0 
1.19614e+07 -7.69036e+06 0 
-7.69036e+06 3.45762e+07 0 
0 0 0 
-2.49277e+07 5.05068e+06 0 
5.05068e+06 -1.939e+06 0 
0 0 0 
-4.41445e+07 9.05373e+06 0 
9.05373e+06 -2.72513e+07 0 
0 0 0 
-1.56446e+07 3.83693e+06 0 
3.83693e+06 4.83411e+07 0 
0 0 0 
-2.98502e+07 -1.0859e+07 0 
-1.0859e+07 260154 0 
0 0 0 
-2.15804e+07 -6.90887e+06 0 
-6.90887e+06 4.71304e+06 0 
0 0 0 
-4.30185e+07 -65761 0 
-65761 -5.7855e+07 0 
0 0 0 
0 0 0 
0 0 0 
0 0 0 
9.42579e+06 1.15552e+06 0 
1.15552e+06 9.5046e+06 0 
0 0 0 
7.63172e+06 -54714.5 0 
-54714.5 1.66757e+07 0 
0 0 0 
6.07678e+06 -576998 0 
-576998 9.49282e+06 0 
0 0 0 
-3.37609e+07 1.89426e+06 0 
1.89426e+06 -2.27083e+07 0 
0 0 0 
2.16402e+07 5.40521e+06 0 
5.40521e+06 -9.38984e+06 0 
0 0 0 
-3.58374e+07 1.07694e+07 0 
1.07694e+07 -2.33743e+07 0 
0 0 0 
8.88698e+06 5.80727e+06 0 
5.80727e+06 -1.13732e+07 0 
0 0 0 
-3.44533e+07 7.49406e+06 0 
7.49406e+06 -2.16839e+07 0 
0 0 0 
-1.20077e+06 3.24803e+06 0 
3.24803e+06 -1.42133e+07 0 
0 0 0 
-2.4235e+07 6.57665e+06 0 
6.57665e+06 -1.67469e+07 0 
0 0 0 
9.74282e+06 -1.58697e+06 0 
-1.58697e+06 7.36176e+06 0 
0 0 0 
2.43762e+07 -1.37032e+06 0 
-1.37032e+06 1.5426e+07 0 
0 0 0 
6.4333e+06 -3.95753e+06 0 
-3.95753e+06 2.58714e+07 0 
0 0 0 
2.19856e+07 -6.81447e+06 0 
-6.81447e+06 2.12086e+07 0 
0 0 0 
-2.16914e+07 -1.00345e+07 0 
-1.00345e+07 4.88055e+06 0 
0 0 0 
1.83679e+07 -1.59115e+06 0 
-1.59115e+06 1.78052e+07 0 
0 0 0 
-2.49429e+07 -1.98127e+06 0 
-1.98127e+06 -2.08749e+06 0 
0 0 0 
2.42288e+07 -1.42343e+07 0 
-1.42343e+07 1.94838e+07 0 
0 0 0 
1.22439e+06 -1.50702e+07 0 
-1.50702e+07 1.2211e+07 0 
0 0 0 
801709 -1.99189e+06 0 
-1.99189e+06 1.32212e+07 0 
0 0 0 
-3.69582e+06 -3.67115e+06 0 
-3.67115e+06 -5.79271e+06 0 
0 0 0 
-1.55946e+07 3.94745e+06 0 
3.94745e+06 -1.41138e+07 0 
0 0 0 
7.675e+06 1.26861e+07 0 
1.26861e+07 -2.46002e+07 0 
0 0 0 
-2.25343e+07 8.96473e+06 0 
8.96473e+06 -2.79659e+07 0 
0 0 0 
-1.04293e+07 5.10018e+06 0 
5.10018e+06 -2.54941e+07 0 
0 0 0 
-4.00464e+07 -5.21134e+06 0 
-5.21134e+06 -2.965e+07 0 
0 0 0 
1.77031e+07 -7.5245e+06 0 
-7.5245e+06 4.35849e+06 0 
0 0 0 
2.56407e+07 -2.73346e+06 0 
-2.73346e+06 8.94004e+06 0 
0 0 0 
5.51172e+07 3.51074e+06 0 
3.51074e+06 2.80193e+07 0 
0 0 0 
2.5015e+07 5.96457e+06 0 
5.96457e+06 1.61609e+07 0 
0 0 0 
4.06043e+06 -3.20974e+06 0 
-3.20974e+06 6.18498e+06 0 
0 0 0 
-2.74556e+07 -4.23995e+06 0 
-4.23995e+06 -1.05896e+07 0 
0 0 0 
-8.18327e+06 -7.53572e+06 0 
-7.53572e+06 848124 0 
0 0 0 
-1.3872e+07 -1.33567e+06 0 
-1.33567e+06 -7.71829e+06 0 
0 0 0 
-1.14293e+07 1.26079e+07 0 
1.26079e+07 -6.35052e+06 0 
0 0 0 
6.09753e+06 1.29487e+07 0 
1.29487e+07 4.2464e+06 0 
0 0 0 
1.23109e+07 1.50163e+07 0 
1.50163e+07 1.6543e+07 0 
0 0 0 
-3.3719e+07 4.13198e+06 0 
4.13198e+06 1.21742e+07 0 
0 0 0 
3.71324e+07 -4.85664e+06 0 
-4.85664e+06 4.30599e+07 0 
0 0 0 
1.79586e+07 2.69383e+06 0 
2.69383e+06 4.94346e+07 0 
0 0 0 
4.38014e+07 1.65427e+06 0 
1.65427e+06 6.26485e+07 0 
0 0 0 
2.92398e+07 1.16492e+06 0 
1.16492e+06 5.17127e+07 0 
0 0 0 
1.58466e+06 3.24071e+06 0 
3.24071e+06 3.32108e+07 0 
0 0 0 
-1.37558e+07 -4.65063e+06 0 
-4.65063e+06 2.14549e+07 0 
0 0 0 
2.88426e+06 -6.36099e+06 0 
-6.36099e+06 2.27714e+07 0 
0 0 0 
5.11886e+06 -3.75094e+06 0 
-3.75094e+06 2.34927e+07 0 
0 0 0 
3.23243e+07 -4.59687e+06 0 
-4.59687e+06 4.36867e+07 0 
0 0 0 
-1.14333e+07 -4.77444e+06 0 
-4.77444e+06 2.61113e+07 0 
0 0 0 
-8.40986e+06 -8.5728e+06 0 
-8.5728e+06 2.45233e+07 0 
0 0 0 
-9.24546e+06 1.35206e+06 0 
1.35206e+06 1.0579e+07 0 
0 0 0 
2.93242e+06 3.51358e+06 0 
3.51358e+06 2.48691e+07 0 
0 0 0 
2.24253e+07 5.53004e+06 0 
5.53004e+06 4.53189e+07 0 
0 0 0 
3.05575e+07 4.6278e+06 0 
4.6278e+06 3.86002e+07 0 
0 0 0 
1.46844e+07 3.31832e+06 0 
3.31832e+06 3.21797e+07 0 
0 0 0 
-7.23386e+06 9.01072e+06 0 
9.01072e+06 6.13494e+06 0 
0 0 0 
-1.40694e+07 8.62189e+06 0 
8.62189e+06 -7.13874e+06 0 
0 0 0 
-1.46264e+07 4.21033e+06 0 
4.21033e+06 1.01234e+07 0 
0 0 0 
3.8727e+07 -6.29718e+06 0 
-6.29718e+06 3.60813e+07 0 
0 0 0 
-1.3287e+07 -1.85548e+07 0 
-1.85548e+07 2.05124e+06 0 
0 0 0 
1.99317e+07 -964156 0 
-964156 -997018 0 
0 0 0 
-5.09595e+07 -4.8704e+06 0 
-4.8704e+06 -2.57707e+07 0 
0 0 0 
-1.56949e+07 -3.31416e+06 0 
-3.31416e+06 -2.01431e+07 0 
0 0 0 
-2.44584e+07 -1.69831e+06 0 
-1.69831e+06 -2.52208e+07 0 
0 0 0 
1.91996e+06 -6.93474e+06 0 
-6.93474e+06 -6.83097e+06 0 
0 0 0 
-1.34644e+07 1.25807e+06 0 
1.25807e+06 2.30549e+06 0 
0 0 0 
7.48742e+06 -3.48652e+06 0 
-3.48652e+06 6.49994e+06 0 
0 0 0 
940363 -5.11142e+06 0 
-5.11142e+06 1.00339e+07 0 
0 0 0 
1.16036e+07 -4.43632e+06 0 
-4.43632e+06 2.11504e+07 0 
0 0 0 
1.40973e+07 3.70198e+06 0 
3.70198e+06 1.4483e+07 0 
0 0 0 
2.9421e+07 -2.34454e+06 0 
-2.34454e+06 2.36799e+07 0 
0 0 0 
9.94916e+06 8.41088e+06 0 
8.41088e+06 4.51422e+06 0 
0 0 0 
-3.40492e+07 3.66661e+06 0 
3.66661e+06 -7.59736e+06 0 
0 0 0 
-1.63026e+06 1.81298e+06 0 
1.81298e+06 -2.53548e+06 0 
0 0 0 
-3.11599e+07 -8.06896e+06 0 
-8.06896e+06 -4.20038e+07 0 
0 0 0 
-6.18338e+06 -1.14757e+07 0 
-1.14757e+07 4.77097e+06 0 
0 0 0 
0 0 0 
0 0 0 
0 0 0 
4.12366e+06 -1.16283e+06 0 
-1.16283e+06 -1.28366e+07 0 
0 0 0 
4.82199e+06 -842480 0 
-842480 -4.52016e+07 0 
0 0 0 
-3.32458e+06 2.60544e+06 0 
2.60544e+06 -8.3495e+07 0 
0 0 0 
1.79201e+07 321867 0 
321867 -2.12747e+07 0 
0 0 0 
3.53711e+07 -7.2671e+06 0 
-7.2671e+06 2.53205e+07 0 
0 0 0 
2.57125e+07 -2.68766e+07 0 
-2.68766e+07 1.86979e+07 0 
0 0 0 
-2.79334e+07 -7.18771e+06 0 
-7.18771e+06 -1.07634e+08 0 
0 0 0 
1.29679e+06 2.13977e+07 0 
2.13977e+07 -2.98762e+07 0 
0 0 0 
1.64736e+07 1.53119e+07 0 
1.53119e+07 1.81763e+07 0 
0 0 0 
5.90205e+06 6.23142e+06 0 
6.23142e+06 2.89399e+07 0 
0 0 0 
-2.09768e+07 -2.49903e+06 0 
-2.49903e+06 -5.18309e+07 0 
0 0 0 
-3.96145e+07 7.98381e+06 0 
7.98381e+06 -6.92456e+07 0 
0 0 0 
-1.81836e+07 9.80955e+06 0 
9.80955e+06 1.65721e+07 0 
0 0 0 
-3.26965e+07 906756 0 
906756 2.38849e+06 0 
0 0 0 
-5.39362e+07 9.86296e+06 0 
9.86296e+06 -1.15916e+06 0 
0 0 0 
-6.98666e+07 8.85974e+06 0 
8.85974e+06 -8.93243e+07 0 
0 0 0 
-1.29454e+07 2.5188e+07 0 
2.5188e+07 3.87834e+07 0 
0 0 0 
2.94806e+07 2.64849e+07 0 
2.64849e+07 1.08753e+08 0 
0 0 0 
3.19839e+07 5.01539e+06 0 
5.01539e+06 1.09565e+08 0 
0 0 0 
-3.63649e+07 -1.30601e+06 0 
-1.30601e+06 -2.1536e+07 0 
0 0 0 
-1.88163e+07 -1.77394e+07 0 
-1.77394e+07 1.60088e+07 0 
0 0 0 
-6.28171e+07 -2.16003e+07 0 
-2.16003e+07 3.54775e+07 0 
0 0 0 
-8.17251e+07 -1.97187e+07 0 
-1.97187e+07 5.80333e+07 0 
0 0 0 
1.90568e+07 1.17874e+07 0 
1.17874e+07 7.45068e+07 0 
0 0 0 
2.53545e+07 1.42183e+07 0 
1.42183e+07 8.71641e+07 0 
0 0 0 
2.63055e+07 8.72528e+06 0 
8.72528e+06 5.93787e+07 0 
0 0 0 
5.92648e+07 1.95878e+07 0 
1.95878e+07 1.16668e+08 0 
0 0 0 
7.83567e+07 2.38367e+07 0 
2.38367e+07 8.63623e+07 0 
0 0 0 
5.77622e+07 3.47124e+07 0 
3.47124e+07 3.66908e+07 0 
0 0 0 
6.25707e+07 2.63883e+07 0 
2.63883e+07 2.79391e+07 0 
0 0 0 
1.01687e+08 1.67783e+07 0 
1.67783e+07 1.01113e+08 0 
0 0 0 
9.98637e+07 1.53104e+07 0 
1.53104e+07 8.782e+07 0 
0 0 0 
8.97501e+07 1.19947e+07 0 
1.19947e+07 1.18752e+08 0 
0 0 0 
3.40958e+07 1.01666e+07 0 
1.01666e+07 3.17195e+06 0 
0 0 0 
4.54904e+07 5.29167e+06 0 
5.29167e+06 -1.04533e+07 0 
0 0 0 
3.6644e+07 1.83422e+07 0 
1.83422e+07 2.55363e+07 0 
0 0 0 
3.80745e+07 2.21854e+07 0 
2.21854e+07 4.85036e+07 0 
0 0 0 
1.68268e+06 2.71161e+07 0 
2.71161e+07 -3.22077e+07 0 
0 0 0 
-1.91057e+07 7.64474e+06 0 
7.64474e+06 -5.07398e+07 0 
0 0 0 
-2.58531e+07 5.48821e+06 0 
5.48821e+06 -4.13314e+07 0 
0 0 0 
-5.46413e+07 6.43786e+06 0 
6.43786e+06 -9.11854e+07 0 
0 0 0 
-5.19093e+07 1.15606e+07 0 
1.15606e+07 -1.03103e+08 0 
0 0 0 
-852591 6.23375e+06 0 
6.23375e+06 -1.20922e+07 0 
0 0 0 
1.79244e+07 -2.01526e+07 0 
-2.01526e+07 -5.94053e+07 0 
0 0 0 
-4.92934e+06 -1.61308e+07 0 
-1.61308e+07 -6.69851e+07 0 
0 0 0 
-5.46623e+07 -1.89137e+07 0 
-1.89137e+07 -9.62386e+07 0 
0 0 0 
-1.10791e+07 -1.78457e+07 0 
-1.78457e+07 -5.11714e+06 0 
0 0 0 
-1.52347e+06 -2.92111e+07 0 
-2.92111e+07 2.02475e+07 0 
0 0 0 
-2.88655e+07 -2.85631e+07 0 
-2.85631e+07 -1.9415e+07 0 
0 0 0 
-3.69843e+07 -2.98013e+07 0 
-2.98013e+07 -4.16179e+07 0 
0 0 0 
-2.28266e+07 -2.25586e+07 0 
-2.25586e+07 -1.76441e+07 0 
0 0 0 
-1.54534e+07 -2.65183e+07 0 
-2.65183e+07 7.0783e+06 0 
0 0 0 
-3.38936e+07 -2.40605e+07 0 
-2.40605e+07 -3.59445e+07 0 
0 0 0 
-6.59401e+06 -7.75911e+06 0 
-7.75911e+06 3.00365e+07 0 
0 0 0 
-6.09635e+06 -6.64098e+06 0 
-6.64098e+06 -1.62371e+07 0 
0 0 0 
2.56396e+07 -5.20396e+06 0 
-5.20396e+06 1.7433e+07 0 
0 0 0 
-5.05942e+06 1.04711e+07 0 
1.04711e+07 -2.83535e+07 0 
0 0 0 
-3.64242e+07 8.23284e+06 0 
8.23284e+06 -9.52412e+06 0 
0 0 0 
-3.43782e+07 1.34296e+06 0 
1.34296e+06 2.18395e+07 0 
0 0 0 
-6.08922e+06 7.56745e+06 0 
7.56745e+06 2.14433e+07 0 
0 0 0 
1.28143e+07 1.31647e+07 0 
1.31647e+07 1.94671e+07 0 
0 0 0 
9.75061e+06 7.56752e+06 0 
7.56752e+06 2.528e+07 0 
0 0 0 
-1.57785e+07 2.10064e+06 0 
2.10064e+06 -1.79913e+07 0 
0 0 0 
1.92353e+07 -1.13682e+06 0 
-1.13682e+06 1.7728e+07 0 
0 0 0 
2.66831e+07 4.2326e+06 0 
4.2326e+06 2.49573e+07 0 
0 0 0 
1.38209e+06 -367647 0 
-367647 -9.79331e+06 0 
0 0 0 
1.20063e+07 -5.18492e+06 0 
-5.18492e+06 4.28012e+07 0 
0 0 0 
2.78493e+07 2.79512e+06 0 
2.79512e+06 1.7401e+07 0 
0 0 0 
2.22263e+07 -1.0119e+06 0 
-1.0119e+06 -4.2004e+06 0 
0 0 0 
3.69105e+07 1.16561e+06 0 
1.16561e+06 6.11573e+07 0 
0 0 0 
2.90048e+07 1.99501e+06 0 
1.99501e+06 2.78714e+07 0 
0 0 0 
2.23758e+07 3.55431e+06 0 
3.55431e+06 1.14862e+07 0 
0 0 0 
1.37231e+07 -1.04587e+07 0 
-1.04587e+07 -3.45448e+07 0 
0 0 0 
4.79766e+06 -5.34435e+06 0 
-5.34435e+06 -5.35412e+07 0 
0 0 0 
0 0 0 
0 0 0 
0 0 0 
1.6448e+07 4.3911e+06 0 
4.3911e+06 -368906 0 
0 0 0 
1.83187e+06 1.07291e+07 0 
1.07291e+07 -930042 0 
0 0 0 
-4.29536e+06 104492 0 
104492 8.52702e+06 0 
0 0 0 
-1.52154e+06 7.24779e+06 0 
7.24779e+06 2.44011e+07 0 
0 0 0 
2.64789e+07 2.96944e+06 0 
2.96944e+06 4.21158e+07 0 
0 0 0 
-1.93631e+06 -679215 0 
-679215 2.22395e+07 0 
0 0 0 
4.56776e+06 7.71842e+06 0 
7.71842e+06 2.75506e+07 0 
0 0 0 
-1.18998e+07 2.38201e+06 0 
2.38201e+06 1.05804e+07 0 
0 0 0 
4.42407e+06 1.32511e+07 0 
1.32511e+07 2.29352e+07 0 
0 0 0 
-1.09105e+07 7.11993e+06 0 
7.11993e+06 1.76189e+07 0 
0 0 0 
-2.24829e+06 5.08803e+06 0 
5.08803e+06 2.67697e+06 0 
0 0 0 
6.29919e+06 -298638 0 
-298638 8.43482e+06 0 
0 0 0 
-1.40338e+07 -2.84664e+06 0 
-2.84664e+06 -1.90153e+07 0 
0 0 0 
2.03698e+07 -9.37119e+06 0 
-9.37119e+06 -1.09991e+07 0 
0 0 0 
-4.26264e+07 -3.64123e+06 0 
-3.64123e+06 -4.27323e+07 0 
0 0 0 
2.3753e+07 -1.18235e+06 0 
-1.18235e+06 -1.94343e+07 0 
0 0 0 
-3.24795e+07 -3.32801e+06 0 
-3.32801e+06 -2.67113e+07 0 
0 0 0 
-6.46333e+06 1.15723e+06 0 
1.15723e+06 -1.40014e+07 0 
0 0 0 
1.97307e+07 -2.02824e+06 0 
-2.02824e+06 9.24678e+06 0 
0 0 0 
-7.003e+06 5.95144e+06 0 
5.95144e+06 8.6189e+06 0 
0 0 0 
7.14231e+06 -2.7855e+06 0 
-2.7855e+06 2.82899e+07 0 
0 0 0 
9.93424e+06 -5.69405e+06 0 
-5.69405e+06 2.13967e+07 0 
0 0 0 
1.60148e+07 1.65294e+06 0 
1.65294e+06 2.09959e+07 0 
0 0 0 
-1.85056e+07 7.57041e+06 0 
7.57041e+06 -6.44045e+06 0 
0 0 0 
-432247 -1.11111e+06 0 
-1.11111e+06 -481893 0 
0 0 0 
-3.59463e+07 597060 0 
597060 -1.47992e+07 0 
0 0 0 
2.24285e+07 5.6008e+06 0 
5.6008e+06 1.89633e+07 0 
0 0 0 
3.33376e+07 3.01837e+06 0 
3.01837e+06 4.30069e+07 0 
0 0 0 
6.93224e+07 -66678.4 0 
-66678.4 5.49474e+07 0 
0 0 0 
2.68333e+07 -7.12222e+06 0 
-7.12222e+06 3.47586e+07 0 
0 0 0 
-1.02669e+07 -1.14312e+07 0 
-1.14312e+07 -7.47503e+06 0 
0 0 0 
-3.62032e+07 -1.3906e+07 0 
-1.3906e+07 -2.17268e+07 0 
0 0 0 
-5.05761e+06 -7.45382e+06 0 
-7.45382e+06 -1.39282e+07 0 
0 0 0 
7.12686e+06 1.3793e+06 0 
1.3793e+06 -3.84706e+06 0 
0 0 0 
-4.34787e+06 4.78633e+06 0 
4.78633e+06 -9.2004e+06 0 
0 0 0 
-2.12698e+06 9.09236e+06 0 
9.09236e+06 -2.0495e+07 0 
0 0 0 
-2.34571e+07 1.15212e+07 0 
1.15212e+07 -3.9286e+07 0 
0 0 0 
-3.60451e+07 1.79348e+06 0 
1.79348e+06 -5.33545e+07 0 
0 0 0 
-4.96486e+06 1.57475e+07 0 
1.57475e+07 -2.47029e+07 0 
0 0 0 
7.33216e+06 3.06918e+06 0 
3.06918e+06 -2.17845e+06 0 
0 0 0 
1.39581e+07 420533 0 
420533 4.53642e+06 0 
0 0 0 
1.87776e+07 -6.20516e+06 0 
-6.20516e+06 5.26533e+06 0 
0 0 0 
-3.6741e+07 -1.18025e+07 0 
-1.18025e+07 -3.38653e+07 0 
0 0 0 
-2.9862e+07 -7.63616e+06 0 
-7.63616e+06 -4.85163e+07 0 
0 0 0 
-1.14852e+07 -6.82166e+06 0 
-6.82166e+06 -4.50551e+07 0 
0 0 0 
-2.64164e+07 -7.52766e+06 0 
-7.52766e+06 -4.15179e+07 0 
0 0 0 
2.60356e+07 -6.07187e+06 0 
-6.07187e+06 -1.06834e+07 0 
0 0 0 
-2.9813e+07 -6.64395e+06 0 
-6.64395e+06 -1.83327e+07 0 
0 0 0 
-7.22057e+06 107707 0 
107707 -4.43214e+06 0 
0 0 0 
-3.54743e+06 -31515.1 0 
-31515.1 1.8525e+07 0 
0 0 0 
-5.52046e+06 9.77886e+06 0 
9.77886e+06 1.73062e+07 0 
0 0 0 
1.94082e+07 2.10494e+06 0 
2.10494e+06 2.48923e+07 0 
0 0 0 
3.07207e+06 -6.21287e+06 0 
-6.21287e+06 2.09401e+07 0 
0 0 0 
8.76822e+06 -1.32697e+07 0 
-1.32697e+07 -18104.9 0 
0 0 0 
80635.2 -9.86127e+06 0 
-9.86127e+06 -2.51604e+07 0 
0 0 0 
-2.58916e+07 -452835 0 
-452835 -4.43723e+07 0 
0 0 0 
-4.81062e+07 -1.95808e+06 0 
-1.95808e+06 -6.07248e+07 0 
0 0 0 
214640 -2.19651e+06 0 
-2.19651e+06 -4.28224e+07 0 
0 0 0 
-1.89724e+07 -1.72012e+07 0 
-1.72012e+07 -2.99573e+07 0 
0 0 0 
2.0771e+07 -1.09998e+07 0 
-1.09998e+07 3.68972e+06 0 
0 0 0 
-4.52763e+07 -1.08915e+07 0 
-1.08915e+07 -7.38312e+06 0 
0 0 0 
1.12376e+06 -5.82409e+06 0 
-5.82409e+06 1.20463e+07 0 
0 0 0 
-4.05827e+07 -5.36706e+06 0 
-5.36706e+06 -4.69541e+06 0 
0 0 0 
1.80615e+07 -481847 0 
-481847 1.49512e+07 0 
0 0 0 
4.09511e+06 -614748 0 
-614748 1.54673e+07 0 
0 0 0 
8.80027e+06 1.89753e+06 0 
1.89753e+06 3.43527e+07 0 
0 0 0 
6.50509e+06 -1.06454e+06 0 
-1.06454e+06 3.2029e+07 0 
0 0 0 
2.64606e+07 -2.35907e+06 0 
-2.35907e+06 4.65363e+07 0 
0 0 0 
3.27701e+07 -1.79011e+06 0 
-1.79011e+06 5.11795e+07 0 
0 0 0 
2.39431e+07 -7.5993e+06 0 
-7.5993e+06 2.16777e+07 0 
0 0 0 
8.93132e+06 -1.0703e+07 0 
-1.0703e+07 7.4079e+06 0 
0 0 0 
-2.81202e+07 1.08531e+06 0 
1.08531e+06 -1.7595e+07 0 
0 0 0 
-1.83289e+07 -8.84646e+06 0 
-8.84646e+06 -5.32559e+06 0 
0 0 0 
-2.15656e+07 -7.98652e+06 0 
-7.98652e+06 7.22314e+06 0 
0 0 0 
2.05848e+07 -9.67613e+06 0 
-9.67613e+06 2.02792e+07 0 
0 0 0 
3.74848e+07 -2.44086e+07 0 
-2.44086e+07 4.25968e+07 0 
0 0 0 
0 0 0 
0 0 0 
0 0 0 
-2.01104e+07 -5.91596e+06 0 
-5.91596e+06 -3.00755e+07 0 
0 0 0 
-3.91384e+07 5.99562e+06 0 
5.99562e+06 -4.74465e+07 0 
0 0 0 
-6.55882e+07 4.37348e+06 0 
4.37348e+06 -1.09496e+08 0 
0 0 0 
-3.35016e+07 -3.33661e+06 0 
-3.33661e+06 -4.93054e+07 0 
0 0 0 
21693.3 -1.21079e+07 0 
-1.21079e+07 -1.00726e+06 0 
0 0 0 
2.78547e+07 -1.42225e+07 0 
-1.42225e+07 2.0959e+07 0 
0 0 0 
3.01151e+07 6.74868e+06 0 
6.74868e+06 -4.62368e+07 0 
0 0 0 
5.05059e+07 1.88074e+07 0 
1.88074e+07 -9.36403e+06 0 
0 0 0 
3.92886e+07 -5.39207e+06 0 
-5.39207e+06 2.17003e+06 0 
0 0 0 
2.72461e+07 -1.10096e+07 0 
-1.10096e+07 1.79944e+07 0 
0 0 0 
-957971 -6.51607e+06 0 
-6.51607e+06 -3.51387e+07 0 
0 0 0 
-774117 -5.81824e+06 0 
-5.81824e+06 -3.39117e+07 0 
0 0 0 
1.72556e+07 1.87986e+06 0 
1.87986e+06 1.78209e+07 0 
0 0 0 
3.15678e+07 8.93811e+06 0 
8.93811e+06 2.08847e+07 0 
0 0 0 
4.08282e+07 4.1244e+06 0 
4.1244e+06 3.60776e+07 0 
0 0 0 
2.70671e+07 2.16333e+07 0 
2.16333e+07 -3.0266e+07 0 
0 0 0 
6.78691e+07 1.83615e+07 0 
1.83615e+07 5.9665e+07 0 
0 0 0 
8.56509e+07 2.7547e+07 0 
2.7547e+07 1.15686e+08 0 
0 0 0 
7.37864e+07 871180 0 
871180 9.26919e+07 0 
0 0 0 
4.65469e+07 593755 0 
593755 9.72313e+06 0 
0 0 0 
4.66211e+07 -9.35665e+06 0 
-9.35665e+06 1.4448e+07 0 
0 0 0 
2.1892e+07 -2.10602e+07 0 
-2.10602e+07 4.21606e+07 0 
0 0 0 
-7.76563e+07 -3.46182e+07 0 
-3.46182e+07 9.40678e+07 0 
0 0 0 
-3.13975e+07 5.26242e+06 0 
5.26242e+06 8.284e+07 0 
0 0 0 
-1.69276e+07 1.70774e+07 0 
1.70774e+07 6.59341e+07 0 
0 0 0 
-3.07066e+07 2.23058e+07 0 
2.23058e+07 6.02835e+07 0 
0 0 0 
-3.52455e+07 2.15094e+07 0 
2.15094e+07 7.39209e+07 0 
0 0 0 
-4.6718e+07 2.10816e+07 0 
2.10816e+07 8.08595e+07 0 
0 0 0 
-8.23718e+07 2.9281e+07 0 
2.9281e+07 -1.88816e+07 0 
0 0 0 
-8.27585e+07 4.59956e+07 0 
4.59956e+07 -1.19239e+07 0 
0 0 0 
-7.87484e+07 2.95702e+07 0 
2.95702e+07 2.40201e+07 0 
0 0 0 
-5.51741e+07 3.11127e+07 0 
3.11127e+07 4.59856e+07 0 
0 0 0 
-4.94015e+06 1.54688e+07 0 
1.54688e+07 6.61684e+07 0 
0 0 0 
-2.836e+07 2.61602e+07 0 
2.61602e+07 -2.0851e+07 0 
0 0 0 
-3.54055e+07 1.37995e+07 0 
1.37995e+07 -3.54895e+07 0 
0 0 0 
1.08535e+07 1.42692e+07 0 
1.42692e+07 3.13476e+07 0 
0 0 0 
1.25931e+07 1.60039e+07 0 
1.60039e+07 4.09171e+07 0 
0 0 0 
-3.48384e+07 3.46958e+06 0 
3.46958e+06 -3.74911e+07 0 
0 0 0 
-6.00822e+07 2.25484e+07 0 
2.25484e+07 -8.06465e+07 0 
0 0 0 
-5.66809e+07 -536412 0 
-536412 -6.80083e+07 0 
0 0 0 
-5.6985e+07 -3.98312e+06 0 
-3.98312e+06 -7.31128e+07 0 
0 0 0 
-5.28917e+07 5.77764e+06 0 
5.77764e+06 -1.04353e+08 0 
0 0 0 
-4.76597e+07 -3.97362e+06 0 
-3.97362e+06 -5.47258e+07 0 
0 0 0 
-7.02609e+07 -1.69857e+07 0 
-1.69857e+07 -1.01313e+08 0 
0 0 0 
-3.19661e+07 -2.02444e+07 0 
-2.02444e+07 -6.88187e+07 0 
0 0 0 
-3.56938e+07 -1.94398e+07 0 
-1.94398e+07 -7.92869e+07 0 
0 0 0 
-2.61298e+07 -2.71547e+07 0 
-2.71547e+07 -1.78282e+07 0 
0 0 0 
6.90942e+06 -3.19095e+07 0 
-3.19095e+07 2.19388e+07 0 
0 0 0 
-1.34596e+07 -3.12735e+07 0 
-3.12735e+07 -2.17426e+07 0 
0 0 0 
-1.8569e+07 -2.04482e+07 0 
-2.04482e+07 -2.03539e+07 0 
0 0 0 
-6.01875e+06 -1.27401e+07 0 
-1.27401e+07 -2.13702e+07 0 
0 0 0 
83206.5 -2.32232e+07 0 
-2.32232e+07 3.28708e+06 0 
0 0 0 
652304 -2.20419e+07 0 
-2.20419e+07 -5.09197e+06 0 
0 0 0 
1.33234e+07 -7.06684e+06 0 
-7.06684e+06 5.47556e+07 0 
0 0 0 
-1.5351e+07 3.20967e+06 0 
3.20967e+06 -1.31028e+07 0 
0 0 0 
-5.06227e+06 7.60871e+06 0 
7.60871e+06 6.08503e+06 0 
0 0 0 
-2.166e+07 802485 0 
802485 -2.68763e+07 0 
0 0 0 
-1.64849e+06 -2.5679e+06 0 
-2.5679e+06 1.46877e+06 0 
0 0 0 
1.59363e+07 2.2556e+06 0 
2.2556e+06 2.34351e+07 0 
0 0 0 
1.08008e+07 1.11278e+07 0 
1.11278e+07 4.58744e+07 0 
0 0 0 
-5.94783e+06 1.36511e+07 0 
1.36511e+07 2.04526e+07 0 
0 0 0 
-2.08012e+07 3.75294e+06 0 
3.75294e+06 5.76512e+06 0 
0 0 0 
-2.62052e+07 4.82986e+06 0 
4.82986e+06 -3.16157e+07 0 
0 0 0 
-2.48319e+07 3.52893e+06 0 
3.52893e+06 2.12083e+06 0 
0 0 0 
-1.71659e+07 -1.92277e+06 0 
-1.92277e+06 9.57793e+06 0 
0 0 0 
-1.50619e+07 -925633 0 
-925633 -1.45096e+07 0 
0 0 0 
1.94981e+07 3.72593e+06 0 
3.72593e+06 4.82401e+07 0 
0 0 0 
-1.5241e+07 -1.39581e+06 0 
-1.39581e+06 -1.72936e+07 0 
0 0 0 
-2.11921e+07 -3.20709e+06 0 
-3.20709e+06 154470 0 
0 0 0 
-1.64926e+07 4.13767e+06 0 
4.13767e+06 4.65011e+07 0 
0 0 0 
-3.29074e+07 -1.95201e+06 0 
-1.95201e+06 1.83681e+07 0 
0 0 0 
-3.83431e+07 -2.66778e+06 0 
-2.66778e+06 -3.41939e+07 0 
0 0 0 
-4.49911e+07 -6.17808e+06 0 
-6.17808e+06 -5.07837e+07 0 
0 0 0 
-4.76163e+07 -5.47913e+06 0 
-5.47913e+06 -7.26962e+07 0 
0 0 0 
4.29501e+06 -3.1305e+06 0 
-3.1305e+06 6.31756e+06 0 
0 0 0 
0 0 0 
0 0 0 
0 0 0 
2.09205e+07 -2.80161e+06 0 
-2.80161e+06 1.06678e+07 0 
0 0 0 
1.01768e+07 -139135 0 
-139135 -931502 0 
0 0 0 
-6.15341e+06 4.15872e+06 0 
4.15872e+06 -1.2813e+07 0 
0 0 0 
-1.18181e+07 1.19669e+07 0 
1.19669e+07 -1.30753e+07 0 
0 0 0 
-1.27126e+07 -410609 0 
-410609 -2.04226e+07 0 
0 0 0 
-5.0836e+06 -584744 0 
-584744 -1.77459e+07 0 
0 0 0 
-2.69713e+07 -876302 0 
-876302 -2.71133e+07 0 
0 0 0 
1.20745e+07 -103803 0 
-103803 2.9514e+06 0 
0 0 0 
-1.2125e+07 1.25678e+07 0 
1.25678e+07 -7.12364e+06 0 
0 0 0 
-6.33088e+06 7.43062e+06 0 
7.43062e+06 -2.36634e+06 0 
0 0 0 
-3.41697e+07 986821 0 
986821 3.76837e+06 0 
0 0 0 
7.27519e+06 -4.81076e+06 0 
-4.81076e+06 6.74357e+06 0 
0 0 0 
-2.31764e+07 -6.64272e+06 0 
-6.64272e+06 5.25213e+06 0 
0 0 0 
4.54813e+07 -1.41152e+07 0 
-1.41152e+07 1.62745e+07 0 
0 0 0 
-3.70754e+07 -1.15383e+07 0 
-1.15383e+07 -1.66358e+07 0 
0 0 0 
2.41673e+07 -4.99732e+06 0 
-4.99732e+06 -7.91893e+06 0 
0 0 0 
-3.47154e+06 -473966 0 
-473966 -2.30696e+07 0 
0 0 0 
-1.32525e+07 5.28254e+06 0 
5.28254e+06 -1.61704e+07 0 
0 0 0 
1.24289e+07 3.90072e+06 0 
3.90072e+06 2.56217e+06 0 
0 0 0 
-1.99669e+07 -2.12443e+06 0 
-2.12443e+06 1.65788e+06 0 
0 0 0 
5.97081e+06 -1.42301e+06 0 
-1.42301e+06 8.84078e+06 0 
0 0 0 
1.06812e+07 -4.05719e+06 0 
-4.05719e+06 2.86995e+07 0 
0 0 0 
3.1695e+07 1.37272e+06 0 
1.37272e+06 2.44742e+07 0 
0 0 0 
-2.12668e+07 1.11234e+07 0 
1.11234e+07 948301 0 
0 0 0 
4.33154e+06 7.05104e+06 0 
7.05104e+06 -8.17828e+06 0 
0 0 0 
-3.61686e+07 1.04656e+07 0 
1.04656e+07 -1.4511e+07 0 
0 0 0 
1.11971e+07 1.1989e+07 0 
1.1989e+07 1.43817e+07 0 
0 0 0 
3.33985e+07 7.59389e+06 0 
7.59389e+06 3.39383e+07 0 
0 0 0 
5.05217e+07 3.89239e+06 0 
3.89239e+06 5.23953e+07 0 
0 0 0 
3.06329e+07 -1.30476e+07 0 
-1.30476e+07 3.48769e+07 0 
0 0 0 
-1.38371e+07 -2.04185e+07 0 
-2.04185e+07 2.11309e+07 0 
0 0 0 
-2.06931e+07 -7.45357e+06 0 
-7.45357e+06 466636 0 
0 0 0 
1.02113e+06 -7.12046e+06 0 
-7.12046e+06 1.65812e+06 0 
0 0 0 
2.52569e+07 -1.65134e+06 0 
-1.65134e+06 1.52669e+07 0 
0 0 0 
5.13863e+06 -1.88028e+06 0 
-1.88028e+06 1.00407e+07 0 
0 0 0 
1.28583e+07 208933 0 
208933 9.24255e+06 0 
0 0 0 
-1.70568e+07 6.36522e+06 0 
6.36522e+06 -1.53556e+07 0 
0 0 0 
-2.14028e+07 7.45195e+06 0 
7.45195e+06 -1.13102e+07 0 
0 0 0 
4.31099e+06 5.35006e+06 0 
5.35006e+06 702181 0 
0 0 0 
-4.84365e+06 6.19908e+06 0 
6.19908e+06 -9.1514e+06 0 
0 0 0 
-3.44685e+06 -5.56767e+06 0 
-5.56767e+06 -1.31302e+07 0 
0 0 0 
6.41762e+06 -1.82875e+07 0 
-1.82875e+07 -3.04416e+07 0 
0 0 0 
-4.3847e+07 -1.14819e+07 0 
-1.14819e+07 -4.6178e+07 0 
0 0 0 
-1.65751e+07 -9.35013e+06 0 
-9.35013e+06 -2.82497e+07 0 
0 0 0 
-114093 -6.46038e+06 0 
-6.46038e+06 -1.09256e+07 0 
0 0 0 
-1.34544e+07 -2.08697e+06 0 
-2.08697e+06 -1.03051e+07 0 
0 0 0 
2.86116e+07 252379 0 
252379 -7.16872e+06 0 
0 0 0 
-1.63985e+07 -3.34975e+06 0 
-3.34975e+06 -2.45259e+07 0 
0 0 0 
-3.29378e+06 6.00148e+06 0 
6.00148e+06 -1.25064e+07 0 
0 0 0 
-2.1207e+07 6.89366e+06 0 
6.89366e+06 -2.38955e+07 0 
0 0 0 
-2.61212e+07 2.39641e+06 0 
2.39641e+06 -3.85914e+07 0 
0 0 0 
-1.62617e+07 9.06607e+06 0 
9.06607e+06 -4.02695e+07 0 
0 0 0 
-2.5837e+07 -6.67664e+06 0 
-6.67664e+06 -3.51372e+07 0 
0 0 0 
4.69772e+06 -1.01768e+07 0 
-1.01768e+07 -2.73468e+07 0 
0 0 0 
3.37062e+06 -6.38967e+06 0 
-6.38967e+06 -2.03324e+07 0 
0 0 0 
-1.9705e+07 -1.00956e+07 0 
-1.00956e+07 -3.73026e+07 0 
0 0 0 
-4.27931e+07 5.08381e+06 0 
5.08381e+06 -4.41579e+07 0 
0 0 0 
1.20225e+07 -3.51795e+06 0 
-3.51795e+06 -2.26935e+07 0 
0 0 0 
-2.87482e+07 8120.3 0 
8120.3 -2.31432e+07 0 
0 0 0 
1.78205e+07 -3.18843e+06 0 
-3.18843e+06 6.52316e+06 0 
0 0 0 
-4.33375e+07 -3.95205e+06 0 
-3.95205e+06 -2.30331e+07 0 
0 0 0 
2.37036e+06 -2.74297e+06 0 
-2.74297e+06 -4.40828e+06 0 
0 0 0 
-4.23017e+07 9.78291e+06 0 
9.78291e+06 -9.0482e+06 0 
0 0 0 
3.16827e+07 1.73333e+07 0 
1.73333e+07 2.15904e+07 0 
0 0 0 
-1.0378e+07 1.57047e+07 0 
1.57047e+07 4.7566e+06 0 
0 0 0 
7.91504e+06 1.03054e+07 0 
1.03054e+07 -983317 0 
0 0 0 
-2.2041e+07 6.41046e+06 0 
6.41046e+06 2.49756e+06 0 
0 0 0 
2.41504e+07 5.07866e+06 0 
5.07866e+06 1.0495e+07 0 
0 0 0 
-126094 -7.37366e+06 0 
-7.37366e+06 -8.03281e+06 0 
0 0 0 
1.46949e+07 -1.52475e+07 0 
-1.52475e+07 1.19502e+07 0 
0 0 0 
8.5342e+06 -1.15018e+07 0 
-1.15018e+07 2.50338e+06 0 
0 0 0 
-2.98005e+07 -9.29523e+06 0 
-9.29523e+06 -2.19618e+07 0 
0 0 0 
-2.6736e+06 5.87539e+06 0 
5.87539e+06 -1.61652e+07 0 
0 0 0 
-4.28631e+07 1.54214e+07 0 
1.54214e+07 -1.22701e+07 0 
0 0 0 
3.18078e+07 7.36798e+06 0 
7.36798e+06 3.76722e+07 0 
0 0 0 
2.77984e+07 -1.39861e+07 0 
-1.39861e+07 4.68188e+07 0 
0 0 0 
1.49728e+07 -9.40879e+06 0 
-9.40879e+06 5.16982e+07 0 
0 0 0 
0 0 0 
0 0 0 
0 0 0 
-1.12639e+07 -4.38924e+06 0 
-4.38924e+06 -3.35752e+07 0 
0 0 0 
-1.05865e+07 1.81057e+06 0 
1.81057e+06 -1.75981e+07 0 
0 0 0 
-1.99709e+07 2.06564e+07 0 
2.06564e+07 -8.75491e+07 0 
0 0 0 
-1.30508e+07 1.43013e+07 0 
1.43013e+07 -7.72876e+07 0 
0 0 0 
1.18738e+07 6.33809e+06 0 
6.33809e+06 5.50445e+06 0 
0 0 0 
3.1721e+07 -2.03731e+06 0 
-2.03731e+06 3.26732e+07 0 
0 0 0 
-262858 1.87332e+06 0 
1.87332e+06 -4.83886e+07 0 
0 0 0 
-1.41699e+07 9.44893e+06 0 
9.44893e+06 -3.00042e+07 0 
0 0 0 
-2.24038e+07 -6.5338e+06 0 
-6.5338e+06 -4.65827e+07 0 
0 0 0 
4.9399e+06 -6.54458e+06 0 
-6.54458e+06 7.87438e+06 0 
0 0 0 
6.53357e+06 2.50479e+06 0 
2.50479e+06 -422501 0 
0 0 0 
-5.25879e+06 7.54429e+06 0 
7.54429e+06 -4.82215e+07 0 
0 0 0 
1.93984e+07 363065 0 
363065 8.66049e+06 0 
0 0 0 
2.0051e+07 -174284 0 
-174284 3.93918e+07 0 
0 0 0 
7.62033e+06 1.02198e+07 0 
1.02198e+07 3.43469e+07 0 
0 0 0 
-1.87295e+07 3.62019e+07 0 
3.62019e+07 -1.5976e+07 0 
0 0 0 
-1.25187e+07 2.24304e+07 0 
2.24304e+07 -8.03784e+06 0 
0 0 0 
8.09485e+06 2.02077e+07 0 
2.02077e+07 9.12898e+07 0 
0 0 0 
-3.92452e+07 -1.79801e+07 0 
-1.79801e+07 1.28527e+07 0 
0 0 0 
-3.66006e+07 -1.20047e+06 0 
-1.20047e+06 6.96401e+06 0 
0 0 0 
1.71686e+06 530724 0 
530724 -48199.2 0 
0 0 0 
9.31448e+06 -2.17037e+07 0 
-2.17037e+07 5.0055e+07 0 
0 0 0 
-9.30915e+07 -4.17089e+07 0 
-4.17089e+07 4.77074e+07 0 
0 0 0 
-1.28061e+08 -4.01286e+07 0 
-4.01286e+07 6.68881e+07 0 
0 0 0 
-4.33026e+07 3.10274e+07 0 
3.10274e+07 3.76694e+07 0 
0 0 0 
1.35747e+07 3.72388e+07 0 
3.72388e+07 8.99499e+07 0 
0 0 0 
3.8704e+07 2.56644e+07 0 
2.56644e+07 8.10325e+07 0 
0 0 0 
4.78798e+07 2.43539e+07 0 
2.43539e+07 1.13121e+08 0 
0 0 0 
-1.62166e+06 9.69846e+06 0 
9.69846e+06 2.02863e+07 0 
0 0 0 
-2.73473e+07 3.54576e+07 0 
3.54576e+07 2.69947e+07 0 
0 0 0 
-1.76978e+07 2.19761e+07 0 
2.19761e+07 2.55895e+07 0 
0 0 0 
8.92017e+06 4.11106e+07 0 
4.11106e+07 7.38158e+07 0 
0 0 0 
1.4196e+07 3.06357e+07 0 
3.06357e+07 6.42169e+07 0 
0 0 0 
7.31651e+06 2.05874e+07 0 
2.05874e+07 -1.31932e+07 0 
0 0 0 
-1.80324e+07 1.62575e+07 0 
1.62575e+07 -4.72706e+07 0 
0 0 0 
-1.07852e+06 2.12219e+07 0 
2.12219e+07 4.35792e+07 0 
0 0 0 
-7.36716e+06 1.4835e+07 0 
1.4835e+07 2.57247e+07 0 
0 0 0 
-1.98187e+07 5.93438e+06 0 
5.93438e+06 -3.80149e+07 0 
0 0 0 
-3.30259e+07 -3.80922e+06 0 
-3.80922e+06 -6.98205e+07 0 
0 0 0 
-5.39403e+07 -3.21102e+06 0 
-3.21102e+06 -8.85422e+07 0 
0 0 0 
-5.54258e+07 -3.88779e+06 0 
-3.88779e+06 -7.00748e+07 0 
0 0 0 
-1.07993e+08 -1.68252e+06 0 
-1.68252e+06 -1.16382e+08 0 
0 0 0 
-1.02316e+08 -1.63621e+06 0 
-1.63621e+06 -9.19461e+07 0 
0 0 0 
-8.59443e+07 -2.17742e+06 0 
-2.17742e+06 -1.04255e+08 0 
0 0 0 
-7.55506e+07 -1.20307e+07 0 
-1.20307e+07 -8.0678e+07 0 
0 0 0 
-7.53771e+07 -3.30333e+07 0 
-3.30333e+07 -1.0487e+08 0 
0 0 0 
-5.30382e+07 -2.31941e+07 0 
-2.31941e+07 -3.2243e+07 0 
0 0 0 
-4.01549e+07 -2.9899e+07 0 
-2.9899e+07 9.08441e+06 0 
0 0 0 
-1.65035e+07 -3.71741e+07 0 
-3.71741e+07 -1.19791e+07 0 
0 0 0 
215453 -1.7253e+07 0 
-1.7253e+07 2.10069e+06 0 
0 0 0 
-1.75925e+07 -1.47156e+07 0 
-1.47156e+07 -3.90101e+07 0 
0 0 0 
1.05793e+07 -2.07812e+07 0 
-2.07812e+07 8.45465e+06 0 
0 0 0 
2.61121e+07 -1.07428e+07 0 
-1.07428e+07 1.4026e+07 0 
0 0 0 
5.31982e+07 -9.85212e+06 0 
-9.85212e+06 9.62822e+07 0 
0 0 0 
1.95727e+07 1.08357e+07 0 
1.08357e+07 -9.97287e+06 0 
0 0 0 
3.76324e+07 -743765 0 
-743765 2.53308e+07 0 
0 0 0 
1.99509e+07 -4.34559e+06 0 
-4.34559e+06 -2.74983e+07 0 
0 0 0 
1.87442e+07 -1.0207e+06 0 
-1.0207e+06 1.06687e+07 0 
0 0 0 
7.22709e+06 1.13893e+06 0 
1.13893e+06 3.68806e+07 0 
0 0 0 
9.31238e+06 1.99055e+07 0 
1.99055e+07 4.82587e+07 0 
0 0 0 
-552731 8.90768e+06 0 
8.90768e+06 1.8257e+07 0 
0 0 0 
6.30398e+06 908396 0 
908396 1.15863e+07 0 
0 0 0 
-9.40954e+06 8.26572e+06 0 
8.26572e+06 -2.51697e+07 0 
0 0 0 
1.57164e+07 9.84203e+06 0 
9.84203e+06 1.55896e+07 0 
0 0 0 
1.53517e+07 1.0998e+07 0 
1.0998e+07 4.90778e+06 0 
0 0 0 
1.05067e+07 -6.72551e+06 0 
-6.72551e+06 -1.18425e+07 0 
0 0 0 
8.42971e+06 -1.17282e+07 0 
-1.17282e+07 4.55358e+07 0 
0 0 0 
-1.79382e+07 -5.40274e+06 0 
-5.40274e+06 -3.09727e+07 0 
0 0 0 
4.56622e+06 -3.8202e+06 0 
-3.8202e+06 4.38567e+07 0 
0 0 0 
1.1981e+07 4.37765e+06 0 
4.37765e+06 4.55409e+07 0 
0 0 0 
1.23671e+07 -7.18438e+06 0 
-7.18438e+06 1.73668e+07 0 
0 0 0 
-2.62614e+07 -7.00851e+06 0 
-7.00851e+06 -2.68507e+07 0 
0 0 0 
-3.64037e+07 -6.33834e+06 0 
-6.33834e+06 -4.02125e+07 0 
0 0 0 
-3.26935e+07 6.53752e+06 0 
6.53752e+06 -7.13434e+07 0 
0 0 0 
-4.10073e+06 6.24203e+06 0 
6.24203e+06 -5.94772e+06 0 
0 0 0 
2.03489e+07 -2.29349e+07 0 
-2.29349e+07 3.73879e+07 0 
0 0 0 
0 0 0 
0 0 0 
0 0 0 
1.02976e+07 208153 0 
208153 -2.82545e+06 0 
0 0 0 
1.87201e+07 3.46976e+06 0 
3.46976e+06 2.1601e+06 0 
0 0 0 
3.01621e+06 -622979 0 
-622979 1.17164e+07 0 
0 0 0 
1.21416e+07 3.88307e+06 0 
3.88307e+06 1.80436e+07 0 
0 0 0 
-1.99154e+07 678642 0 
678642 9.06658e+06 0 
0 0 0 
1.86076e+07 691312 0 
691312 2.61998e+07 0 
0 0 0 
-3.2792e+07 3.87967e+06 0 
3.87967e+06 2.6324e+06 0 
0 0 0 
2.80459e+07 3.24538e+06 0 
3.24538e+06 6.80098e+06 0 
0 0 0 
-1.69329e+07 -3.23967e+06 0 
-3.23967e+06 -1.68994e+07 0 
0 0 0 
-2.40244e+07 -338162 0 
-338162 -3.3903e+07 0 
0 0 0 
-5.11388e+07 -5.67321e+06 0 
-5.67321e+06 -5.47561e+07 0 
0 0 0 
-1.81439e+07 1.85482e+06 0 
1.85482e+06 -3.78086e+07 0 
0 0 0 
-5.08275e+07 -6.13539e+06 0 
-6.13539e+06 -5.87476e+07 0 
0 0 0 
3.10549e+07 -1.273e+07 0 
-1.273e+07 -2.68561e+07 0 
0 0 0 
-3.43375e+07 -6.87291e+06 0 
-6.87291e+06 -3.73391e+07 0 
0 0 0 
2.82878e+07 -734517 0 
-734517 -1.45211e+07 0 
0 0 0 
-5.927e+06 2.32859e+06 0 
2.32859e+06 -2.23567e+07 0 
0 0 0 
7.60518e+06 2.15733e+06 0 
2.15733e+06 -1.28094e+07 0 
0 0 0 
-6.24763e+06 1.46821e+07 0 
1.46821e+07 -4.28928e+06 0 
0 0 0 
-1.94576e+07 8.98589e+06 0 
8.98589e+06 2.53115e+06 0 
0 0 0 
1.65276e+07 1.41606e+07 0 
1.41606e+07 3.36248e+07 0 
0 0 0 
1.01799e+07 -1.31055e+06 0 
-1.31055e+06 3.20953e+07 0 
0 0 0 
2.76458e+07 -1.12211e+07 0 
-1.12211e+07 3.73759e+07 0 
0 0 0 
-8.94981e+06 -9.10583e+06 0 
-9.10583e+06 -13439.1 0 
0 0 0 
1.2602e+07 -5.26232e+06 0 
-5.26232e+06 1.65416e+06 0 
0 0 0 
-3.73728e+07 8.55446e+06 0 
8.55446e+06 -1.32022e+07 0 
0 0 0 
1.75491e+07 1.59884e+07 0 
1.59884e+07 -931184 0 
0 0 0 
-1.14526e+07 1.50081e+07 0 
1.50081e+07 -2.07903e+07 0 
0 0 0 
3.44112e+07 -1.43865e+06 0 
-1.43865e+06 -1.35895e+07 0 
0 0 0 
-2.07215e+07 -1.80262e+07 0 
-1.80262e+07 -3.25224e+07 0 
0 0 0 
-1.22337e+07 -1.76405e+07 0 
-1.76405e+07 -3.50648e+07 0 
0 0 0 
-2.4427e+07 -1.03116e+07 0 
-1.03116e+07 -1.90317e+07 0 
0 0 0 
7.0019e+06 3.12321e+06 0 
3.12321e+06 -302029 0 
0 0 0 
7.0709e+06 4.64795e+06 0 
4.64795e+06 -9.39295e+06 0 
0 0 0 
1.1698e+07 4.70539e+06 0 
4.70539e+06 3.31033e+06 0 
0 0 0 
5.90346e+06 -5.23226e+06 0 
-5.23226e+06 7.59054e+06 0 
0 0 0 
9.99092e+06 1.95693e+06 0 
1.95693e+06 9.05525e+06 0 
0 0 0 
-3.46292e+07 4.59077e+06 0 
4.59077e+06 -2.09176e+07 0 
0 0 0 
-1.10077e+07 1.14231e+07 0 
1.14231e+07 -3.17954e+07 0 
0 0 0 
-3.21203e+07 -9.79858e+06 0 
-9.79858e+06 -5.39394e+07 0 
0 0 0 
-2.99451e+07 -9.60291e+06 0 
-9.60291e+06 -6.72088e+07 0 
0 0 0 
-3.21477e+06 -1.87791e+07 0 
-1.87791e+07 -2.72792e+07 0 
0 0 0 
-5.86625e+06 -1.54111e+07 0 
-1.54111e+07 -1.75435e+07 0 
0 0 0 
-2.24638e+07 -460303 0 
-460303 -1.76955e+07 0 
0 0 0 
-171211 -4.20507e+06 0 
-4.20507e+06 -8.23683e+06 0 
0 0 0 
1.02269e+07 -1.69745e+06 0 
-1.69745e+06 -6.39644e+06 0 
0 0 0 
2.38324e+06 -7.1215e+06 0 
-7.1215e+06 -4.27076e+06 0 
0 0 0 
1.13183e+07 -7.64896e+06 0 
-7.64896e+06 7.1813e+06 0 
0 0 0 
2.27299e+07 -1.73058e+06 0 
-1.73058e+06 1.72175e+07 0 
0 0 0 
-2.30579e+07 -2.89913e+06 0 
-2.89913e+06 484335 0 
0 0 0 
-1.02392e+07 -3.70252e+06 0 
-3.70252e+06 1.23098e+07 0 
0 0 0 
-1.43697e+07 -737706 0 
-737706 6.74318e+06 0 
0 0 0 
-1.45921e+07 -9.436e+06 0 
-9.436e+06 -1.53123e+07 0 
0 0 0 
1.02328e+07 -1.04776e+07 0 
-1.04776e+07 1.43168e+07 0 
0 0 0 
2.13118e+07 -1.59368e+07 0 
-1.59368e+07 1.88465e+07 0 
0 0 0 
903204 -5.21969e+06 0 
-5.21969e+06 2.51837e+07 0 
0 0 0 
1.54343e+06 4.70893e+06 0 
4.70893e+06 3.77549e+07 0 
0 0 0 
2.92793e+07 3.05127e+06 0 
3.05127e+06 5.03408e+07 0 
0 0 0 
-6.28986e+06 5.20047e+06 0 
5.20047e+06 4.04845e+07 0 
0 0 0 
1.11317e+07 -8.26694e+06 0 
-8.26694e+06 3.35654e+07 0 
0 0 0 
-2.52476e+07 -1.03639e+07 0 
-1.03639e+07 2.25158e+07 0 
0 0 0 
1.51404e+07 -8.04362e+06 0 
-8.04362e+06 3.01392e+07 0 
0 0 0 
6.0954e+06 7.15855e+06 0 
7.15855e+06 2.48223e+07 0 
0 0 0 
2.67497e+07 1.47486e+07 0 
1.47486e+07 3.07185e+07 0 
0 0 0 
-7.81274e+06 9.9293e+06 0 
9.9293e+06 1.91549e+07 0 
0 0 0 
-1.26319e+07 -1.43468e+06 0 
-1.43468e+06 1.11876e+07 0 
0 0 0 
-1.85726e+07 2.09184e+06 0 
2.09184e+06 -1.42021e+07 0 
0 0 0 
1.09531e+07 -6.51918e+06 0 
-6.51918e+06 470108 0 
0 0 0 
-5.66638e+06 -6.18285e+06 0 
-6.18285e+06 -3.25107e+06 0 
0 0 0 
3.92e+06 -9.73442e+06 0 
-9.73442e+06 -1.11331e+07 0 
0 0 0 
8.85035e+06 -1.20678e+07 0 
-1.20678e+07 5.21896e+06 0 
0 0 0 
-9.46974e+06 -3.00666e+06 0 
-3.00666e+06 1.35728e+07 0 
0 0 0 
2.9101e+07 4.06682e+06 0 
4.06682e+06 2.43229e+07 0 
0 0 0 
-2.77701e+07 1.35531e+07 0 
1.35531e+07 -8.19828e+06 0 
0 0 0 
-8.48368e+06 7.87813e+06 0 
7.87813e+06 -2.27915e+07 0 
0 0 0 
-1.56618e+07 9.7453e+06 0 
9.7453e+06 -2.61906e+07 0 
0 0 0 
5.44973e+07 -7.25079e+06 0 
-7.25079e+06 8.72311e+07 0 
0 0 0 
3.2529e+07 8.16998e+06 0 
8.16998e+06 2.08355e+06 0 
0 0 0 
0 0 0 
0 0 0 
0 0 0 
-2.3839e+06 -5.83533e+06 0 
-5.83533e+06 -3.74194e+07 0 
0 0 0 
2.5584e+07 -3.06291e+06 0 
-3.06291e+06 -3.89229e+06 0 
0 0 0 
-8.77698e+06 5.74978e+06 0 
5.74978e+06 -3.90855e+07 0 
0 0 0 
-4.13654e+07 1.9584e+07 0 
1.9584e+07 -9.97849e+07 0 
0 0 0 
-1.68464e+07 1.15753e+07 0 
1.15753e+07 -2.7577e+07 0 
0 0 0 
-2.47034e+07 -1.05759e+07 0 
-1.05759e+07 -1.22151e+07 0 
0 0 0 
-1.59911e+07 1.2926e+06 0 
1.2926e+06 -2.05474e+07 0 
0 0 0 
-3.00996e+07 -2.0657e+06 0 
-2.0657e+06 -5.1456e+07 0 
0 0 0 
-3.76022e+07 -160724 0 
-160724 -4.94229e+07 0 
0 0 0 
-7.6763e+06 472975 0 
472975 -1.35077e+06 0 
0 0 0 
6.8812e+06 51614.6 0 
51614.6 2.10909e+07 0 
0 0 0 
3.18302e+06 7.85402e+06 0 
7.85402e+06 -5.22745e+07 0 
0 0 0 
3.35323e+07 1.15962e+07 0 
1.15962e+07 1.96119e+07 0 
0 0 0 
3.32086e+07 1.3825e+07 0 
1.3825e+07 3.54064e+07 0 
0 0 0 
4.54856e+07 -2.47436e+06 0 
-2.47436e+06 5.67627e+07 0 
0 0 0 
3.7355e+07 1.07184e+07 0 
1.07184e+07 1.19134e+07 0 
0 0 0 
1.84659e+07 1.48674e+07 0 
1.48674e+07 1.73796e+06 0 
0 0 0 
1.33263e+07 7.08279e+06 0 
7.08279e+06 6.11761e+07 0 
0 0 0 
4.28318e+06 3.74975e+06 0 
3.74975e+06 2.45677e+07 0 
0 0 0 
2.53123e+06 1.10862e+07 0 
1.10862e+07 3.78542e+07 0 
0 0 0 
-3.12501e+07 2.31687e+07 0 
2.31687e+07 -2.3584e+07 0 
0 0 0 
3.68589e+06 -6.24705e+06 0 
-6.24705e+06 2.08599e+07 0 
0 0 0 
-2.06489e+06 -3.94665e+07 0 
-3.94665e+07 3.76795e+07 0 
0 0 0 
-7.54562e+07 -2.12748e+07 0 
-2.12748e+07 6.6603e+07 0 
0 0 0 
-6.87595e+07 -6.73707e+06 0 
-6.73707e+06 3.76833e+07 0 
0 0 0 
4.16605e+07 5.71574e+07 0 
5.71574e+07 8.04264e+07 0 
0 0 0 
2.50273e+07 4.31006e+07 0 
4.31006e+07 4.97596e+07 0 
0 0 0 
4.89459e+07 1.25534e+07 0 
1.25534e+07 1.04528e+08 0 
0 0 0 
1.35731e+07 1.94162e+07 0 
1.94162e+07 2.39119e+07 0 
0 0 0 
3.87065e+07 2.43235e+07 0 
2.43235e+07 7.3478e+07 0 
0 0 0 
1.50625e+07 4.5567e+07 0 
4.5567e+07 4.63071e+07 0 
0 0 0 
-1.98181e+06 3.28883e+07 0 
3.28883e+07 6.18408e+07 0 
0 0 0 
-3.47502e+07 3.91616e+07 0 
3.91616e+07 4.67485e+07 0 
0 0 0 
-5.56569e+07 3.15198e+07 0 
3.15198e+07 -4.6875e+07 0 
0 0 0 
-3.17776e+07 1.66653e+07 0 
1.66653e+07 -5.85223e+07 0 
0 0 0 
7.96314e+06 1.75039e+07 0 
1.75039e+07 3.52912e+07 0 
0 0 0 
2.31698e+06 6.84496e+06 0 
6.84496e+06 5.2427e+07 0 
0 0 0 
-3.92173e+07 1.30346e+07 0 
1.30346e+07 -8.27234e+07 0 
0 0 0 
-2.22102e+07 213882 0 
213882 -6.19907e+07 0 
0 0 0 
-7.96875e+06 4.27656e+06 0 
4.27656e+06 -7.54267e+07 0 
0 0 0 
1.48258e+07 -7.06125e+06 0 
-7.06125e+06 -4.79195e+07 0 
0 0 0 
-1.77924e+06 -1.7163e+07 0 
-1.7163e+07 -1.03954e+08 0 
0 0 0 
-1.79889e+07 -1.55787e+07 0 
-1.55787e+07 -5.72385e+07 0 
0 0 0 
-4.86897e+07 -6.78266e+06 0 
-6.78266e+06 -8.8765e+07 0 
0 0 0 
-3.84755e+07 -1.01241e+07 0 
-1.01241e+07 -5.84996e+07 0 
0 0 0 
-5.01415e+07 -5.39305e+06 0 
-5.39305e+06 -1.01215e+08 0 
0 0 0 
-1.05342e+07 -1.94552e+07 0 
-1.94552e+07 -4.11642e+07 0 
0 0 0 
1.62301e+07 -2.29908e+07 0 
-2.29908e+07 2.55927e+07 0 
0 0 0 
1.97857e+06 -2.53084e+07 0 
-2.53084e+07 4.11838e+06 0 
0 0 0 
1.07362e+07 -2.11581e+07 0 
-2.11581e+07 3.29072e+07 0 
0 0 0 
-1.46632e+07 -188053 0 
-188053 -3.95844e+07 0 
0 0 0 
4.59222e+06 -1.93571e+06 0 
-1.93571e+06 8.15032e+06 0 
0 0 0 
388991 -8.77595e+06 0 
-8.77595e+06 6.7121e+06 0 
0 0 0 
3.99825e+07 -1.03775e+07 0 
-1.03775e+07 1.01396e+08 0 
0 0 0 
-6.58551e+06 -1.32023e+06 0 
-1.32023e+06 -1.62985e+07 0 
0 0 0 
-2.08671e+07 3.3364e+06 0 
3.3364e+06 -2.76605e+06 0 
0 0 0 
-2.99736e+07 -1.96701e+06 0 
-1.96701e+06 -3.21753e+07 0 
0 0 0 
-3.03121e+07 -5.6862e+06 0 
-5.6862e+06 -2.40031e+07 0 
0 0 0 
4.19672e+06 -7.01186e+06 0 
-7.01186e+06 5.19471e+07 0 
0 0 0 
6.27409e+06 5.19554e+06 0 
5.19554e+06 6.08635e+07 0 
0 0 0 
-2.00177e+07 8.92768e+06 0 
8.92768e+06 -2.60403e+06 0 
0 0 0 
-1.34401e+07 6.18892e+06 0 
6.18892e+06 1.27233e+07 0 
0 0 0 
-9.84474e+06 1.02461e+07 0 
1.02461e+07 -9.60571e+06 0 
0 0 0 
-9.65086e+06 1.92767e+07 0 
1.92767e+07 3.77997e+06 0 
0 0 0 
-5.50664e+06 7.29711e+06 0 
7.29711e+06 -3.25614e+07 0 
0 0 0 
-1.28201e+07 -9.71759e+06 0 
-9.71759e+06 -3.2963e+07 0 
0 0 0 
1.6252e+07 -9.21035e+06 0 
-9.21035e+06 5.20496e+07 0 
0 0 0 
-2.14162e+07 -1.87675e+06 0 
-1.87675e+06 -1.9864e+07 0 
0 0 0 
-695496 -3.05009e+06 0 
-3.05009e+06 4.74643e+07 0 
0 0 0 
-1.10787e+07 -479574 0 
-479574 3.71017e+07 0 
0 0 0 
-3.64273e+07 234556 0 
234556 -2.53573e+06 0 
0 0 0 
-2.96605e+07 -7.07709e+06 0 
-7.07709e+06 -4.2362e+07 0 
0 0 0 
-1.68664e+07 -9.71533e+06 0 
-9.71533e+06 -3.20343e+07 0 
0 0 0 
-2.27199e+07 3.06682e+06 0 
3.06682e+06 -4.12339e+07 0 
0 0 0 
-1.89454e+07 1.66879e+07 0 
1.66879e+07 -2.09972e+07 0 
0 0 0 
1.01954e+07 4.72253e+06 0 
4.72253e+06 1.44453e+07 0 
0 0 0 
3.07803e+07 -1.82341e+07 0 
-1.82341e+07 7.83078e+07 0 
0 0 0 
0 0 0 
0 0 0 
0 0 0 
1.69941e+07 -3.42283e+06 0 
-3.42283e+06 357042 0 
0 0 0 
-692986 2.6615e+06 0 
2.6615e+06 -1.00135e+07 0 
0 0 0 
-1.38555e+07 -2.18973e+06 0 
-2.18973e+06 -1.82546e+07 0 
0 0 0 
1.45615e+07 -5.57989e+06 0 
-5.57989e+06 -1.18001e+07 0 
0 0 0 
-3.98236e+07 -1.10432e+07 0 
-1.10432e+07 -3.29212e+07 0 
0 0 0 
1.14142e+07 -5.74259e+06 0 
-5.74259e+06 -1.88532e+07 0 
0 0 0 
-4.14601e+07 -7.32093e+06 0 
-7.32093e+06 -2.96166e+07 0 
0 0 0 
1.85889e+07 969733 0 
969733 707645 0 
0 0 0 
-2.09711e+07 -9.74131e+06 0 
-9.74131e+06 -7.63909e+06 0 
0 0 0 
9.25075e+06 4.22988e+06 0 
4.22988e+06 8.28826e+06 0 
0 0 0 
-3.87153e+07 3.95329e+06 0 
3.95329e+06 9.72665e+06 0 
0 0 0 
7.86279e+06 -1.2379e+06 0 
-1.2379e+06 3.14004e+07 0 
0 0 0 
-2.77639e+07 -1.0847e+06 0 
-1.0847e+06 2.79886e+07 0 
0 0 0 
5.85969e+07 -1.45457e+06 0 
-1.45457e+06 6.48777e+07 0 
0 0 0 
4.08843e+06 -4.50585e+06 0 
-4.50585e+06 4.16978e+07 0 
0 0 0 
4.91991e+07 -2.03486e+06 0 
-2.03486e+06 5.4444e+07 0 
0 0 0 
9.55624e+06 2.35388e+06 0 
2.35388e+06 3.45095e+07 0 
0 0 0 
2.89953e+07 5.50954e+06 0 
5.50954e+06 2.86303e+07 0 
0 0 0 
-7.0937e+06 7.09919e+06 0 
7.09919e+06 -69842.1 0 
0 0 0 
-8.9851e+06 9.8369e+06 0 
9.8369e+06 -1.33796e+07 0 
0 0 0 
-2.42687e+07 1.11073e+07 0 
1.11073e+07 -3.57436e+07 0 
0 0 0 
-1.73219e+07 -2.2384e+06 0 
-2.2384e+06 -2.97226e+07 0 
0 0 0 
4.25213e+06 -4.24812e+06 0 
-4.24812e+06 -2.26833e+06 0 
0 0 0 
-6.97229e+06 -1.44456e+07 0 
-1.44456e+07 8.1057e+06 0 
0 0 0 
3.39037e+07 -1.97651e+06 0 
-1.97651e+06 1.53882e+07 0 
0 0 0 
-1.6869e+07 9.84285e+06 0 
9.84285e+06 -1.24458e+07 0 
0 0 0 
3.05725e+07 2.26972e+07 0 
2.26972e+07 -5.27729e+06 0 
0 0 0 
-4.41542e+07 1.6292e+07 0 
1.6292e+07 -2.72814e+07 0 
0 0 0 
2.16808e+07 4.97699e+06 0 
4.97699e+06 -9.73608e+06 0 
0 0 0 
-4.90275e+07 -2.0539e+07 0 
-2.0539e+07 -2.73161e+07 0 
0 0 0 
1.13395e+07 -2.83547e+07 0 
-2.83547e+07 2.38535e+06 0 
0 0 0 
-1.28753e+07 -1.41973e+07 0 
-1.41973e+07 -1.30348e+07 0 
0 0 0 
3.72107e+07 -6.33035e+06 0 
-6.33035e+06 2.20883e+06 0 
0 0 0 
-6.45985e+06 6.02254e+06 0 
6.02254e+06 2.39085e+06 0 
0 0 0 
8.35121e+06 3.2202e+06 0 
3.2202e+06 -1.66035e+06 0 
0 0 0 
-8.99432e+06 -6.44954e+06 0 
-6.44954e+06 -7.69627e+06 0 
0 0 0 
7.68619e+06 -1.04306e+07 0 
-1.04306e+07 -2.92236e+06 0 
0 0 0 
-2.23371e+07 -1.3278e+07 0 
-1.3278e+07 -2.74269e+07 0 
0 0 0 
-1.4347e+07 -2.60431e+06 0 
-2.60431e+06 -4.2505e+07 0 
0 0 0 
-4.74756e+07 3.11822e+06 0 
3.11822e+06 -5.28658e+07 0 
0 0 0 
-1.25798e+07 714519 0 
714519 -1.646e+07 0 
0 0 0 
-1.61858e+07 872954 0 
872954 -1.85102e+07 0 
0 0 0 
2.8001e+07 -7.38385e+06 0 
-7.38385e+06 1.49952e+07 0 
0 0 0 
-4.47927e+06 4.51533e+06 0 
4.51533e+06 7.43882e+06 0 
0 0 0 
3.99563e+06 7.41155e+06 0 
7.41155e+06 9.35202e+06 0 
0 0 0 
7.84852e+06 3.61612e+06 0 
3.61612e+06 1.74838e+07 0 
0 0 0 
9.54733e+06 -455021 0 
-455021 3.32483e+07 0 
0 0 0 
2.96011e+07 3.0013e+06 0 
3.0013e+06 3.88662e+07 0 
0 0 0 
2.80477e+07 -23231.2 0 
-23231.2 2.97555e+07 0 
0 0 0 
-7.16975e+06 -1.19007e+06 0 
-1.19007e+06 2.17336e+07 0 
0 0 0 
-1.37356e+07 4.89428e+06 0 
4.89428e+06 1.5965e+07 0 
0 0 0 
-2.58047e+07 -1.5386e+06 0 
-1.5386e+06 721624 0 
0 0 0 
1.46149e+06 -384363 0 
-384363 3.08964e+07 0 
0 0 0 
2.3298e+06 -1.99004e+06 0 
-1.99004e+06 3.70274e+07 0 
0 0 0 
4.08558e+07 -1.45163e+07 0 
-1.45163e+07 6.66328e+07 0 
0 0 0 
2.14636e+07 -3.78114e+06 0 
-3.78114e+06 6.65721e+07 0 
0 0 0 
3.27962e+07 1.95483e+06 0 
1.95483e+06 6.34403e+07 0 
0 0 0 
2.03842e+07 4.81802e+06 0 
4.81802e+06 6.24315e+07 0 
0 0 0 
-7.14437e+06 -7.84864e+06 0 
-7.84864e+06 4.88871e+07 0 
0 0 0 
5.69956e+06 -6.75523e+06 0 
-6.75523e+06 6.04317e+07 0 
0 0 0 
-7.1862e+06 -1.14953e+07 0 
-1.14953e+07 6.16147e+07 0 
0 0 0 
4.50109e+07 -795654 0 
-795654 8.31543e+07 0 
0 0 0 
4.30259e+07 6.60086e+06 0 
6.60086e+06 7.92189e+07 0 
0 0 0 
1.27124e+07 1.50608e+06 0 
1.50608e+06 6.04659e+07 0 
0 0 0 
1.28308e+07 -5.58392e+06 0 
-5.58392e+06 4.58795e+07 0 
0 0 0 
-1.66596e+07 -488451 0 
-488451 2.66362e+07 0 
0 0 0 
-4.09408e+06 -656377 0 
-656377 3.24688e+07 0 
0 0 0 
2.70341e+07 9.54617e+06 0 
9.54617e+06 4.14009e+07 0 
0 0 0 
1.07948e+07 -5.08563e+06 0 
-5.08563e+06 4.70149e+07 0 
0 0 0 
2.44427e+07 -84497.4 0 
-84497.4 6.55024e+07 0 
0 0 0 
2.84073e+07 1.18328e+06 0 
1.18328e+06 8.01613e+07 0 
0 0 0 
2.58855e+07 -3.75486e+06 0 
-3.75486e+06 7.7686e+07 0 
0 0 0 
3.25957e+07 -1.5151e+06 0 
-1.5151e+06 7.27437e+07 0 
0 0 0 
9.47417e+06 -2.01914e+06 0 
-2.01914e+06 5.22994e+07 0 
0 0 0 
1.46788e+07 -2.16704e+06 0 
-2.16704e+06 4.4169e+07 0 
0 0 0 
1.26019e+07 8.92162e+06 0 
8.92162e+06 3.54267e+07 0 
0 0 0 
4.06364e+07 5.73513e+06 0 
5.73513e+06 2.46256e+07 0 
0 0 0 
-1.19418e+07 -2.36027e+06 0 
-2.36027e+06 9.531e+06 0 
0 0 0 
-2.30475e+07 9.36395e+06 0 
9.36395e+06 -2.60023e+06 0 
0 0 0 
0 0 0 
0 0 0 
0 0 0 
-1.21558e+07 5.18325e+06 0 
5.18325e+06 -4.54262e+07 0 
0 0 0 
-1.56807e+07 829790 0 
829790 -1.61841e+07 0 
0 0 0 
-2.2244e+07 951067 0 
951067 -2.69947e+07 0 
0 0 0 
-5.38675e+07 1.83523e+06 0 
1.83523e+06 -9.5161e+07 0 
0 0 0 
-5.82744e+07 -627418 0 
-627418 -6.17076e+07 0 
0 0 0 
-4.02568e+07 5.44472e+06 0 
5.44472e+06 -2.81773e+07 0 
0 0 0 
-5.84451e+07 -1.34959e+06 0 
-1.34959e+06 -3.65058e+07 0 
0 0 0 
-7.99534e+07 -9.36779e+06 0 
-9.36779e+06 -5.61301e+07 0 
0 0 0 
-8.51252e+07 6.25294e+06 0 
6.25294e+06 -6.35324e+07 0 
0 0 0 
-6.94801e+07 1.20298e+07 0 
1.20298e+07 -1.34126e+07 0 
0 0 0 
-5.45549e+07 9.20432e+06 0 
9.20432e+06 -2.03318e+07 0 
0 0 0 
-7.56782e+07 6.10336e+06 0 
6.10336e+06 -7.25924e+07 0 
0 0 0 
-4.7057e+07 -2.38844e+06 0 
-2.38844e+06 1.20997e+07 0 
0 0 0 
-3.34016e+07 1.3206e+06 0 
1.3206e+06 -4.02372e+06 0 
0 0 0 
-1.8936e+06 7.97066e+06 0 
7.97066e+06 3.97029e+07 0 
0 0 0 
-1.66779e+07 1.74939e+07 0 
1.74939e+07 -5.55742e+06 0 
0 0 0 
-4.47457e+06 5.73221e+06 0 
5.73221e+06 5.46523e+06 0 
0 0 0 
1.98242e+07 1.11286e+06 0 
1.11286e+06 4.97655e+07 0 
0 0 0 
-9.37466e+06 -9.88831e+06 0 
-9.88831e+06 2.12712e+07 0 
0 0 0 
3.40822e+07 1.03968e+07 0 
1.03968e+07 6.78937e+07 0 
0 0 0 
1.58555e+07 1.6934e+07 0 
1.6934e+07 -1.00503e+07 0 
0 0 0 
6.34397e+07 3.17407e+07 0 
3.17407e+07 6.15786e+07 0 
0 0 0 
7.4394e+07 5.12318e+06 0 
5.12318e+06 3.97716e+07 0 
0 0 0 
7.99974e+06 -9.09698e+06 0 
-9.09698e+06 8.60069e+07 0 
0 0 0 
-7.34651e+07 -2.06519e+07 0 
-2.06519e+07 1.19353e+07 0 
0 0 0 
-4.04882e+07 -1.07693e+07 0 
-1.07693e+07 4.71037e+07 0 
0 0 0 
1.76001e+06 2.64335e+07 0 
2.64335e+07 3.01538e+07 0 
0 0 0 
1.67312e+07 2.41083e+07 0 
2.41083e+07 8.10588e+07 0 
0 0 0 
5.02294e+07 1.69359e+07 0 
1.69359e+07 4.13501e+07 0 
0 0 0 
5.82594e+07 2.29187e+07 0 
2.29187e+07 9.07558e+07 0 
0 0 0 
3.6746e+07 1.72999e+07 0 
1.72999e+07 6.54771e+07 0 
0 0 0 
2.09444e+07 2.06821e+07 0 
2.06821e+07 6.99541e+07 0 
0 0 0 
-5.77398e+06 2.48374e+07 0 
2.48374e+07 5.09974e+07 0 
0 0 0 
-8.13677e+07 2.48153e+07 0 
2.48153e+07 -7.23454e+07 0 
0 0 0 
-7.60067e+07 2.78509e+07 0 
2.78509e+07 -6.03442e+07 0 
0 0 0 
-3.94766e+07 2.83306e+07 0 
2.83306e+07 1.7332e+06 0 
0 0 0 
-1.87918e+07 4.32468e+06 0 
4.32468e+06 3.94263e+07 0 
0 0 0 
-7.06398e+07 9.27305e+06 0 
9.27305e+06 -9.87183e+07 0 
0 0 0 
-5.24187e+07 4.60102e+06 0 
4.60102e+06 -7.19954e+07 0 
0 0 0 
-4.24906e+07 1.42027e+07 0 
1.42027e+07 -8.52847e+07 0 
0 0 0 
-3.17989e+07 -2.92451e+06 0 
-2.92451e+06 -8.00498e+07 0 
0 0 0 
-3.49591e+07 -1.09155e+07 0 
-1.09155e+07 -1.31475e+08 0 
0 0 0 
3.52082e+06 -2.2563e+07 0 
-2.2563e+07 -6.881e+07 0 
0 0 0 
-1.79669e+07 -1.85729e+07 0 
-1.85729e+07 -5.03431e+07 0 
0 0 0 
-2.15469e+07 -2.07766e+06 0 
-2.07766e+06 -2.51428e+07 0 
0 0 0 
-3.1777e+07 -1.38987e+07 0 
-1.38987e+07 -1.06158e+08 0 
0 0 0 
-3.07556e+07 -1.48602e+07 0 
-1.48602e+07 -8.37212e+07 0 
0 0 0 
236512 -3.00172e+07 0 
-3.00172e+07 2.71843e+07 0 
0 0 0 
2.57842e+06 -1.7343e+07 0 
-1.7343e+07 2.53614e+07 0 
0 0 0 
1.86747e+07 -1.31896e+07 0 
-1.31896e+07 4.16398e+07 0 
0 0 0 
-9.8563e+06 -1.66776e+07 0 
-1.66776e+07 -3.30316e+07 0 
0 0 0 
-8.2553e+06 -1.08191e+07 0 
-1.08191e+07 1.08774e+07 0 
0 0 0 
-1.74994e+07 -1.04976e+07 0 
-1.04976e+07 -5.81707e+06 0 
0 0 0 
6.48448e+06 -5.94611e+06 0 
-5.94611e+06 8.90531e+07 0 
0 0 0 
-2.97462e+07 -9.10199e+06 0 
-9.10199e+06 -2.29225e+07 0 
0 0 0 
-2.99113e+07 -6.18452e+06 0 
-6.18452e+06 -1.60285e+06 0 
0 0 0 
-4.26519e+07 -3.14064e+06 0 
-3.14064e+06 -2.8305e+07 0 
0 0 0 
-1.49137e+07 5.49293e+06 0 
5.49293e+06 -1.84962e+07 0 
0 0 0 
2.41288e+07 9.20232e+06 0 
9.20232e+06 4.74283e+07 0 
0 0 0 
3.90671e+07 8.09236e+06 0 
8.09236e+06 8.89385e+07 0 
0 0 0 
-7.01388e+06 4.32128e+06 0 
4.32128e+06 -2.2675e+06 0 
0 0 0 
-9.84416e+06 4.39855e+06 0 
4.39855e+06 5.92911e+06 0 
0 0 0 
-1.12987e+07 1.82905e+06 0 
1.82905e+06 1.52187e+07 0 
0 0 0 
-1.43036e+07 1.17937e+07 0 
1.17937e+07 370715 0 
0 0 0 
-6.83872e+07 1.08444e+07 0 
1.08444e+07 -8.29542e+07 0 
0 0 0 
-4.90207e+07 -5.10534e+06 0 
-5.10534e+06 -4.69051e+07 0 
0 0 0 
-1.56918e+07 -7.18405e+06 0 
-7.18405e+06 4.30555e+07 0 
0 0 0 
-1.91235e+07 -769617 0 
-769617 -4.446e+06 0 
0 0 0 
9.57928e+06 4.93561e+06 0 
4.93561e+06 3.94827e+07 0 
0 0 0 
1.91459e+07 -5.03664e+06 0 
-5.03664e+06 4.90522e+07 0 
0 0 0 
8.99472e+06 -7.89995e+06 0 
-7.89995e+06 4.44288e+06 0 
0 0 0 
-7.78913e+06 -3.02169e+06 0 
-3.02169e+06 -2.76843e+07 0 
0 0 0 
-2.2399e+07 1.02053e+06 0 
1.02053e+06 -4.44264e+07 0 
0 0 0 
-2.37499e+07 7.47241e+06 0 
7.47241e+06 -1.37383e+07 0 
0 0 0 
-2.06014e+07 1.95175e+07 0 
1.95175e+07 -1.35437e+07 0 
0 0 0 
-1.46544e+07 6.51021e+06 0 
6.51021e+06 -2.4967e+07 0 
0 0 0 
4.26559e+07 -3.92596e+06 0 
-3.92596e+06 7.12789e+07 0 
0 0 0 
5.52386e+07 3.79358e+06 0 
3.79358e+06 5.18062e+07 0 
0 0 0 
0 0 0 
0 0 0 
0 0 0 
1.59457e+07 -7.0523e+06 0 
-7.0523e+06 1.32081e+07 0 
0 0 0 
4.7149e+06 1.2954e+06 0 
1.2954e+06 8.30795e+06 0 
0 0 0 
-2.0827e+07 -2.33384e+06 0 
-2.33384e+06 -1.82304e+07 0 
0 0 0 
1.53888e+07 701507 0 
701507 -2.52826e+07 0 
0 0 0 
-3.94044e+07 4.45464e+06 0 
4.45464e+06 -4.12227e+07 0 
0 0 0 
7.77143e+06 1.29614e+06 0 
1.29614e+06 -1.70477e+07 0 
0 0 0 
-3.49077e+07 3.67064e+06 0 
3.67064e+06 -3.29578e+07 0 
0 0 0 
5.87738e+06 1.38577e+06 0 
1.38577e+06 -3.13732e+07 0 
0 0 0 
-2.60921e+07 1.0082e+07 0 
1.0082e+07 -4.4169e+07 0 
0 0 0 
-5.22574e+06 2.38972e+06 0 
2.38972e+06 -3.95331e+07 0 
0 0 0 
-6.38256e+07 1.03124e+07 0 
1.03124e+07 -6.66925e+07 0 
0 0 0 
-2.44729e+07 5.47172e+06 0 
5.47172e+06 -4.53434e+07 0 
0 0 0 
-4.21646e+07 6.19506e+06 0 
6.19506e+06 -4.42391e+07 0 
0 0 0 
2.57092e+07 5.28581e+06 0 
5.28581e+06 -4.33374e+06 0 
0 0 0 
-1.14293e+06 -2.67711e+06 0 
-2.67711e+06 1.15565e+07 0 
0 0 0 
3.02294e+07 -3.67854e+06 0 
-3.67854e+06 2.39953e+07 0 
0 0 0 
-921520 -7.24462e+06 0 
-7.24462e+06 7.72932e+06 0 
0 0 0 
3.1318e+07 -5.02338e+06 0 
-5.02338e+06 1.55028e+07 0 
0 0 0 
-7.81388e+06 3.14755e+06 0 
3.14755e+06 -7.69633e+06 0 
0 0 0 
-1.83478e+07 -1.61686e+06 0 
-1.61686e+06 -2.1471e+07 0 
0 0 0 
-2.13305e+07 -4.85908e+06 0 
-4.85908e+06 -2.76414e+07 0 
0 0 0 
-2.87088e+07 1.69734e+06 0 
1.69734e+06 -3.24149e+07 0 
0 0 0 
6.71153e+06 -5.83959e+06 0 
-5.83959e+06 -1.98641e+07 0 
0 0 0 
-2.11164e+07 -6.45471e+06 0 
-6.45471e+06 -2.13899e+07 0 
0 0 0 
4.50806e+07 -3.19932e+06 0 
-3.19932e+06 1.40173e+07 0 
0 0 0 
-3.61534e+06 -3.26592e+06 0 
-3.26592e+06 1.43073e+06 0 
0 0 0 
3.59697e+07 -2.21642e+06 0 
-2.21642e+06 8.8206e+06 0 
0 0 0 
-4.74313e+07 1.65887e+06 0 
1.65887e+06 -3.74292e+07 0 
0 0 0 
-4.45798e+06 -3.84816e+06 0 
-3.84816e+06 -3.16608e+07 0 
0 0 0 
-7.99661e+07 -6.47553e+06 0 
-6.47553e+06 -5.49901e+07 0 
0 0 0 
2.17186e+07 -6.37448e+06 0 
-6.37448e+06 2.46627e+06 0 
0 0 0 
-9.01937e+06 -8.66389e+06 0 
-8.66389e+06 4.85052e+06 0 
0 0 0 
5.87465e+07 -5.99434e+06 0 
-5.99434e+06 2.46842e+07 0 
0 0 0 
5.74237e+06 5.88357e+06 0 
5.88357e+06 1.48449e+06 0 
0 0 0 
322975 2.57866e+06 0 
2.57866e+06 2.76486e+06 0 
0 0 0 
-5.65604e+06 7.61691e+06 0 
7.61691e+06 -4.34058e+06 0 
0 0 0 
-8.0533e+06 461811 0 
461811 954383 0 
0 0 0 
-7.592e+06 -1.09333e+07 0 
-1.09333e+07 1.36653e+07 0 
0 0 0 
2.23593e+07 -9.9253e+06 0 
-9.9253e+06 2.40057e+07 0 
0 0 0 
-3.02669e+07 -385182 0 
-385182 2.427e+06 0 
0 0 0 
-5.98368e+06 726911 0 
726911 -8.36593e+06 0 
0 0 0 
-5.86079e+06 1.20567e+07 0 
1.20567e+07 -7.67151e+06 0 
0 0 0 
1.72148e+07 1.23388e+07 0 
1.23388e+07 1.4396e+07 0 
0 0 0 
1.07894e+07 -1.88953e+06 0 
-1.88953e+06 2.00423e+07 0 
0 0 0 
5.17616e+06 3.74805e+06 0 
3.74805e+06 1.32956e+07 0 
0 0 0 
-7.74794e+06 1.88974e+06 0 
1.88974e+06 2.38135e+06 0 
0 0 0 
-1.82613e+07 -176731 0 
-176731 -3.23807e+07 0 
0 0 0 
1.67717e+07 -4.83215e+06 0 
-4.83215e+06 -2.4258e+07 0 
0 0 0 
3.56453e+06 -3.24886e+06 0 
-3.24886e+06 -3.19604e+07 0 
0 0 0 
-3.09447e+07 -4.95056e+06 0 
-4.95056e+06 -5.71771e+07 0 
0 0 0 
-2.29052e+07 180786 0 
180786 -4.5613e+07 0 
0 0 0 
-4.19421e+07 2.07494e+06 0 
2.07494e+06 -3.33104e+07 0 
0 0 0 
-2.755e+07 9.50109e+06 0 
9.50109e+06 -3.2263e+07 0 
0 0 0 
-1.79919e+07 1.46167e+06 0 
1.46167e+06 -2.2731e+07 0 
0 0 0 
5.97235e+06 5.68436e+06 0 
5.68436e+06 -1.13852e+07 0 
0 0 0 
1.22523e+07 464398 0 
464398 -1.25366e+07 0 
0 0 0 
-1.00243e+07 3.85017e+06 0 
3.85017e+06 -2.64473e+07 0 
0 0 0 
-2.28252e+06 -2.76773e+06 0 
-2.76773e+06 -3.06304e+07 0 
0 0 0 
-5.44702e+07 -2.46387e+06 0 
-2.46387e+06 -5.09528e+07 0 
0 0 0 
-2.2191e+07 -3.94351e+06 0 
-3.94351e+06 -4.42223e+07 0 
0 0 0 
-2.63854e+07 3.84557e+06 0 
3.84557e+06 -3.83899e+07 0 
0 0 0 
4.13912e+06 -1.27508e+06 0 
-1.27508e+06 -2.55779e+07 0 
0 0 0 
4.24689e+06 -3.7749e+06 0 
-3.7749e+06 -3.08425e+07 0 
0 0 0 
-4.04993e+07 -3.51245e+06 0 
-3.51245e+06 -5.64037e+07 0 
0 0 0 
-5.16146e+06 -2.80484e+06 0 
-2.80484e+06 -4.74327e+07 0 
0 0 0 
-5.0658e+07 -1.0411e+07 0 
-1.0411e+07 -5.90664e+07 0 
0 0 0 
1.89936e+06 6.02339e+06 0 
6.02339e+06 -3.69313e+07 0 
0 0 0 
-2.08438e+07 7.07555e+06 0 
7.07555e+06 -4.11088e+07 0 
0 0 0 
-8.42778e+06 692132 0 
692132 -3.9396e+07 0 
0 0 0 
-2.09858e+07 647820 0 
647820 -3.66126e+07 0 
0 0 0 
-9.20566e+06 -77273.8 0 
-77273.8 -3.83455e+07 0 
0 0 0 
-8.61712e+06 -1.00533e+06 0 
-1.00533e+06 -2.72855e+07 0 
0 0 0 
2.33229e+06 650554 0 
650554 -1.6143e+07 0 
0 0 0 
-1.76168e+07 1.36784e+06 0 
1.36784e+06 -1.7255e+07 0 
0 0 0 
1.83217e+07 2.20366e+06 0 
2.20366e+06 1.47443e+07 0 
0 0 0 
6.88462e+06 -2.07404e+06 0 
-2.07404e+06 1.13349e+07 0 
0 0 0 
3.87941e+07 238214 0 
238214 3.15898e+07 0 
0 0 0 
-2.67101e+06 753071 0 
753071 2.72854e+07 0 
0 0 0 
3.99714e+07 3.4652e+06 0 
3.4652e+06 1.11565e+07 0 
0 0 0 
3.55713e+07 -3.80464e+06 0 
-3.80464e+06 3.50647e+07 0 
0 0 0 
0 0 0 
0 0 0 
0 0 0 
-8.0613e+06 6.85894e+06 0 
6.85894e+06 -3.53658e+07 0 
0 0 0 
-9.92373e+06 -1.61732e+07 0 
-1.61732e+07 -4.93587e+07 0 
0 0 0 
-1.62789e+07 -1.97949e+07 0 
-1.97949e+07 -8.34666e+06 0 
0 0 0 
-6.45131e+07 -9.07041e+06 0 
-9.07041e+06 -9.25231e+07 0 
0 0 0 
-5.50682e+07 1.00404e+06 0 
1.00404e+06 -5.7241e+07 0 
0 0 0 
-4.15565e+07 -7.39479e+06 0 
-7.39479e+06 -4.36902e+07 0 
0 0 0 
-2.19829e+07 -9.12269e+06 0 
-9.12269e+06 -2.56867e+07 0 
0 0 0 
-7.08733e+06 -7.0135e+06 0 
-7.0135e+06 -2.52469e+07 0 
0 0 0 
4.36248e+06 -1.41049e+06 0 
-1.41049e+06 -1.28892e+07 0 
0 0 0 
2.13331e+07 1.53755e+07 0 
1.53755e+07 1.5501e+07 0 
0 0 0 
2.08362e+06 7.4521e+06 0 
7.4521e+06 -1.15501e+07 0 
0 0 0 
-4.37849e+07 3.23606e+06 0 
3.23606e+06 -8.00403e+07 0 
0 0 0 
-2.02844e+07 4.48149e+06 0 
4.48149e+06 3.03795e+07 0 
0 0 0 
-2.6153e+07 1.46696e+07 0 
1.46696e+07 -2.80709e+06 0 
0 0 0 
1.19244e+07 1.24869e+07 0 
1.24869e+07 5.98212e+07 0 
0 0 0 
1.06609e+06 1.27077e+07 0 
1.27077e+07 -9.40986e+06 0 
0 0 0 
-6.38567e+06 1.54012e+07 0 
1.54012e+07 1.56244e+07 0 
0 0 0 
-5.51746e+06 4.8531e+06 0 
4.8531e+06 2.04103e+07 0 
0 0 0 
4.03113e+07 3.47062e+06 0 
3.47062e+06 4.22776e+07 0 
0 0 0 
4.59857e+07 2.56329e+07 0 
2.56329e+07 1.00524e+08 0 
0 0 0 
2.0434e+07 2.43052e+07 0 
2.43052e+07 1.22271e+06 0 
0 0 0 
5.27103e+07 3.94484e+07 0 
3.94484e+07 6.04714e+07 0 
0 0 0 
8.50805e+07 4.88515e+07 0 
4.88515e+07 5.29211e+07 0 
0 0 0 
-1.37285e+07 -1.10573e+07 0 
-1.10573e+07 -5.30552e+06 0 
0 0 0 
-6.81793e+07 -2.40864e+07 0 
-2.40864e+07 -3.42698e+07 0 
0 0 0 
-1.04536e+08 -4.88075e+07 0 
-4.88075e+07 1.1508e+07 0 
0 0 0 
-9.48324e+07 949756 0 
949756 -4.3005e+06 0 
0 0 0 
1.85771e+07 3.37526e+07 0 
3.37526e+07 5.76991e+07 0 
0 0 0 
-2.24882e+07 3.07013e+07 0 
3.07013e+07 2.99761e+07 0 
0 0 0 
1.09715e+07 2.44143e+07 0 
2.44143e+07 6.76078e+07 0 
0 0 0 
2.39023e+07 2.6688e+07 0 
2.6688e+07 6.17966e+07 0 
0 0 0 
6.01692e+07 1.93253e+07 0 
1.93253e+07 9.37024e+07 0 
0 0 0 
4.92954e+07 1.17307e+07 0 
1.17307e+07 7.49415e+07 0 
0 0 0 
-9.57808e+06 3.13688e+07 0 
3.13688e+07 -6.04528e+07 0 
0 0 0 
1.82025e+06 3.6539e+07 0 
3.6539e+07 -2.19685e+07 0 
0 0 0 
1.46749e+07 2.6124e+07 0 
2.6124e+07 1.80611e+06 0 
0 0 0 
3.62709e+07 8.36961e+06 0 
8.36961e+06 3.03996e+07 0 
0 0 0 
1.21953e+07 5.23251e+06 0 
5.23251e+06 -5.64259e+07 0 
0 0 0 
-2.4629e+06 2.03202e+07 0 
2.03202e+07 -4.12864e+07 0 
0 0 0 
-3.35109e+07 1.92545e+07 0 
1.92545e+07 -9.5058e+07 0 
0 0 0 
-3.33004e+07 7.70491e+06 0 
7.70491e+06 -9.4263e+07 0 
0 0 0 
-3.48936e+07 -332704 0 
-332704 -1.47733e+08 0 
0 0 0 
-2.49651e+07 -1.5973e+07 0 
-1.5973e+07 -8.63304e+07 0 
0 0 0 
-5.85694e+06 -1.83597e+07 0 
-1.83597e+07 -4.94681e+07 0 
0 0 0 
1.79953e+07 -1.27387e+07 0 
-1.27387e+07 1.52338e+07 0 
0 0 0 
-4.34518e+07 -1.24279e+07 0 
-1.24279e+07 -1.15925e+08 0 
0 0 0 
-4.72149e+07 -1.68881e+07 0 
-1.68881e+07 -1.03327e+08 0 
0 0 0 
-2.46766e+06 -1.9851e+07 0 
-1.9851e+07 9.21792e+06 0 
0 0 0 
3.16597e+07 -2.56414e+07 0 
-2.56414e+07 5.98474e+07 0 
0 0 0 
1.10924e+07 -3.23387e+07 0 
-3.23387e+07 3.23541e+07 0 
0 0 0 
-3.03199e+07 -2.32933e+07 0 
-2.32933e+07 -3.59917e+07 0 
0 0 0 
-1.4162e+07 -1.8029e+07 0 
-1.8029e+07 1.18403e+07 0 
0 0 0 
-1.16419e+07 -2.2264e+07 0 
-2.2264e+07 1.13851e+07 0 
0 0 0 
1.90039e+07 -7.74332e+06 0 
-7.74332e+06 9.6849e+07 0 
0 0 0 
-2.75957e+07 -9.61827e+06 0 
-9.61827e+06 -3.1287e+07 0 
0 0 0 
-1.43735e+06 -574406 0 
-574406 2.53736e+07 0 
0 0 0 
9.32094e+06 1.36783e+07 0 
1.36783e+07 7.84221e+06 0 
0 0 0 
1.15813e+07 1.93007e+07 0 
1.93007e+07 -1.4182e+07 0 
0 0 0 
3.16768e+07 6.01043e+06 0 
6.01043e+06 3.82127e+07 0 
0 0 0 
2.99948e+07 283801 0 
283801 9.36448e+07 0 
0 0 0 
-2.38853e+07 -2.81156e+06 0 
-2.81156e+06 -2.61383e+07 0 
0 0 0 
-3.72663e+07 -2.95382e+06 0 
-2.95382e+06 -6.56877e+06 0 
0 0 0 
-2.19132e+07 5.57381e+06 0 
5.57381e+06 2.5403e+07 0 
0 0 0 
-2.9794e+07 7.39881e+06 0 
7.39881e+06 1.71456e+07 0 
0 0 0 
-6.86357e+07 5.45894e+06 0 
5.45894e+06 -1.13105e+08 0 
0 0 0 
-3.74172e+07 5.20221e+06 0 
5.20221e+06 -4.60187e+07 0 
0 0 0 
2.75211e+07 -1.33894e+06 0 
-1.33894e+06 6.83782e+07 0 
0 0 0 
1.59741e+07 1.16791e+07 0 
1.16791e+07 2.18342e+07 0 
0 0 0 
1.95301e+06 3.61843e+06 0 
3.61843e+06 9.23207e+06 0 
0 0 0 
9.96673e+06 -7.15986e+06 0 
-7.15986e+06 3.97395e+07 0 
0 0 0 
4.38619e+06 929205 0 
929205 1.58052e+07 0 
0 0 0 
-3.78378e+06 3.6504e+06 0 
3.6504e+06 -1.81697e+07 0 
0 0 0 
5.45393e+06 -198235 0 
-198235 -4.18829e+07 0 
0 0 0 
3.2528e+07 -1.47028e+06 0 
-1.47028e+06 8.47692e+06 0 
0 0 0 
2.04793e+07 1.49611e+07 0 
1.49611e+07 2.04203e+07 0 
0 0 0 
-1.85625e+07 1.56175e+07 0 
1.56175e+07 -5.02499e+07 0 
0 0 0 
6.72838e+06 998456 0 
998456 5.79231e+07 0 
0 0 0 
-8.70483e+06 892827 0 
892827 3.26652e+07 0 
0 0 0 
-4.27233e+07 3.99224e+06 0 
3.99224e+06 -2.56692e+07 0 
0 0 0 
0 0 0 
0 0 0 
0 0 0 
9.24829e+06 -1.53791e+06 0 
-1.53791e+06 -9.00873e+06 0 
0 0 0 
-1.54388e+07 1.19143e+06 0 
1.19143e+06 -1.72113e+07 0 
0 0 0 
-1.54451e+07 -1.12973e+07 0 
-1.12973e+07 -4.4772e+06 0 
0 0 0 
3.38421e+07 -6.51942e+06 0 
-6.51942e+06 2.60512e+07 0 
0 0 0 
-2.24451e+07 -1.10167e+07 0 
-1.10167e+07 5.65811e+06 0 
0 0 0 
3.44247e+07 2.84101e+06 0 
2.84101e+06 2.49294e+07 0 
0 0 0 
-2.50796e+07 -2.31785e+06 0 
-2.31785e+06 9.66753e+06 0 
0 0 0 
3.00324e+07 3.84152e+06 0 
3.84152e+06 3.53212e+07 0 
0 0 0 
1.00584e+06 -3.28166e+06 0 
-3.28166e+06 3.21901e+07 0 
0 0 0 
2.32074e+07 4.32886e+06 0 
4.32886e+06 4.29183e+07 0 
0 0 0 
-3.17168e+07 6.12954e+06 0 
6.12954e+06 1.67155e+07 0 
0 0 0 
-2.30945e+06 1.3338e+07 0 
1.3338e+07 1.9186e+07 0 
0 0 0 
-1.83007e+07 1.15823e+07 0 
1.15823e+07 2.38884e+07 0 
0 0 0 
2.8003e+07 1.19978e+07 0 
1.19978e+07 3.44922e+07 0 
0 0 0 
-1.37394e+07 -3.19802e+06 0 
-3.19802e+06 1.29981e+07 0 
0 0 0 
2.99095e+07 -1.29102e+07 0 
-1.29102e+07 2.39227e+07 0 
0 0 0 
-1.3395e+07 -8.5472e+06 0 
-8.5472e+06 5.13774e+06 0 
0 0 0 
3.85272e+07 -1.19464e+07 0 
-1.19464e+07 8.87959e+06 0 
0 0 0 
-3.81589e+06 -9.54193e+06 0 
-9.54193e+06 -1.36478e+07 0 
0 0 0 
-2.98638e+07 -5.77957e+06 0 
-5.77957e+06 -4.30155e+07 0 
0 0 0 
-2.21539e+07 5.02171e+06 0 
5.02171e+06 -5.47691e+07 0 
0 0 0 
-3.93366e+07 5.5082e+06 0 
5.5082e+06 -6.82377e+07 0 
0 0 0 
-9.22008e+06 8.5057e+06 0 
8.5057e+06 -5.95652e+07 0 
0 0 0 
-1.19581e+07 9.40194e+06 0 
9.40194e+06 -3.38041e+07 0 
0 0 0 
1.97838e+07 4.01805e+06 0 
4.01805e+06 3.05637e+06 0 
0 0 0 
858927 -2.4506e+06 0 
-2.4506e+06 7.48696e+06 0 
0 0 0 
2.80031e+07 -2.80677e+06 0 
-2.80677e+06 1.55799e+07 0 
0 0 0 
-1.72772e+07 -6.51666e+06 0 
-6.51666e+06 -4.2686e+06 0 
0 0 0 
-1.0652e+07 -4.9696e+06 0 
-4.9696e+06 -1.29336e+07 0 
0 0 0 
-6.3583e+07 -2.77765e+06 0 
-2.77765e+06 -2.49801e+07 0 
0 0 0 
2.20243e+07 -33488.1 0 
-33488.1 1.06937e+07 0 
0 0 0 
-1.42074e+07 -7.66398e+06 0 
-7.66398e+06 2.35617e+07 0 
0 0 0 
7.81218e+07 -6.71123e+06 0 
-6.71123e+06 6.69587e+07 0 
0 0 0 
2.42359e+07 -3.70707e+06 0 
-3.70707e+06 4.38215e+07 0 
0 0 0 
3.17464e+07 -2.46616e+06 0 
-2.46616e+06 2.35011e+07 0 
0 0 0 
-3.27862e+07 -2.39693e+06 0 
-2.39693e+06 -7.34562e+06 0 
0 0 0 
9.4319e+06 -3.29965e+06 0 
-3.29965e+06 -4.52052e+06 0 
0 0 0 
-5.04616e+07 -3.25598e+06 0 
-3.25598e+06 -3.39594e+07 0 
0 0 0 
2.67238e+07 -7.3052e+06 0 
-7.3052e+06 1.80728e+06 0 
0 0 0 
-3.59364e+07 -2.05593e+06 0 
-2.05593e+06 -2.99086e+07 0 
0 0 0 
-1.3703e+06 4.03994e+06 0 
4.03994e+06 -1.65362e+07 0 
0 0 0 
-5.59709e+06 4.27826e+06 0 
4.27826e+06 -1.46668e+07 0 
0 0 0 
2.61987e+06 9.88355e+06 0 
9.88355e+06 -2.06806e+07 0 
0 0 0 
-1.07468e+07 -510435 0 
-510435 -1.94614e+07 0 
0 0 0 
-1.81686e+06 -371017 0 
-371017 -2.19408e+07 0 
0 0 0 
-2.53168e+07 -3.72541e+06 0 
-3.72541e+06 -4.21715e+07 0 
0 0 0 
-1.43217e+07 56407.9 0 
56407.9 -1.02967e+07 0 
0 0 0 
1.46573e+07 -1.41135e+06 0 
-1.41135e+06 -774546 0 
0 0 0 
2.18595e+07 -8.68487e+06 0 
-8.68487e+06 7.47726e+06 0 
0 0 0 
-8.75503e+06 -6.01973e+06 0 
-6.01973e+06 1.50982e+07 0 
0 0 0 
1.40737e+07 3.57779e+06 0 
3.57779e+06 1.46719e+07 0 
0 0 0 
-4.27548e+07 -3.14208e+06 0 
-3.14208e+06 -2.43809e+07 0 
0 0 0 
-2.84393e+07 3.38245e+06 0 
3.38245e+06 -2.87326e+07 0 
0 0 0 
-1.59522e+07 4.86965e+06 0 
4.86965e+06 -3.58093e+07 0 
0 0 0 
-1.44193e+07 -749126 0 
-749126 -4.64723e+07 0 
0 0 0 
-6.10764e+06 -9.51459e+06 0 
-9.51459e+06 -4.99416e+07 0 
0 0 0 
-3.08011e+07 -9.20818e+06 0 
-9.20818e+06 -7.14697e+07 0 
0 0 0 
-2.6678e+07 -6.26831e+06 0 
-6.26831e+06 -8.39427e+07 0 
0 0 0 
-6.2288e+07 -1.34923e+07 0 
-1.34923e+07 -9.26548e+07 0 
0 0 0 
-1.29805e+07 2.17403e+06 0 
2.17403e+06 -6.5524e+07 0 
0 0 0 
-3.02186e+07 1.18388e+06 0 
1.18388e+06 -6.01078e+07 0 
0 0 0 
-5.56816e+06 -214069 0 
-214069 -4.15914e+07 0 
0 0 0 
-2.13504e+07 -3.63366e+06 0 
-3.63366e+06 -4.64924e+07 0 
0 0 0 
-2.18825e+07 -6.21583e+06 0 
-6.21583e+06 -4.75641e+07 0 
0 0 0 
-1.49887e+07 -5.35372e+06 0 
-5.35372e+06 -4.92168e+07 0 
0 0 0 
-4.01306e+07 -1.61412e+06 0 
-1.61412e+06 -6.78457e+07 0 
0 0 0 
-3.05692e+06 5.52114e+06 0 
5.52114e+06 -5.27116e+07 0 
0 0 0 
-2.67867e+07 546222 0 
546222 -5.30099e+07 0 
0 0 0 
-578917 5.95816e+06 0 
5.95816e+06 -2.65718e+07 0 
0 0 0 
-1.93034e+07 6.40329e+06 0 
6.40329e+06 -6.28753e+06 0 
0 0 0 
1.83164e+07 1.49504e+06 0 
1.49504e+06 2.34511e+07 0 
0 0 0 
758336 7.08643e+06 0 
7.08643e+06 2.11041e+07 0 
0 0 0 
2.34789e+07 -4.66673e+06 0 
-4.66673e+06 3.99192e+07 0 
0 0 0 
-1.27486e+07 -3.5371e+06 0 
-3.5371e+06 1.78779e+07 0 
0 0 0 
2.57153e+07 1.47074e+06 0 
1.47074e+06 1.27312e+07 0 
0 0 0 
-7.58769e+06 -9.89935e+06 0 
-9.89935e+06 3.03023e+06 0 
0 0 0 
3.24252e+07 -2.87726e+06 0 
-2.87726e+06 4.79457e+06 0 
0 0 0 
-1.51941e+07 -6.40853e+06 0 
-6.40853e+06 -1.88591e+07 0 
0 0 0 
1.90347e+07 -1.14009e+07 0 
-1.14009e+07 -1.85335e+06 0 
0 0 0 
-4.37475e+07 -5.85769e+06 0 
-5.85769e+06 -945614 0 
0 0 0 
-5.19535e+07 -1.0412e+07 0 
-1.0412e+07 -1.83612e+07 0 
0 0 0 
0 0 0 
0 0 0 
0 0 0 
-2.06086e+07 1.76271e+06 0 
1.76271e+06 -4.52712e+07 0 
0 0 0 
-2.86623e+07 -8.119e+06 0 
-8.119e+06 -7.64438e+07 0 
0 0 0 
1.24122e+06 -1.36515e+07 0 
-1.36515e+07 4.81056e+06 0 
0 0 0 
-1.99153e+07 -1.30413e+07 0 
-1.30413e+07 -7.82803e+07 0 
0 0 0 
8.31125e+06 -1.02585e+07 0 
-1.02585e+07 -3.44513e+07 0 
0 0 0 
-29944.9 1.83382e+06 0 
1.83382e+06 -2.65251e+07 0 
0 0 0 
-1.88756e+06 -375022 0 
-375022 -2.26277e+07 0 
0 0 0 
1.45268e+06 -6.3237e+06 0 
-6.3237e+06 -1.99058e+07 0 
0 0 0 
2.31126e+07 6.34409e+06 0 
6.34409e+06 1.80698e+07 0 
0 0 0 
1.55045e+07 1.10783e+07 0 
1.10783e+07 1.03884e+07 0 
0 0 0 
-1.71293e+07 -8.21725e+06 0 
-8.21725e+06 -4.41471e+07 0 
0 0 0 
-1.36599e+07 -3.69229e+06 0 
-3.69229e+06 -4.61952e+07 0 
0 0 0 
8.94392e+06 6.65297e+06 0 
6.65297e+06 3.54876e+07 0 
0 0 0 
-1.12981e+07 1.82946e+07 0 
1.82946e+07 1.31746e+07 0 
0 0 0 
-2.82556e+06 2.45668e+07 0 
2.45668e+07 4.99959e+07 0 
0 0 0 
-2.18261e+07 2.13648e+07 0 
2.13648e+07 -6.24901e+06 0 
0 0 0 
7.28919e+06 1.43779e+07 0 
1.43779e+07 1.75888e+07 0 
0 0 0 
2.49576e+07 1.44698e+07 0 
1.44698e+07 1.42918e+07 0 
0 0 0 
3.21552e+07 9.39579e+06 0 
9.39579e+06 4.97712e+07 0 
0 0 0 
8.03609e+07 1.57348e+07 0 
1.57348e+07 1.3205e+08 0 
0 0 0 
5.11359e+07 3.15752e+07 0 
3.15752e+07 9.43075e+06 0 
0 0 0 
7.47282e+07 3.8114e+07 0 
3.8114e+07 9.41169e+07 0 
0 0 0 
6.586e+07 5.2245e+07 0 
5.2245e+07 6.27702e+07 0 
0 0 0 
5.52417e+07 1.94552e+07 0 
1.94552e+07 7.25479e+07 0 
0 0 0 
-8.03248e+06 -5.6959e+07 0 
-5.6959e+07 -3.35438e+07 0 
0 0 0 
2.05082e+07 -2.22821e+07 0 
-2.22821e+07 1.56165e+07 0 
0 0 0 
1.03963e+07 -3.49856e+07 0 
-3.49856e+07 2.07496e+07 0 
0 0 0 
1.42236e+08 516671 0 
516671 8.29625e+07 0 
0 0 0 
1.19012e+08 2.45123e+07 0 
2.45123e+07 8.919e+07 0 
0 0 0 
9.58618e+07 2.36753e+07 0 
2.36753e+07 8.74702e+07 0 
0 0 0 
6.83193e+07 1.27584e+07 0 
1.27584e+07 6.17337e+07 0 
0 0 0 
4.80113e+07 8.68108e+06 0 
8.68108e+06 9.12053e+07 0 
0 0 0 
5.59272e+07 3.00462e+06 0 
3.00462e+06 9.85997e+07 0 
0 0 0 
1.13968e+07 1.58338e+07 0 
1.58338e+07 -4.21839e+07 0 
0 0 0 
-7.58983e+06 3.53938e+07 0 
3.53938e+07 -3.21238e+07 0 
0 0 0 
-1.59802e+07 2.77467e+07 0 
2.77467e+07 -2.16431e+07 0 
0 0 0 
-6.88897e+06 1.71253e+07 0 
1.71253e+07 -6.4135e+06 0 
0 0 0 
-3.24307e+07 -1.90616e+06 0 
-1.90616e+06 -5.45534e+07 0 
0 0 0 
-5.04243e+07 -908104 0 
-908104 -5.96224e+07 0 
0 0 0 
-8.11298e+07 5.57305e+06 0 
5.57305e+06 -1.01953e+08 0 
0 0 0 
-1.05301e+08 1.31034e+07 0 
1.31034e+07 -1.22107e+08 0 
0 0 0 
-1.29958e+08 1.4113e+07 0 
1.4113e+07 -2.02735e+08 0 
0 0 0 
-7.95996e+07 -2.16023e+07 0 
-2.16023e+07 -1.20025e+08 0 
0 0 0 
-6.19576e+07 -1.49895e+07 0 
-1.49895e+07 -7.15184e+07 0 
0 0 0 
-3.65715e+07 -1.07667e+07 0 
-1.07667e+07 4.37034e+06 0 
0 0 0 
-7.02624e+07 -2.05806e+07 0 
-2.05806e+07 -1.03856e+08 0 
0 0 0 
-6.14885e+07 -4.42127e+06 0 
-4.42127e+06 -1.10822e+08 0 
0 0 0 
-1.22548e+07 -5.43896e+06 0 
-5.43896e+06 -1.573e+07 0 
0 0 0 
1.35295e+06 -1.65813e+07 0 
-1.65813e+07 4.43512e+07 0 
0 0 0 
-9.59556e+06 -2.72232e+07 0 
-2.72232e+07 3.21584e+07 0 
0 0 0 
-2.54218e+07 -2.24419e+07 0 
-2.24419e+07 -2.24505e+07 0 
0 0 0 
-2.68611e+07 -1.47069e+07 0 
-1.47069e+07 -1.26822e+07 0 
0 0 0 
-3.77641e+06 -1.3693e+07 0 
-1.3693e+07 5.61455e+07 0 
0 0 0 
7.90829e+06 -3.48998e+06 0 
-3.48998e+06 8.82625e+07 0 
0 0 0 
-2.19868e+07 -5.57992e+06 0 
-5.57992e+06 -3.40676e+07 0 
0 0 0 
5.65383e+06 -836853 0 
-836853 4.87272e+07 0 
0 0 0 
-4.82222e+06 1.24879e+07 0 
1.24879e+07 2.45506e+07 0 
0 0 0 
-2.41009e+07 1.7753e+07 0 
1.7753e+07 -3.91738e+07 0 
0 0 0 
-1.59342e+07 4.4289e+06 0 
4.4289e+06 598397 0 
0 0 0 
3.04987e+07 -9.42033e+06 0 
-9.42033e+06 9.24307e+07 0 
0 0 0 
2.73009e+06 -1.0689e+07 0 
-1.0689e+07 -1.99811e+07 0 
0 0 0 
1.31611e+07 -6.50105e+06 0 
-6.50105e+06 1.25263e+07 0 
0 0 0 
-4.5862e+06 3.38743e+06 0 
3.38743e+06 3.63987e+07 0 
0 0 0 
5.97559e+06 1.47503e+06 0 
1.47503e+06 4.60988e+07 0 
0 0 0 
-4.68572e+07 8.35081e+06 0 
8.35081e+06 -1.105e+08 0 
0 0 0 
-3.30806e+07 1.83566e+07 0 
1.83566e+07 -4.07794e+07 0 
0 0 0 
-4.84918e+06 1.42429e+07 0 
1.42429e+07 5.40682e+07 0 
0 0 0 
1.25722e+07 7.08314e+06 0 
7.08314e+06 2.41397e+07 0 
0 0 0 
1.43072e+07 -1.99689e+06 0 
-1.99689e+06 -1.35795e+07 0 
0 0 0 
2.58293e+07 -4.45171e+06 0 
-4.45171e+06 4.22717e+07 0 
0 0 0 
2.84069e+07 -2.5008e+06 0 
-2.5008e+06 4.6024e+07 0 
0 0 0 
9.04126e+06 -3.70439e+06 0 
-3.70439e+06 -2.36987e+07 0 
0 0 0 
-2.24642e+07 -3.93127e+06 0 
-3.93127e+06 -6.09276e+07 0 
0 0 0 
-6.01824e+06 515193 0 
515193 1.0584e+07 0 
0 0 0 
4.68801e+06 9.4823e+06 0 
9.4823e+06 3.00112e+07 0 
0 0 0 
-3.30407e+07 4.39547e+06 0 
4.39547e+06 -6.14253e+07 0 
0 0 0 
-5.9581e+06 2.85049e+06 0 
2.85049e+06 3.96663e+07 0 
0 0 0 
-1.34636e+07 -934231 0 
-934231 3.13388e+07 0 
0 0 0 
-1.74924e+07 984764 0 
984764 -1.64736e+07 0 
0 0 0 
-1.8079e+07 -9.94614e+06 0 
-9.94614e+06 -1.17048e+07 0 
0 0 0 
0 0 0 
0 0 0 
0 0 0 
1.49823e+07 -9.65022e+06 0 
-9.65022e+06 1.72039e+07 0 
0 0 0 
-1.20924e+07 584308 0 
584308 785115 0 
0 0 0 
-1.88858e+07 5.35526e+06 0 
5.35526e+06 2.82658e+06 0 
0 0 0 
3.71237e+07 -1.37188e+06 0 
-1.37188e+06 2.0773e+07 0 
0 0 0 
-2.06912e+07 7.07716e+06 0 
7.07716e+06 -5.04051e+06 0 
0 0 0 
2.63126e+07 401433 0 
401433 -4.6236e+06 0 
0 0 0 
-4.01287e+07 773376 0 
773376 -4.0615e+07 0 
0 0 0 
-3.90982e+06 -1.57098e+06 0 
-1.57098e+06 -2.85755e+07 0 
0 0 0 
-2.80088e+07 -4.79813e+06 0 
-4.79813e+06 -4.66271e+07 0 
0 0 0 
1.64177e+07 -4.85133e+06 0 
-4.85133e+06 -4.27329e+07 0 
0 0 0 
-5.18645e+07 4.27596e+06 0 
4.27596e+06 -5.98952e+07 0 
0 0 0 
-1.37046e+07 1.57934e+07 0 
1.57934e+07 -4.25508e+07 0 
0 0 0 
-5.40521e+07 1.17086e+07 0 
1.17086e+07 -5.92201e+07 0 
0 0 0 
-1.02943e+07 4.18725e+06 0 
4.18725e+06 -4.70537e+07 0 
0 0 0 
-4.48683e+07 2.5522e+06 0 
2.5522e+06 -5.53235e+07 0 
0 0 0 
3.43068e+06 -6.86981e+06 0 
-6.86981e+06 -2.65036e+07 0 
0 0 0 
-1.06342e+07 -4.94723e+06 0 
-4.94723e+06 -2.65062e+07 0 
0 0 0 
1.9248e+07 -629466 0 
-629466 1.29871e+07 0 
0 0 0 
1.41104e+07 -1.39605e+07 0 
-1.39605e+07 2.33723e+07 0 
0 0 0 
1.39558e+07 -1.05143e+07 0 
-1.05143e+07 3.20756e+07 0 
0 0 0 
1.00981e+07 -2.42826e+06 0 
-2.42826e+06 3.17841e+07 0 
0 0 0 
1.15761e+06 5.3486e+06 0 
5.3486e+06 2.4017e+07 0 
0 0 0 
2.20734e+07 1.21394e+07 0 
1.21394e+07 3.49256e+07 0 
0 0 0 
-2.80444e+06 1.4e+07 0 
1.4e+07 2.01399e+07 0 
0 0 0 
2.16123e+07 9.31323e+06 0 
9.31323e+06 2.84912e+07 0 
0 0 0 
-6.50533e+06 -1.37457e+06 0 
-1.37457e+06 1.61865e+07 0 
0 0 0 
2.11495e+07 -7.76184e+06 0 
-7.76184e+06 1.02592e+07 0 
0 0 0 
-1.62938e+07 -1.17584e+07 0 
-1.17584e+07 -2.14476e+07 0 
0 0 0 
-1.46988e+07 -8.38076e+06 0 
-8.38076e+06 -3.00437e+07 0 
0 0 0 
-6.36015e+07 5.31036e+06 0 
5.31036e+06 -4.87412e+07 0 
0 0 0 
6.83427e+06 8.47292e+06 0 
8.47292e+06 -1.70897e+07 0 
0 0 0 
-4.29499e+07 5.2745e+06 0 
5.2745e+06 -4.08969e+07 0 
0 0 0 
5.12092e+07 -1.75214e+06 0 
-1.75214e+06 221220 0 
0 0 0 
218143 -1.23115e+07 0 
-1.23115e+07 -3.39209e+07 0 
0 0 0 
1.86308e+07 -1.32197e+07 0 
-1.32197e+07 -3.91822e+07 0 
0 0 0 
-5.46196e+07 -3.43194e+06 0 
-3.43194e+06 -5.78893e+07 0 
0 0 0 
3.0088e+06 -1.07669e+07 0 
-1.07669e+07 -4.1074e+07 0 
0 0 0 
-5.4387e+07 -2.66293e+06 0 
-2.66293e+06 -3.96498e+07 0 
0 0 0 
3.25069e+07 -2.9287e+06 0 
-2.9287e+06 -1.38944e+06 0 
0 0 0 
-2.10285e+07 -649300 0 
-649300 220686 0 
0 0 0 
1.68222e+06 -1.62325e+06 0 
-1.62325e+06 7.2258e+06 0 
0 0 0 
-7.05459e+06 5.02616e+06 0 
5.02616e+06 -4.49634e+06 0 
0 0 0 
1.39618e+06 -2.96397e+06 0 
-2.96397e+06 -4.58737e+06 0 
0 0 0 
2.11765e+06 -1.00088e+06 0 
-1.00088e+06 -1.38627e+07 0 
0 0 0 
1.54671e+07 814089 0 
814089 1.06466e+07 0 
0 0 0 
-7.64007e+06 6.36208e+06 0 
6.36208e+06 2.87422e+07 0 
0 0 0 
2.32987e+07 1.57639e+07 0 
1.57639e+07 3.72868e+07 0 
0 0 0 
1.2425e+07 8.07841e+06 0 
8.07841e+06 4.28207e+07 0 
0 0 0 
1.85421e+06 1.80885e+06 0 
1.80885e+06 2.78112e+07 0 
0 0 0 
1.69321e+07 -4.66654e+06 0 
-4.66654e+06 1.91057e+07 0 
0 0 0 
-2.19722e+07 -1.74551e+07 0 
-1.74551e+07 -1.65914e+07 0 
0 0 0 
-3.101e+07 -1.43414e+07 0 
-1.43414e+07 -3.13181e+07 0 
0 0 0 
-2.24811e+07 -2.74143e+06 0 
-2.74143e+06 -2.64852e+07 0 
0 0 0 
-2.68855e+06 -1.85216e+06 0 
-1.85216e+06 -2.38712e+07 0 
0 0 0 
-8.15998e+06 5.1137e+06 0 
5.1137e+06 -1.4261e+07 0 
0 0 0 
-8.42648e+06 -1.85943e+06 0 
-1.85943e+06 -4.01277e+06 0 
0 0 0 
9.10178e+06 -5.96536e+06 0 
-5.96536e+06 3.35809e+06 0 
0 0 0 
-3.15423e+07 -6.45386e+06 0 
-6.45386e+06 -2.33194e+07 0 
0 0 0 
-1.03903e+07 8.67352e+06 0 
8.67352e+06 -1.73182e+07 0 
0 0 0 
8.83911e+06 2.47262e+06 0 
2.47262e+06 -1.16943e+07 0 
0 0 0 
-2.90318e+07 1.00741e+07 0 
1.00741e+07 -3.63976e+07 0 
0 0 0 
6.80121e+06 2.29868e+06 0 
2.29868e+06 -1.3778e+07 0 
0 0 0 
-2.76269e+07 -5.77637e+06 0 
-5.77637e+06 -1.8684e+07 0 
0 0 0 
-1.37383e+07 -6.42596e+06 0 
-6.42596e+06 -1.75414e+07 0 
0 0 0 
6.65191e+06 -9.10648e+06 0 
-9.10648e+06 -1.76226e+07 0 
0 0 0 
-8.15549e+06 -2.74057e+06 0 
-2.74057e+06 -2.28804e+07 0 
0 0 0 
-6.65409e+06 1.42246e+07 0 
1.42246e+07 -3.04208e+07 0 
0 0 0 
-1.59982e+07 1.03589e+07 0 
1.03589e+07 -5.6183e+07 0 
0 0 0 
-2.62021e+07 2.0701e+07 0 
2.0701e+07 -6.51046e+07 0 
0 0 0 
-3.96513e+07 1.14329e+07 0 
1.14329e+07 -7.18082e+07 0 
0 0 0 
193516 1.28073e+07 0 
1.28073e+07 -5.09691e+07 0 
0 0 0 
-3.97654e+07 5.1032e+06 0 
5.1032e+06 -5.74518e+07 0 
0 0 0 
-1.12257e+07 913660 0 
913660 -6.89624e+07 0 
0 0 0 
-3.51254e+07 1.58795e+06 0 
1.58795e+06 -7.0891e+07 0 
0 0 0 
-1.09555e+07 548302 0 
548302 -6.89248e+07 0 
0 0 0 
-4.00719e+07 213367 0 
213367 -8.28167e+07 0 
0 0 0 
1.45711e+07 -2.0791e+06 0 
-2.0791e+06 -5.11512e+07 0 
0 0 0 
-3.2539e+07 2.14041e+06 0 
2.14041e+06 -5.9184e+07 0 
0 0 0 
2.44074e+06 -2.75596e+06 0 
-2.75596e+06 -2.36374e+07 0 
0 0 0 
-3.60776e+07 -8.91148e+06 0 
-8.91148e+06 -2.58045e+07 0 
0 0 0 
-1.13716e+07 -7.85048e+06 0 
-7.85048e+06 -1.57331e+06 0 
0 0 0 
1.3452e+06 6.31989e+06 0 
6.31989e+06 1.27854e+07 0 
0 0 0 
0 0 0 
0 0 0 
0 0 0 
-2.66797e+07 -203147 0 
-203147 -5.70728e+07 0 
0 0 0 
-5.53856e+07 -1.2506e+07 0 
-1.2506e+07 -9.6913e+07 0 
0 0 0 
-1.77557e+07 -2.45065e+07 0 
-2.45065e+07 -4.20813e+06 0 
0 0 0 
-1.51788e+07 731787 0 
731787 -7.4465e+07 0 
0 0 0 
2.27643e+07 1.27612e+07 0 
1.27612e+07 1.12407e+06 0 
0 0 0 
2.25239e+07 2.7481e+06 0 
2.7481e+06 -3.47755e+07 0 
0 0 0 
1.72285e+07 -2.31004e+06 0 
-2.31004e+06 -2.29313e+07 0 
0 0 0 
3.20074e+07 6.02294e+06 0 
6.02294e+06 -5.12943e+06 0 
0 0 0 
6.41673e+07 8.32152e+06 0 
8.32152e+06 5.37783e+07 0 
0 0 0 
4.25367e+07 5.82811e+06 0 
5.82811e+06 7.72958e+06 0 
0 0 0 
2.34757e+07 -1.26582e+06 0 
-1.26582e+06 -5.72258e+07 0 
0 0 0 
4.79856e+07 674486 0 
674486 -496372 0 
0 0 0 
1.00694e+08 8.27938e+06 0 
8.27938e+06 7.7357e+07 0 
0 0 0 
1.28336e+08 2.73269e+07 0 
2.73269e+07 7.24214e+07 0 
0 0 0 
1.27916e+08 1.93307e+07 0 
1.93307e+07 7.88204e+07 0 
0 0 0 
1.01718e+08 1.26095e+07 0 
1.26095e+07 3.85526e+07 0 
0 0 0 
1.01158e+08 2.69964e+07 0 
2.69964e+07 6.0201e+07 0 
0 0 0 
7.62469e+07 1.88457e+07 0 
1.88457e+07 2.67266e+07 0 
0 0 0 
8.7051e+07 2.15283e+07 0 
2.15283e+07 4.76706e+07 0 
0 0 0 
1.22683e+08 1.65029e+07 0 
1.65029e+07 1.63204e+08 0 
0 0 0 
6.99319e+07 3.87682e+07 0 
3.87682e+07 4.87515e+07 0 
0 0 0 
9.34317e+07 4.43018e+07 0 
4.43018e+07 9.99897e+07 0 
0 0 0 
3.31871e+07 3.83707e+07 0 
3.83707e+07 3.07479e+07 0 
0 0 0 
5.00498e+07 4.29762e+07 0 
4.29762e+07 7.67922e+07 0 
0 0 0 
3.12678e+07 2.88256e+07 0 
2.88256e+07 5.02602e+07 0 
0 0 0 
1.77993e+07 -2.2065e+07 0 
-2.2065e+07 3.09064e+07 0 
0 0 0 
-1.12365e+07 -9.33123e+06 0 
-9.33123e+06 -3.01006e+07 0 
0 0 0 
3.64724e+07 -2.79552e+07 0 
-2.79552e+07 4.57007e+07 0 
0 0 0 
2.32763e+07 -1.32134e+07 0 
-1.32134e+07 -4.33849e+06 0 
0 0 0 
7.00919e+07 1.83308e+06 0 
1.83308e+06 7.09361e+07 0 
0 0 0 
4.32128e+07 4.40588e+06 0 
4.40588e+06 4.62093e+07 0 
0 0 0 
5.64281e+07 7.90479e+06 0 
7.90479e+06 1.10674e+08 0 
0 0 0 
3.71842e+07 1.09152e+07 0 
1.09152e+07 9.77886e+07 0 
0 0 0 
2.28197e+06 1.72125e+07 0 
1.72125e+07 -3.02341e+07 0 
0 0 0 
-2.45083e+06 1.87689e+07 0 
1.87689e+07 -2.42479e+07 0 
0 0 0 
-385183 4.0581e+07 0 
4.0581e+07 -1.43019e+07 0 
0 0 0 
-7.02695e+06 1.97311e+07 0 
1.97311e+07 -3.38352e+07 0 
0 0 0 
-1.57668e+07 -4.10071e+06 0 
-4.10071e+06 -6.97091e+07 0 
0 0 0 
-1.37616e+07 -1.62991e+07 0 
-1.62991e+07 -5.26896e+07 0 
0 0 0 
-4.09819e+07 -7.10759e+06 0 
-7.10759e+06 -6.66378e+07 0 
0 0 0 
-5.4448e+07 -4.00005e+06 0 
-4.00005e+06 -9.79158e+07 0 
0 0 0 
-1.22956e+08 1.5466e+06 0 
1.5466e+06 -2.17698e+08 0 
0 0 0 
-1.06361e+08 -2.05688e+06 0 
-2.05688e+06 -1.40754e+08 0 
0 0 0 
-6.20114e+07 -6.83906e+06 0 
-6.83906e+06 -6.98985e+07 0 
0 0 0 
-4.2205e+07 -1.05873e+07 0 
-1.05873e+07 -5.07851e+06 0 
0 0 0 
-6.6921e+07 -1.58977e+07 0 
-1.58977e+07 -8.10571e+07 0 
0 0 0 
-7.88702e+07 -5.44892e+06 0 
-5.44892e+06 -1.06066e+08 0 
0 0 0 
-5.36879e+07 2.75192e+06 0 
2.75192e+06 -4.74005e+07 0 
0 0 0 
-3.52408e+06 -1.24165e+07 0 
-1.24165e+07 4.63672e+07 0 
0 0 0 
4.82298e+06 -2.10536e+07 0 
-2.10536e+07 2.86591e+07 0 
0 0 0 
2.04303e+07 -1.20165e+07 0 
-1.20165e+07 -787728 0 
0 0 0 
3.26464e+07 -1.30794e+07 0 
-1.30794e+07 6.61537e+06 0 
0 0 0 
5.51962e+07 -9.68656e+06 0 
-9.68656e+06 9.03524e+07 0 
0 0 0 
6.74598e+07 -8.00087e+06 0 
-8.00087e+06 1.12391e+08 0 
0 0 0 
1.08162e+07 -3.7173e+06 0 
-3.7173e+06 -3.47839e+07 0 
0 0 0 
5.54379e+07 -117218 0 
-117218 8.84532e+07 0 
0 0 0 
4.06271e+07 1.46455e+07 0 
1.46455e+07 5.40629e+07 0 
0 0 0 
-1.22153e+07 9.66231e+06 0 
9.66231e+06 -5.02004e+07 0 
0 0 0 
-1.32873e+07 -1.85083e+06 0 
-1.85083e+06 -2.09187e+07 0 
0 0 0 
9.34904e+06 -3.68086e+06 0 
-3.68086e+06 8.58255e+07 0 
0 0 0 
-3.84498e+07 -9.30756e+06 0 
-9.30756e+06 -2.98073e+07 0 
0 0 0 
-2.11648e+07 -2.59977e+06 0 
-2.59977e+06 1.37591e+07 0 
0 0 0 
9.81295e+06 963533 0 
963533 2.81882e+07 0 
0 0 0 
7.90905e+06 3.55481e+06 0 
3.55481e+06 6.36149e+07 0 
0 0 0 
-5.17595e+07 -335254 0 
-335254 -1.00902e+08 0 
0 0 0 
-4.18999e+07 5.89174e+06 0 
5.89174e+06 -4.54664e+07 0 
0 0 0 
1.65289e+07 2.2184e+07 0 
2.2184e+07 7.16222e+07 0 
0 0 0 
-8.4088e+06 1.62019e+07 0 
1.62019e+07 -1.04208e+07 0 
0 0 0 
-2.15805e+07 -483423 0 
-483423 -2.78606e+07 0 
0 0 0 
1.01368e+07 -6.56694e+06 0 
-6.56694e+06 1.76166e+07 0 
0 0 0 
1.88784e+07 -9.50162e+06 0 
-9.50162e+06 5.96175e+07 0 
0 0 0 
-1.03571e+07 1.48181e+06 0 
1.48181e+06 -2.86508e+07 0 
0 0 0 
3.39172e+06 -3.69733e+06 0 
-3.69733e+06 -4.80375e+07 0 
0 0 0 
2.26653e+07 2.823e+06 0 
2.823e+06 1.81854e+07 0 
0 0 0 
4.02968e+07 6.95992e+06 0 
6.95992e+06 6.24808e+07 0 
0 0 0 
-2.95895e+06 5.8436e+06 0 
5.8436e+06 -6.0665e+07 0 
0 0 0 
4.87321e+06 -1.15747e+07 0 
-1.15747e+07 2.69022e+07 0 
0 0 0 
3.28866e+06 -3.48015e+06 0 
-3.48015e+06 3.56568e+07 0 
0 0 0 
-2.60567e+07 -4.60091e+06 0 
-4.60091e+06 -2.21054e+07 0 
0 0 0 
-2.03579e+07 -8.79048e+06 0 
-8.79048e+06 -7.5027e+06 0 
0 0 0 
-2.59523e+07 3.53528e+06 0 
3.53528e+06 6.57057e+06 0 
0 0 0 
0 0 0 
0 0 0 
0 0 0 
-1.78583e+06 964292 0 
964292 1.77472e+06 0 
0 0 0 
-2.08873e+06 -7.13242e+06 0 
-7.13242e+06 1.93233e+07 0 
0 0 0 
-5.4571e+06 680406 0 
680406 2.47319e+06 0 
0 0 0 
3.1285e+07 3.47418e+06 0 
3.47418e+06 2.24089e+07 0 
0 0 0 
-1.15093e+07 -1.00102e+07 0 
-1.00102e+07 2.46515e+07 0 
0 0 0 
4.17288e+07 -7.30756e+06 0 
-7.30756e+06 4.60015e+07 0 
0 0 0 
-2.26061e+07 -6.96582e+06 0 
-6.96582e+06 2.62352e+07 0 
0 0 0 
1.66902e+07 -123830 0 
-123830 2.67348e+07 0 
0 0 0 
-6.68908e+06 -1.95508e+06 0 
-1.95508e+06 1.79952e+07 0 
0 0 0 
2.99234e+07 -4.93096e+06 0 
-4.93096e+06 3.10715e+07 0 
0 0 0 
6.75001e+06 8895.84 0 
8895.84 1.85388e+07 0 
0 0 0 
-4.16385e+06 5.10946e+06 0 
5.10946e+06 7.25553e+06 0 
0 0 0 
-4.27091e+07 5.03128e+06 0 
5.03128e+06 -1.56773e+07 0 
0 0 0 
5.07646e+06 5.01189e+06 0 
5.01189e+06 520112 0 
0 0 0 
-3.82187e+07 4.15634e+06 0 
4.15634e+06 -1.19039e+07 0 
0 0 0 
1.50013e+07 -4.20532e+06 0 
-4.20532e+06 -19903.8 0 
0 0 0 
9.42125e+06 6.28659e+06 0 
6.28659e+06 7.67703e+06 0 
0 0 0 
-6.7035e+06 8.00809e+06 0 
8.00809e+06 -3.16625e+06 0 
0 0 0 
4.69109e+06 -7.59575e+06 0 
-7.59575e+06 4.44946e+06 0 
0 0 0 
5.65925e+06 -6.96467e+06 0 
-6.96467e+06 8.58206e+06 0 
0 0 0 
1.26699e+07 -1.33822e+07 0 
-1.33822e+07 1.30651e+07 0 
0 0 0 
3.29236e+06 -5.95703e+06 0 
-5.95703e+06 -579006 0 
0 0 0 
2.01135e+07 7.54537e+06 0 
7.54537e+06 2.38009e+06 0 
0 0 0 
-5.08795e+06 1.29112e+07 0 
1.29112e+07 -7.92232e+06 0 
0 0 0 
-1.10095e+07 1.41381e+07 0 
1.41381e+07 -2.74065e+07 0 
0 0 0 
-2.82386e+07 4.22374e+06 0 
4.22374e+06 -2.08631e+07 0 
0 0 0 
-193386 -1.30697e+07 0 
-1.30697e+07 1.00394e+06 0 
0 0 0 
-7.27299e+06 -1.73915e+07 0 
-1.73915e+07 1.14323e+07 0 
0 0 0 
1.89311e+07 -2.16448e+07 0 
-2.16448e+07 1.49212e+07 0 
0 0 0 
-3.40608e+07 9.7444e+06 0 
9.7444e+06 -8.60423e+06 0 
0 0 0 
1.46448e+07 5.85821e+06 0 
5.85821e+06 -7.38982e+06 0 
0 0 0 
-4.89545e+07 1.51367e+07 0 
1.51367e+07 -2.8969e+07 0 
0 0 0 
2.75343e+07 3.40409e+06 0 
3.40409e+06 -4.00104e+06 0 
0 0 0 
408617 -2.27784e+07 0 
-2.27784e+07 -3.21115e+06 0 
0 0 0 
4.962e+07 -7.18624e+06 0 
-7.18624e+06 2.88549e+07 0 
0 0 0 
-2.60455e+07 -1.2112e+07 0 
-1.2112e+07 -1.08944e+07 0 
0 0 0 
1.13489e+07 -1.26589e+06 0 
-1.26589e+06 -7.11563e+06 0 
0 0 0 
-5.63016e+07 2.86021e+06 0 
2.86021e+06 -4.58814e+07 0 
0 0 0 
2.78911e+07 -1.89819e+06 0 
-1.89819e+06 -1.20615e+07 0 
0 0 0 
-3.53545e+07 -8.65644e+06 0 
-8.65644e+06 -3.70802e+07 0 
0 0 0 
212790 1.16072e+06 0 
1.16072e+06 -1.42469e+07 0 
0 0 0 
-2.26509e+06 2.13374e+06 0 
2.13374e+06 745785 0 
0 0 0 
-1.0751e+06 8.43142e+06 0 
8.43142e+06 -1.07509e+07 0 
0 0 0 
5.63934e+06 8.65123e+06 0 
8.65123e+06 1.49123e+06 0 
0 0 0 
1.79927e+07 5.33321e+06 0 
5.33321e+06 1.01069e+07 0 
0 0 0 
-3.97343e+06 3.10163e+06 0 
3.10163e+06 -1.45795e+06 0 
0 0 0 
1.42389e+07 8.70107e+06 0 
8.70107e+06 1.00023e+07 0 
0 0 0 
892067 -1.56709e+06 0 
-1.56709e+06 8.09452e+06 0 
0 0 0 
-2.92563e+07 -6.93123e+06 0 
-6.93123e+06 2.46374e+06 0 
0 0 0 
-2.68179e+06 -1.5605e+07 0 
-1.5605e+07 -4.78405e+06 0 
0 0 0 
-3.6217e+07 -2.5716e+07 0 
-2.5716e+07 -1.26166e+07 0 
0 0 0 
1.49123e+06 -1.16619e+07 0 
-1.16619e+07 6.24703e+06 0 
0 0 0 
-738144 -5.16984e+06 0 
-5.16984e+06 -2.90797e+06 0 
0 0 0 
2.16534e+07 4.05249e+06 0 
4.05249e+06 584543 0 
0 0 0 
-1.82307e+07 7.78139e+06 0 
7.78139e+06 -2.13355e+07 0 
0 0 0 
-2.21794e+07 -3.42784e+06 0 
-3.42784e+06 -2.74553e+07 0 
0 0 0 
-6.28263e+06 -9.00343e+06 0 
-9.00343e+06 -2.15358e+07 0 
0 0 0 
-2.28235e+07 -4.89879e+06 0 
-4.89879e+06 -2.31218e+06 0 
0 0 0 
1.34829e+07 2.24385e+06 0 
2.24385e+06 1.79296e+07 0 
0 0 0 
3.4492e+07 9.67641e+06 0 
9.67641e+06 3.92517e+07 0 
0 0 0 
-1.11854e+07 4.43451e+06 0 
4.43451e+06 3.13286e+07 0 
0 0 0 
1.13185e+06 1.13866e+07 0 
1.13866e+07 1.85234e+07 0 
0 0 0 
-1.6877e+07 -9.40746e+06 0 
-9.40746e+06 1.01451e+07 0 
0 0 0 
-1.41101e+06 3.90191e+06 0 
3.90191e+06 1.14268e+07 0 
0 0 0 
1.40284e+07 -6.92705e+06 0 
-6.92705e+06 2.66493e+07 0 
0 0 0 
2.73165e+07 -3.7094e+06 0 
-3.7094e+06 3.63928e+07 0 
0 0 0 
1.04531e+07 -7.21295e+06 0 
-7.21295e+06 1.63608e+07 0 
0 0 0 
7.70509e+06 -1.87158e+06 0 
-1.87158e+06 1.2001e+07 0 
0 0 0 
-7.58829e+06 5.43721e+06 0 
5.43721e+06 -1.32527e+07 0 
0 0 0 
-4.08227e+07 1.18904e+07 0 
1.18904e+07 -4.40615e+07 0 
0 0 0 
1.77843e+07 7.40102e+06 0 
7.40102e+06 -3.41155e+07 0 
0 0 0 
-5.43394e+07 9.20941e+06 0 
9.20941e+06 -6.08749e+07 0 
0 0 0 
4.92738e+06 -5.32939e+06 0 
-5.32939e+06 -2.1906e+07 0 
0 0 0 
-1.84293e+07 3.55777e+06 0 
3.55777e+06 -2.35134e+07 0 
0 0 0 
1.61916e+07 -7.30262e+06 0 
-7.30262e+06 4.60727e+06 0 
0 0 0 
-2.27012e+07 8.14318e+06 0 
8.14318e+06 1.15554e+06 0 
0 0 0 
6.0839e+07 2.06958e+06 0 
2.06958e+06 3.25785e+07 0 
0 0 0 
-2.64941e+07 1.45316e+07 0 
1.45316e+07 4.27317e+06 0 
0 0 0 
1.78684e+07 8.01432e+06 0 
8.01432e+06 -3.22221e+06 0 
0 0 0 
-4.57586e+07 3.79118e+06 0 
3.79118e+06 -4.14843e+07 0 
0 0 0 
-566302 1.6121e+07 0 
1.6121e+07 -3.97413e+07 0 
0 0 0 
-1.71634e+07 1.33914e+07 0 
1.33914e+07 1.02402e+07 0 
0 0 0 
-3.41612e+07 6.14591e+06 0 
6.14591e+06 -4.32953e+07 0 
0 0 0 
0 0 0 
0 0 0 
0 0 0 
-2.96185e+07 -1.16375e+07 0 
-1.16375e+07 -7.99094e+07 0 
0 0 0 
-1.23332e+07 -4.50516e+06 0 
-4.50516e+06 -7.28178e+07 0 
0 0 0 
3.87869e+07 4.04545e+06 0 
4.04545e+06 8.80824e+06 0 
0 0 0 
2.42634e+07 1.22857e+07 0 
1.22857e+07 -3.32595e+07 0 
0 0 0 
3.15886e+07 1.69734e+06 0 
1.69734e+06 -1.20436e+07 0 
0 0 0 
2.81335e+07 -293452 0 
-293452 -2.57936e+07 0 
0 0 0 
5.71559e+07 1.41209e+07 0 
1.41209e+07 7.76491e+06 0 
0 0 0 
4.69455e+07 1.9006e+07 0 
1.9006e+07 -1.34312e+07 0 
0 0 0 
4.35082e+07 2.83846e+06 0 
2.83846e+06 3.80545e+07 0 
0 0 0 
2.72321e+07 -7.19531e+06 0 
-7.19531e+06 -1.16179e+07 0 
0 0 0 
3.81264e+07 951464 0 
951464 -3.15086e+07 0 
0 0 0 
7.24188e+07 1.34085e+07 0 
1.34085e+07 7.73538e+06 0 
0 0 0 
9.39195e+07 1.80072e+07 0 
1.80072e+07 9.00253e+07 0 
0 0 0 
7.64093e+07 2.24614e+07 0 
2.24614e+07 5.91932e+07 0 
0 0 0 
7.80426e+07 1.6885e+07 0 
1.6885e+07 5.51484e+07 0 
0 0 0 
7.37783e+07 2.24049e+07 0 
2.24049e+07 3.87889e+07 0 
0 0 0 
5.61331e+07 1.15334e+07 0 
1.15334e+07 3.56913e+07 0 
0 0 0 
4.70411e+07 1.01529e+06 0 
1.01529e+06 9.54474e+06 0 
0 0 0 
5.98744e+07 1.11876e+07 0 
1.11876e+07 4.70894e+07 0 
0 0 0 
8.60985e+07 1.91864e+07 0 
1.91864e+07 1.58859e+08 0 
0 0 0 
5.94033e+07 2.67697e+07 0 
2.67697e+07 6.89899e+07 0 
0 0 0 
3.8148e+07 2.5904e+07 0 
2.5904e+07 6.03872e+07 0 
0 0 0 
5.97904e+07 2.47731e+07 0 
2.47731e+07 5.08926e+07 0 
0 0 0 
5.3347e+07 2.65918e+07 0 
2.65918e+07 6.64201e+07 0 
0 0 0 
6.20938e+07 4.09303e+07 0 
4.09303e+07 8.3583e+07 0 
0 0 0 
6.985e+07 3.23185e+07 0 
3.23185e+07 1.43596e+08 0 
0 0 0 
1.60843e+07 -1.56165e+07 0 
-1.56165e+07 5.45119e+07 0 
0 0 0 
6.09752e+07 -1.97467e+07 0 
-1.97467e+07 5.59762e+07 0 
0 0 0 
4.74295e+07 -1.34838e+07 0 
-1.34838e+07 1.78085e+07 0 
0 0 0 
3.38431e+07 -4.17607e+06 0 
-4.17607e+06 1.89569e+07 0 
0 0 0 
8.6441e+07 1.17408e+07 0 
1.17408e+07 5.15157e+07 0 
0 0 0 
9.11727e+07 2.41909e+06 0 
2.41909e+06 1.23801e+08 0 
0 0 0 
7.26551e+07 -2.21422e+06 0 
-2.21422e+06 1.08213e+08 0 
0 0 0 
-3.08719e+06 5.32485e+06 0 
5.32485e+06 -2.05413e+07 0 
0 0 0 
-3.07082e+07 7.6501e+06 0 
7.6501e+06 -2.8702e+07 0 
0 0 0 
-5.26679e+07 2.45358e+07 0 
2.45358e+07 -2.41321e+07 0 
0 0 0 
-7.84941e+07 4.27812e+06 0 
4.27812e+06 -8.90761e+07 0 
0 0 0 
-9.82034e+07 -1.4787e+07 0 
-1.4787e+07 -1.28715e+08 0 
0 0 0 
-8.95966e+07 -3.07008e+07 0 
-3.07008e+07 -7.92581e+07 0 
0 0 0 
-6.77269e+07 -1.56994e+07 0 
-1.56994e+07 -5.31623e+07 0 
0 0 0 
-8.75288e+07 -4.55167e+06 0 
-4.55167e+06 -9.23309e+07 0 
0 0 0 
-1.31179e+08 -7.34491e+06 0 
-7.34491e+06 -2.41212e+08 0 
0 0 0 
-9.72099e+07 -4.03778e+06 0 
-4.03778e+06 -1.14183e+08 0 
0 0 0 
-9.74486e+07 1.62885e+06 0 
1.62885e+06 -8.84213e+07 0 
0 0 0 
-7.93904e+07 -3.90469e+06 0 
-3.90469e+06 -3.83148e+07 0 
0 0 0 
-9.36797e+07 -1.94782e+07 0 
-1.94782e+07 -7.86362e+07 0 
0 0 0 
-8.96019e+07 -3.23686e+06 0 
-3.23686e+06 -9.14269e+07 0 
0 0 0 
-9.36914e+07 8.06442e+06 0 
8.06442e+06 -5.69019e+07 0 
0 0 0 
-7.58984e+07 3.54519e+06 0 
3.54519e+06 1.26025e+07 0 
0 0 0 
-5.15723e+07 -9.27308e+06 0 
-9.27308e+06 -4.33698e+06 0 
0 0 0 
-3.87725e+07 -899935 0 
-899935 5.16042e+06 0 
0 0 0 
-2.01718e+07 5.47387e+06 0 
5.47387e+06 -1.58615e+07 0 
0 0 0 
3.33965e+07 -7.22844e+06 0 
-7.22844e+06 7.42095e+07 0 
0 0 0 
2.93431e+07 -1.17221e+07 0 
-1.17221e+07 9.30326e+07 0 
0 0 0 
-2.04149e+07 -1.32231e+07 0 
-1.32231e+07 -3.62332e+07 0 
0 0 0 
1.21438e+07 4.5922e+06 0 
4.5922e+06 9.4413e+07 0 
0 0 0 
-1.99155e+07 -5.35427e+06 0 
-5.35427e+06 2.16477e+07 0 
0 0 0 
-4.3729e+07 3.10769e+06 0 
3.10769e+06 -5.75374e+07 0 
0 0 0 
-2.73159e+07 1.30373e+06 0 
1.30373e+06 -3.29655e+07 0 
0 0 0 
2.49063e+07 2.72012e+06 0 
2.72012e+06 9.39542e+07 0 
0 0 0 
9.48377e+06 -3.94712e+06 0 
-3.94712e+06 -1.09772e+07 0 
0 0 0 
4.31648e+07 8.49632e+06 0 
8.49632e+06 4.1755e+07 0 
0 0 0 
3.67267e+07 6.82922e+06 0 
6.82922e+06 2.26128e+07 0 
0 0 0 
5.97746e+07 -1.00064e+07 0 
-1.00064e+07 7.78508e+07 0 
0 0 0 
-9.21337e+06 -8.47956e+06 0 
-8.47956e+06 -7.18038e+07 0 
0 0 0 
1.57937e+07 1.52086e+07 0 
1.52086e+07 -829060 0 
0 0 0 
1.55711e+07 2.7519e+07 0 
2.7519e+07 6.40616e+07 0 
0 0 0 
-1.83026e+07 1.0385e+07 0 
1.0385e+07 -2.93424e+07 0 
0 0 0 
-6.91274e+06 6.99414e+06 0 
6.99414e+06 -2.33607e+07 0 
0 0 0 
-1.04373e+07 9.08027e+06 0 
9.08027e+06 -5.13436e+06 0 
0 0 0 
1.94598e+07 -5.62885e+06 0 
-5.62885e+06 4.97877e+07 0 
0 0 0 
-1.65142e+07 -9.53599e+06 0 
-9.53599e+06 -1.65352e+07 0 
0 0 0 
-4.3933e+07 1.23614e+06 0 
1.23614e+06 -5.04139e+07 0 
0 0 0 
-1.99457e+07 -435912 0 
-435912 -5.71896e+06 0 
0 0 0 
-1.12023e+07 6.01826e+06 0 
6.01826e+06 4.58745e+07 0 
0 0 0 
-4.98554e+07 -1.35989e+07 0 
-1.35989e+07 -6.42517e+07 0 
0 0 0 
-2.13464e+07 -5.45223e+06 0 
-5.45223e+06 -9.48449e+06 0 
0 0 0 
-7.48524e+06 -9.66861e+06 0 
-9.66861e+06 3.31591e+07 0 
0 0 0 
-1.17229e+07 418052 0 
418052 -5.91837e+06 0 
0 0 0 
1.07375e+07 2.1592e+06 0 
2.1592e+06 1.93083e+07 0 
0 0 0 
4.68905e+07 489155 0 
489155 2.76669e+07 0 
0 0 0 
4.58338e+07 9.23075e+06 0 
9.23075e+06 2.33899e+07 0 
0 0 0 
0 0 0 
0 0 0 
0 0 0 
-6.27056e+06 778240 0 
778240 653824 0 
0 0 0 
-8.17949e+06 6.75635e+06 0 
6.75635e+06 -5.72615e+06 0 
0 0 0 
3.69619e+06 -1.0693e+06 0 
-1.0693e+06 4.34873e+06 0 
0 0 0 
-4.29107e+06 906779 0 
906779 -1.6801e+07 0 
0 0 0 
-2.83521e+07 -7.05106e+06 0 
-7.05106e+06 -4.33426e+07 0 
0 0 0 
1.93991e+07 -4.20722e+06 0 
-4.20722e+06 -3.18667e+07 0 
0 0 0 
-3.74128e+07 -1.64299e+06 0 
-1.64299e+06 -5.01044e+07 0 
0 0 0 
-3.92852e+06 806822 0 
806822 -3.89498e+07 0 
0 0 0 
-3.32491e+07 181192 0 
181192 -4.72137e+07 0 
0 0 0 
2.27804e+07 5.04833e+06 0 
5.04833e+06 -1.82872e+07 0 
0 0 0 
-2.42103e+07 3.67661e+06 0 
3.67661e+06 -3.06522e+07 0 
0 0 0 
-2.41999e+06 -1.8254e+06 0 
-1.8254e+06 -3.31901e+07 0 
0 0 0 
-5.76099e+07 6.61469e+06 0 
6.61469e+06 -5.78775e+07 0 
0 0 0 
-1.31775e+07 3.04801e+06 0 
3.04801e+06 -5.3741e+07 0 
0 0 0 
-6.65032e+07 4.00094e+06 0 
4.00094e+06 -7.44138e+07 0 
0 0 0 
2.51733e+07 4.60498e+06 0 
4.60498e+06 -2.45768e+07 0 
0 0 0 
-1.61165e+06 1.04229e+07 0 
1.04229e+07 -1.845e+07 0 
0 0 0 
-5.88088e+06 1.48365e+07 0 
1.48365e+07 -2.42981e+06 0 
0 0 0 
-1.41709e+07 3.50638e+06 0 
3.50638e+06 428788 0 
0 0 0 
1.0439e+06 -272748 0 
-272748 1.44005e+07 0 
0 0 0 
1.66286e+07 -4.79041e+06 0 
-4.79041e+06 2.11294e+07 0 
0 0 0 
1.68039e+07 -4.74284e+06 0 
-4.74284e+06 2.62381e+07 0 
0 0 0 
3.54016e+07 6.90927e+06 0 
6.90927e+06 2.41429e+07 0 
0 0 0 
6.23526e+06 -3.07569e+06 0 
-3.07569e+06 2.27637e+06 0 
0 0 0 
-1.23723e+07 1.06456e+06 0 
1.06456e+06 -6.56978e+06 0 
0 0 0 
-4.36794e+07 18364.1 0 
18364.1 -3.97801e+07 0 
0 0 0 
-2.51439e+07 -5.53357e+06 0 
-5.53357e+06 -2.63475e+07 0 
0 0 0 
-2.1012e+07 -1.08456e+07 0 
-1.08456e+07 -1.76828e+07 0 
0 0 0 
3.0675e+07 -1.4162e+07 0 
-1.4162e+07 2.25256e+07 0 
0 0 0 
-1.30825e+06 -4.50462e+06 0 
-4.50462e+06 1.48177e+07 0 
0 0 0 
3.09617e+07 2.81001e+06 0 
2.81001e+06 2.77008e+07 0 
0 0 0 
-3.0389e+07 1.0313e+07 0 
1.0313e+07 1.21501e+07 0 
0 0 0 
8.64736e+06 6.28887e+06 0 
6.28887e+06 2.37502e+07 0 
0 0 0 
-3.00863e+06 -5.34064e+06 0 
-5.34064e+06 3.3692e+07 0 
0 0 0 
6.29841e+07 -1.21419e+07 0 
-1.21419e+07 5.22711e+07 0 
0 0 0 
-4.39371e+06 -1.64556e+07 0 
-1.64556e+07 3.6754e+07 0 
0 0 0 
4.83901e+07 -9.38544e+06 0 
-9.38544e+06 5.47559e+07 0 
0 0 0 
-2.38688e+07 3.42705e+06 0 
3.42705e+06 3.96546e+07 0 
0 0 0 
2.98816e+07 8.63869e+06 0 
8.63869e+06 4.80396e+07 0 
0 0 0 
-5.93539e+06 1.02416e+06 0 
1.02416e+06 5.26854e+07 0 
0 0 0 
3.5884e+07 5.91807e+06 0 
5.91807e+06 7.25214e+07 0 
0 0 0 
1.66739e+07 2.5787e+06 0 
2.5787e+06 5.72652e+07 0 
0 0 0 
3.53652e+07 -6.39054e+06 0 
-6.39054e+06 6.70684e+07 0 
0 0 0 
1.44501e+07 8.79514e+06 0 
8.79514e+06 4.26292e+07 0 
0 0 0 
3.19411e+06 -2.8334e+06 0 
-2.8334e+06 1.66445e+07 0 
0 0 0 
1.28203e+07 -2.64597e+06 0 
-2.64597e+06 131897 0 
0 0 0 
-3.49856e+06 1.90588e+06 0 
1.90588e+06 -2.22569e+07 0 
0 0 0 
-2.16936e+07 -4.1885e+06 0 
-4.1885e+06 -4.0261e+07 0 
0 0 0 
-3.49549e+07 -1.16888e+07 0 
-1.16888e+07 -5.4079e+07 0 
0 0 0 
-4.70257e+07 -1.111e+07 0 
-1.111e+07 -5.77943e+07 0 
0 0 0 
-4.3189e+07 -8.21919e+06 0 
-8.21919e+06 -5.15485e+07 0 
0 0 0 
-1.0151e+07 -1.20421e+07 0 
-1.20421e+07 -4.11488e+07 0 
0 0 0 
1.29236e+07 452292 0 
452292 -3.42678e+07 0 
0 0 0 
1.10879e+07 803874 0 
803874 -2.21936e+07 0 
0 0 0 
-2.24874e+07 -781006 0 
-781006 -2.72896e+07 0 
0 0 0 
-2.59011e+07 247558 0 
247558 -2.30075e+07 0 
0 0 0 
-1.72577e+07 -8.76686e+06 0 
-8.76686e+06 -8.11364e+06 0 
0 0 0 
-8.83128e+06 2.34665e+06 0 
2.34665e+06 -6.83726e+06 0 
0 0 0 
1.54221e+07 6.56951e+06 0 
6.56951e+06 1.12582e+07 0 
0 0 0 
1.79465e+07 -357884 0 
-357884 -8.68128e+06 0 
0 0 0 
-1.79188e+07 -292270 0 
-292270 -2.65731e+07 0 
0 0 0 
-3.94481e+07 -550961 0 
-550961 -3.04578e+07 0 
0 0 0 
-3.83599e+06 2.14908e+06 0 
2.14908e+06 -1.15149e+07 0 
0 0 0 
-1.12027e+07 -1.60959e+06 0 
-1.60959e+06 6.35312e+06 0 
0 0 0 
1.24857e+07 5.65719e+06 0 
5.65719e+06 2.32567e+07 0 
0 0 0 
2.24924e+07 -7.16992e+06 0 
-7.16992e+06 2.97889e+07 0 
0 0 0 
2.70152e+06 -4.40227e+06 0 
-4.40227e+06 2.80265e+07 0 
0 0 0 
2.86173e+07 -7.73199e+06 0 
-7.73199e+06 2.92661e+07 0 
0 0 0 
883354 45848.5 0 
45848.5 1.10931e+07 0 
0 0 0 
-1.02627e+07 7.96825e+06 0 
7.96825e+06 -6.82151e+06 0 
0 0 0 
-4.07726e+06 7.87783e+06 0 
7.87783e+06 -2.82161e+07 0 
0 0 0 
-4.03596e+07 4.30098e+06 0 
4.30098e+06 -4.74587e+07 0 
0 0 0 
-8.38311e+06 5.83461e+06 0 
5.83461e+06 -3.57525e+07 0 
0 0 0 
-3.1844e+07 -790777 0 
-790777 -4.51551e+07 0 
0 0 0 
1.91527e+07 5.41744e+06 0 
5.41744e+06 -2.54627e+07 0 
0 0 0 
-4.07793e+07 3.00567e+06 0 
3.00567e+06 -3.33525e+07 0 
0 0 0 
5.97285e+07 6.37732e+06 0 
6.37732e+06 9.14104e+06 0 
0 0 0 
-4.39356e+07 -7.05061e+06 0 
-7.05061e+06 -2.05282e+07 0 
0 0 0 
3.19576e+07 -6.9117e+06 0 
-6.9117e+06 1.42257e+06 0 
0 0 0 
-3.01074e+07 -6.61956e+06 0 
-6.61956e+06 -1.20656e+07 0 
0 0 0 
1.12292e+07 9.15936e+06 0 
9.15936e+06 -6.0523e+06 0 
0 0 0 
-3.24204e+07 1.09275e+07 0 
1.09275e+07 -4.00419e+07 0 
0 0 0 
2.55546e+07 5.16975e+06 0 
5.16975e+06 -1.35705e+07 0 
0 0 0 
3.05001e+07 1.83068e+07 0 
1.83068e+07 -1.44146e+07 0 
0 0 0 
0 0 0 
0 0 0 
0 0 0 
-2.38217e+07 3.27498e+06 0 
3.27498e+06 -7.96712e+07 0 
0 0 0 
-2.87578e+07 8.89236e+06 0 
8.89236e+06 -7.13836e+07 0 
0 0 0 
-3.04937e+06 9.58235e+06 0 
9.58235e+06 9.77031e+06 0 
0 0 0 
-2.19424e+06 2.12763e+07 0 
2.12763e+07 -4.20346e+07 0 
0 0 0 
1.48458e+07 2.74937e+07 0 
2.74937e+07 -3.26129e+07 0 
0 0 0 
2.57753e+07 9.42217e+06 0 
9.42217e+06 -2.19653e+07 0 
0 0 0 
3.37649e+07 1.0695e+07 0 
1.0695e+07 1.59716e+07 0 
0 0 0 
1.80618e+07 1.64168e+06 0 
1.64168e+06 -4.2763e+07 0 
0 0 0 
4.91281e+07 5.54228e+06 0 
5.54228e+06 3.2927e+07 0 
0 0 0 
2.58178e+07 5.3043e+06 0 
5.3043e+06 -2.61236e+07 0 
0 0 0 
2.12857e+07 1.17809e+07 0 
1.17809e+07 -1.56449e+07 0 
0 0 0 
3.76799e+07 1.61251e+07 0 
1.61251e+07 1.38327e+07 0 
0 0 0 
9.34696e+07 2.23876e+07 0 
2.23876e+07 7.8675e+07 0 
0 0 0 
1.10949e+08 2.42259e+07 0 
2.42259e+07 7.79686e+07 0 
0 0 0 
9.3755e+07 1.30389e+07 0 
1.30389e+07 5.49597e+07 0 
0 0 0 
9.93088e+07 8.98164e+06 0 
8.98164e+06 3.94509e+07 0 
0 0 0 
1.09678e+08 -811961 0 
-811961 5.58626e+07 0 
0 0 0 
7.99669e+07 2.17504e+07 0 
2.17504e+07 2.56117e+07 0 
0 0 0 
8.86189e+07 1.67537e+07 0 
1.67537e+07 5.12913e+07 0 
0 0 0 
1.48999e+08 5.62149e+06 0 
5.62149e+06 1.72285e+08 0 
0 0 0 
1.19322e+08 1.29752e+07 0 
1.29752e+07 1.15663e+08 0 
0 0 0 
9.6796e+07 2.59913e+07 0 
2.59913e+07 6.82753e+07 0 
0 0 0 
7.10767e+07 2.82329e+07 0 
2.82329e+07 5.89718e+07 0 
0 0 0 
6.19687e+07 2.08511e+07 0 
2.08511e+07 7.7698e+07 0 
0 0 0 
3.86224e+07 3.12359e+07 0 
3.12359e+07 9.63413e+07 0 
0 0 0 
3.69664e+07 1.50701e+07 0 
1.50701e+07 1.20154e+08 0 
0 0 0 
4.7124e+07 3.32651e+06 0 
3.32651e+06 1.55513e+08 0 
0 0 0 
6.31508e+07 -2.42147e+07 0 
-2.42147e+07 1.17626e+08 0 
0 0 0 
3.90179e+07 -2.46444e+07 0 
-2.46444e+07 5.59419e+07 0 
0 0 0 
1.02174e+07 -1.89378e+07 0 
-1.89378e+07 4.43734e+06 0 
0 0 0 
8.95827e+07 -1.18717e+07 0 
-1.18717e+07 8.32357e+07 0 
0 0 0 
8.71217e+07 -1.35275e+07 0 
-1.35275e+07 7.74179e+07 0 
0 0 0 
7.714e+07 -2.40395e+07 0 
-2.40395e+07 1.31496e+08 0 
0 0 0 
-6.37421e+06 -1.76792e+07 0 
-1.76792e+07 -2.42795e+07 0 
0 0 0 
-1.79169e+07 -8.8971e+06 0 
-8.8971e+06 -1.45653e+07 0 
0 0 0 
-1.87234e+07 1.00336e+07 0 
1.00336e+07 -8.54579e+06 0 
0 0 0 
-6.6827e+07 1.14972e+07 0 
1.14972e+07 -8.02101e+07 0 
0 0 0 
-1.05061e+08 -3.37096e+06 0 
-3.37096e+06 -1.64476e+08 0 
0 0 0 
-6.59724e+07 -1.28803e+07 0 
-1.28803e+07 -9.51661e+07 0 
0 0 0 
-3.83119e+07 -1.72468e+07 0 
-1.72468e+07 -1.18904e+07 0 
0 0 0 
-6.14039e+07 -1.28106e+07 0 
-1.28106e+07 -7.29819e+07 0 
0 0 0 
-1.17663e+08 147581 0 
147581 -2.33935e+08 0 
0 0 0 
-8.07384e+07 -5.01132e+06 0 
-5.01132e+06 -1.09212e+08 0 
0 0 0 
-7.44197e+07 -2.08883e+06 0 
-2.08883e+06 -8.29117e+07 0 
0 0 0 
-6.16353e+07 -1.26621e+07 0 
-1.26621e+07 -3.67005e+07 0 
0 0 0 
-7.53679e+07 -2.48331e+06 0 
-2.48331e+06 -7.75224e+07 0 
0 0 0 
-6.85882e+07 -8.34091e+06 0 
-8.34091e+06 -7.83979e+07 0 
0 0 0 
-4.70671e+07 -5.86416e+06 0 
-5.86416e+06 -1.63174e+07 0 
0 0 0 
-1.80521e+07 1.75003e+07 0 
1.75003e+07 2.88792e+07 0 
0 0 0 
-3.78633e+07 -260652 0 
-260652 -1.86986e+07 0 
0 0 0 
-1.90631e+07 5.44074e+06 0 
5.44074e+06 2.77493e+07 0 
0 0 0 
-3.72377e+07 3.79383e+06 0 
3.79383e+06 -2.60315e+07 0 
0 0 0 
-4.82615e+06 3.1349e+06 0 
3.1349e+06 6.29626e+07 0 
0 0 0 
8.51029e+06 -7.24244e+06 0 
-7.24244e+06 6.08844e+07 0 
0 0 0 
-6.05822e+06 -2.82582e+06 0 
-2.82582e+06 -1.85377e+07 0 
0 0 0 
4.71293e+07 -6.73293e+06 0 
-6.73293e+06 1.13247e+08 0 
0 0 0 
422001 -586103 0 
-586103 2.32604e+07 0 
0 0 0 
-2.60863e+07 1.24153e+07 0 
1.24153e+07 -4.34349e+07 0 
0 0 0 
-7.39334e+06 9.47452e+06 0 
9.47452e+06 -1.50694e+07 0 
0 0 0 
2.57861e+07 3.96631e+06 0 
3.96631e+06 6.86503e+07 0 
0 0 0 
8.26665e+06 162684 0 
162684 8.32261e+06 0 
0 0 0 
3.06979e+07 1.18126e+07 0 
1.18126e+07 4.09916e+07 0 
0 0 0 
1.93503e+07 5.83951e+06 0 
5.83951e+06 -2.07361e+06 0 
0 0 0 
1.50945e+07 -1.14261e+07 0 
-1.14261e+07 4.64047e+07 0 
0 0 0 
-9.20778e+06 -6.74307e+06 0 
-6.74307e+06 -3.95624e+07 0 
0 0 0 
3.6449e+06 1.03833e+07 0 
1.03833e+07 2.64112e+07 0 
0 0 0 
1.28136e+07 2.01778e+07 0 
2.01778e+07 4.59806e+07 0 
0 0 0 
-4.19855e+07 9.28197e+06 0 
9.28197e+06 -6.8199e+07 0 
0 0 0 
-3.55765e+07 -1.54753e+06 0 
-1.54753e+06 -1.02851e+07 0 
0 0 0 
-2.45919e+07 3.81167e+06 0 
3.81167e+06 -2.43646e+07 0 
0 0 0 
-1.48412e+07 -4.70064e+06 0 
-4.70064e+06 1.77369e+07 0 
0 0 0 
-1.90189e+07 -1.10449e+07 0 
-1.10449e+07 -5.63842e+06 0 
0 0 0 
-3.02837e+07 -3.26503e+06 0 
-3.26503e+06 -4.17006e+07 0 
0 0 0 
-6.47028e+06 903419 0 
903419 367915 0 
0 0 0 
1.53603e+07 -2.54044e+06 0 
-2.54044e+06 4.87044e+07 0 
0 0 0 
-1.85799e+07 2.17863e+06 0 
2.17863e+06 -4.03931e+07 0 
0 0 0 
-3.9619e+06 -8.41324e+06 0 
-8.41324e+06 -1.14755e+07 0 
0 0 0 
2.4311e+07 5.70414e+06 0 
5.70414e+06 3.40279e+07 0 
0 0 0 
1.22965e+07 -7.57193e+06 0 
-7.57193e+06 721313 0 
0 0 0 
2.6586e+07 -1.88906e+06 0 
-1.88906e+06 5.089e+07 0 
0 0 0 
8.17293e+06 1.02374e+07 0 
1.02374e+07 3.78065e+06 0 
0 0 0 
1.02916e+07 4.42351e+06 0 
4.42351e+06 1.45787e+07 0 
0 0 0 
-5.99692e+06 6.11637e+06 0 
6.11637e+06 -1.50666e+07 0 
0 0 0 
0 0 0 
0 0 0 
0 0 0 
-1.11082e+07 4.61858e+06 0 
4.61858e+06 -2.61679e+06 0 
0 0 0 
1.88768e+07 1.04734e+06 0 
1.04734e+06 1.06387e+07 0 
0 0 0 
-2.09088e+07 2.29229e+06 0 
2.29229e+06 -3.56826e+06 0 
0 0 0 
1.31647e+07 -1.51702e+06 0 
-1.51702e+06 6.99533e+06 0 
0 0 0 
-1.31205e+07 7.39251e+06 0 
7.39251e+06 3.64611e+06 0 
0 0 0 
2.80348e+07 -2.50674e+06 0 
-2.50674e+06 2.63955e+07 0 
0 0 0 
-1.23752e+07 -5.37335e+06 0 
-5.37335e+06 1.33996e+07 0 
0 0 0 
4.14719e+07 844870 0 
844870 4.79132e+07 0 
0 0 0 
-1.86169e+07 5.88223e+06 0 
5.88223e+06 2.89421e+07 0 
0 0 0 
3.06886e+07 -4.45419e+06 0 
-4.45419e+06 4.07122e+07 0 
0 0 0 
-525395 -9.68308e+06 0 
-9.68308e+06 2.80129e+07 0 
0 0 0 
1.31635e+07 -7.84562e+06 0 
-7.84562e+06 2.32711e+07 0 
0 0 0 
-3.36004e+07 -1.28998e+07 0 
-1.28998e+07 -2.31953e+07 0 
0 0 0 
-1.19157e+07 3.09726e+06 0 
3.09726e+06 -2.00665e+07 0 
0 0 0 
-2.34911e+07 9.60839e+06 0 
9.60839e+06 -5.74388e+06 0 
0 0 0 
3.92806e+07 1.5099e+07 0 
1.5099e+07 2.61712e+07 0 
0 0 0 
1.04847e+07 9.27189e+06 0 
9.27189e+06 3.15262e+07 0 
0 0 0 
1.04382e+07 4.63761e+06 0 
4.63761e+06 9.70124e+06 0 
0 0 0 
-3.07479e+07 4.12164e+06 0 
4.12164e+06 -1.53115e+07 0 
0 0 0 
-428667 1.09165e+07 0 
1.09165e+07 -732283 0 
0 0 0 
-3.35775e+06 -1.72501e+06 0 
-1.72501e+06 1.11102e+07 0 
0 0 0 
2.69499e+07 -334129 0 
-334129 2.88153e+07 0 
0 0 0 
1.92796e+07 -5.34522e+06 0 
-5.34522e+06 1.83452e+07 0 
0 0 0 
-5.26043e+06 -1.03075e+07 0 
-1.03075e+07 -1.26736e+07 0 
0 0 0 
-1.6933e+06 -4.22504e+06 0 
-4.22504e+06 -2.57138e+07 0 
0 0 0 
-4.38325e+07 -958722 0 
-958722 -4.20268e+07 0 
0 0 0 
-3.70214e+07 1.00629e+07 0 
1.00629e+07 -5.00361e+07 0 
0 0 0 
-2.81128e+07 2.64545e+06 0 
2.64545e+06 -2.30687e+07 0 
0 0 0 
2.15893e+07 1.46186e+06 0 
1.46186e+06 6.34953e+06 0 
0 0 0 
1.49756e+07 1.2625e+06 0 
1.2625e+06 1.99596e+07 0 
0 0 0 
3.21655e+07 6.84769e+06 0 
6.84769e+06 3.0425e+07 0 
0 0 0 
-1.81466e+07 5.40214e+06 0 
5.40214e+06 6.46149e+06 0 
0 0 0 
-1.29867e+07 9.76249e+06 0 
9.76249e+06 -1.81043e+06 0 
0 0 0 
-2.97429e+07 1.94852e+06 0 
1.94852e+06 -7.9511e+06 0 
0 0 0 
3.13451e+07 -7.76161e+06 0 
-7.76161e+06 3.22466e+07 0 
0 0 0 
5.01396e+06 -1.71541e+07 0 
-1.71541e+07 2.67276e+07 0 
0 0 0 
3.37794e+07 -2.02894e+07 0 
-2.02894e+07 3.98102e+07 0 
0 0 0 
6.56299e+06 -1.22848e+07 0 
-1.22848e+07 8.90011e+06 0 
0 0 0 
3.41925e+06 238887 0 
238887 3.11701e+06 0 
0 0 0 
-2.31476e+07 1.23785e+07 0 
1.23785e+07 -8.03179e+06 0 
0 0 0 
2.29425e+07 9.58216e+06 0 
9.58216e+06 1.53507e+07 0 
0 0 0 
-1.11028e+07 9.84723e+06 0 
9.84723e+06 1.49158e+07 0 
0 0 0 
2.12057e+07 -1.30624e+06 0 
-1.30624e+06 3.32797e+07 0 
0 0 0 
1.19896e+07 -8.08438e+06 0 
-8.08438e+06 2.53176e+07 0 
0 0 0 
-8.47462e+06 -7.41859e+06 0 
-7.41859e+06 1.04577e+07 0 
0 0 0 
1.94174e+07 -1.1551e+07 0 
-1.1551e+07 1.20535e+07 0 
0 0 0 
-1.38255e+06 -6.27321e+06 0 
-6.27321e+06 -9.3379e+06 0 
0 0 0 
-1.61237e+07 -1.11526e+07 0 
-1.11526e+07 -2.63406e+07 0 
0 0 0 
-2.7182e+07 -1.32404e+07 0 
-1.32404e+07 -3.53556e+07 0 
0 0 0 
-3.15766e+07 -1.14975e+07 0 
-1.14975e+07 -2.008e+07 0 
0 0 0 
-3.04952e+07 -7.53965e+06 0 
-7.53965e+06 -8.29157e+06 0 
0 0 0 
2.45259e+07 290192 0 
290192 2.60814e+07 0 
0 0 0 
3.94296e+07 2.02862e+06 0 
2.02862e+06 4.87125e+07 0 
0 0 0 
2.0504e+07 -1.27074e+06 0 
-1.27074e+06 3.02316e+07 0 
0 0 0 
-2.40973e+06 -865223 0 
-865223 1.1601e+07 0 
0 0 0 
-1.97788e+07 866556 0 
866556 -1.08244e+06 0 
0 0 0 
-1.80465e+07 2.36665e+06 0 
2.36665e+06 -4.17331e+06 0 
0 0 0 
4.11066e+06 1.02191e+07 0 
1.02191e+07 7.30924e+06 0 
0 0 0 
5.91901e+06 6.7855e+06 0 
6.7855e+06 -2.77608e+06 0 
0 0 0 
9.74939e+06 -3.32759e+06 0 
-3.32759e+06 6.42566e+06 0 
0 0 0 
-5.91208e+06 -1.86956e+06 0 
-1.86956e+06 3.58711e+06 0 
0 0 0 
-1.24356e+07 -1.23753e+06 0 
-1.23753e+06 3.85887e+06 0 
0 0 0 
5.91775e+06 1.21228e+07 0 
1.21228e+07 1.10834e+07 0 
0 0 0 
-300246 1.09429e+07 0 
1.09429e+07 1.73015e+07 0 
0 0 0 
6.47572e+06 1.38863e+07 0 
1.38863e+07 2.78545e+07 0 
0 0 0 
2.59589e+07 2.16181e+06 0 
2.16181e+06 5.79543e+07 0 
0 0 0 
8.37159e+06 4.75027e+06 0 
4.75027e+06 8.13774e+07 0 
0 0 0 
5.30057e+07 -1.58201e+07 0 
-1.58201e+07 1.06433e+08 0 
0 0 0 
3.17424e+07 -6.6665e+06 0 
-6.6665e+06 9.90474e+07 0 
0 0 0 
3.82201e+07 -1.39663e+07 0 
-1.39663e+07 9.77248e+07 0 
0 0 0 
1.5119e+07 -9.07891e+06 0 
-9.07891e+06 8.41086e+07 0 
0 0 0 
1.48972e+07 -175767 0 
-175767 6.89559e+07 0 
0 0 0 
1.40678e+07 1.11501e+06 0 
1.11501e+06 5.36041e+07 0 
0 0 0 
-7.37685e+06 -5.63573e+06 0 
-5.63573e+06 3.60975e+07 0 
0 0 0 
4.67693e+07 7.19395e+06 0 
7.19395e+06 4.45789e+07 0 
0 0 0 
-2.78682e+07 -2.49217e+06 0 
-2.49217e+06 -1.09814e+06 0 
0 0 0 
2.87336e+07 5.43619e+06 0 
5.43619e+06 3.15325e+06 0 
0 0 0 
-3.77252e+07 -1.26464e+07 0 
-1.26464e+07 -1.6965e+07 0 
0 0 0 
3.05957e+07 -9.23497e+06 0 
-9.23497e+06 1.55969e+07 0 
0 0 0 
9.59801e+06 -9.61338e+06 0 
-9.61338e+06 3.42196e+07 0 
0 0 0 
3.97685e+07 -6.949e+06 0 
-6.949e+06 5.37606e+07 0 
0 0 0 
4.85401e+06 5.35955e+06 0 
5.35955e+06 4.70303e+07 0 
0 0 0 
5.42238e+07 3.81186e+06 0 
3.81186e+06 5.61975e+07 0 
0 0 0 
-3.91832e+07 9.63549e+06 0 
9.63549e+06 -2.22004e+07 0 
0 0 0 
-4.76973e+07 1.01516e+07 0 
1.01516e+07 -4.80773e+06 0 
0 0 0 
0 0 0 
0 0 0 
0 0 0 
-2.61953e+07 -8.14061e+06 0 
-8.14061e+06 -7.31449e+07 0 
0 0 0 
-2.35981e+07 2.65197e+06 0 
2.65197e+06 -6.11674e+07 0 
0 0 0 
-5.12025e+06 1.33833e+07 0 
1.33833e+07 8.31112e+06 0 
0 0 0 
-4.5561e+07 6.10401e+06 0 
6.10401e+06 -6.23693e+07 0 
0 0 0 
-7.76573e+07 -1.16348e+06 0 
-1.16348e+06 -5.96036e+07 0 
0 0 0 
-9.06338e+07 1.01561e+07 0 
1.01561e+07 -4.76167e+07 0 
0 0 0 
-8.54243e+07 1.68653e+07 0 
1.68653e+07 -4.04119e+07 0 
0 0 0 
-9.68364e+07 1.23319e+07 0 
1.23319e+07 -8.19391e+07 0 
0 0 0 
-5.33114e+07 4.16555e+06 0 
4.16555e+06 -2.39023e+07 0 
0 0 0 
-3.53393e+07 -7.601e+06 0 
-7.601e+06 -2.50981e+07 0 
0 0 0 
-2.05083e+07 2.29277e+07 0 
2.29277e+07 -7.37169e+06 0 
0 0 0 
-3.53463e+06 3.50285e+07 0 
3.50285e+07 2.41921e+06 0 
0 0 0 
1.69986e+07 3.80981e+07 0 
3.80981e+07 4.6252e+07 0 
0 0 0 
-1.34325e+06 1.32707e+07 0 
1.32707e+07 2.32428e+07 0 
0 0 0 
106211 9.76051e+06 0 
9.76051e+06 2.14617e+07 0 
0 0 0 
-2.95145e+07 1.24362e+07 0 
1.24362e+07 -1.39873e+07 0 
0 0 0 
-1.03718e+07 6.66489e+06 0 
6.66489e+06 3.74045e+07 0 
0 0 0 
-3.19344e+06 -2.9816e+06 0 
-2.9816e+06 1.43577e+06 0 
0 0 0 
1.40078e+07 2.27441e+07 0 
2.27441e+07 1.5674e+07 0 
0 0 0 
4.48353e+07 1.33935e+07 0 
1.33935e+07 1.25014e+08 0 
0 0 0 
3.57071e+07 1.67349e+07 0 
1.67349e+07 1.2382e+08 0 
0 0 0 
-1.17662e+07 1.3301e+07 0 
1.3301e+07 212106 0 
0 0 0 
-136938 1.23678e+07 0 
1.23678e+07 5.2242e+07 0 
0 0 0 
-5.2228e+06 2.25182e+06 0 
2.25182e+06 4.77719e+07 0 
0 0 0 
9.04652e+06 1.22485e+07 0 
1.22485e+07 9.70802e+07 0 
0 0 0 
-1.27242e+06 -1.37113e+06 0 
-1.37113e+06 7.57981e+07 0 
0 0 0 
3.46484e+07 7.33185e+06 0 
7.33185e+06 1.3064e+08 0 
0 0 0 
4.7042e+07 -7.42083e+06 0 
-7.42083e+06 1.16556e+08 0 
0 0 0 
1.34616e+06 -2.68026e+07 0 
-2.68026e+07 1.1243e+08 0 
0 0 0 
-2.39967e+07 -3.4194e+07 0 
-3.4194e+07 5.61466e+07 0 
0 0 0 
1.67978e+07 -1.67925e+07 0 
-1.67925e+07 8.22842e+07 0 
0 0 0 
-8.186e+06 -1.0076e+07 0 
-1.0076e+07 3.57849e+07 0 
0 0 0 
1.55972e+07 -3.53619e+07 0 
-3.53619e+07 8.81028e+07 0 
0 0 0 
-1.32684e+07 -3.2659e+07 0 
-3.2659e+07 -1.32613e+07 0 
0 0 0 
5.2103e+06 -8.45438e+06 0 
-8.45438e+06 1.31312e+07 0 
0 0 0 
-2.70877e+07 -5.16347e+06 0 
-5.16347e+06 -1.24713e+07 0 
0 0 0 
-5.88755e+07 -1.35201e+07 0 
-1.35201e+07 -6.12185e+07 0 
0 0 0 
-8.69938e+07 -1.15567e+07 0 
-1.15567e+07 -1.79073e+08 0 
0 0 0 
-5.14188e+07 -6.58645e+06 0 
-6.58645e+06 -9.5193e+07 0 
0 0 0 
-1.01827e+07 -6.88406e+06 0 
-6.88406e+06 -546030 0 
0 0 0 
-3.13431e+07 -1.62642e+07 0 
-1.62642e+07 -7.33227e+07 0 
0 0 0 
-8.18748e+07 -1.88393e+07 0 
-1.88393e+07 -2.07653e+08 0 
0 0 0 
-5.10263e+07 -1.73438e+07 0 
-1.73438e+07 -9.97964e+07 0 
0 0 0 
-6.11994e+07 -3.9792e+06 0 
-3.9792e+06 -7.00543e+07 0 
0 0 0 
-5.61868e+07 1.20042e+06 0 
1.20042e+06 -4.02474e+07 0 
0 0 0 
-5.92275e+07 -1.7304e+07 0 
-1.7304e+07 -8.59382e+07 0 
0 0 0 
-7.74461e+07 -6.08292e+06 0 
-6.08292e+06 -6.9329e+07 0 
0 0 0 
-3.77114e+07 1.36013e+07 0 
1.36013e+07 1.48366e+07 0 
0 0 0 
-3.27281e+07 1.51537e+07 0 
1.51537e+07 1.86438e+07 0 
0 0 0 
-4.38171e+07 -2.33488e+06 0 
-2.33488e+06 -3.48631e+07 0 
0 0 0 
-2.81399e+07 5.99658e+06 0 
5.99658e+06 4.42622e+07 0 
0 0 0 
-7.86067e+07 1.48349e+07 0 
1.48349e+07 -4.8357e+07 0 
0 0 0 
-4.89347e+07 6.05666e+06 0 
6.05666e+06 4.7927e+07 0 
0 0 0 
-3.8789e+07 -1.46577e+06 0 
-1.46577e+06 2.18488e+07 0 
0 0 0 
-3.12111e+07 1.43244e+06 0 
1.43244e+06 -7.12745e+06 0 
0 0 0 
784171 3.32048e+06 0 
3.32048e+06 8.16953e+07 0 
0 0 0 
-71590.2 -1.65108e+07 0 
-1.65108e+07 2.52687e+07 0 
0 0 0 
-2.62355e+06 1.38409e+07 0 
1.38409e+07 -1.53383e+07 0 
0 0 0 
1.48153e+07 1.31511e+07 0 
1.31511e+07 -2.12211e+06 0 
0 0 0 
4.21571e+07 1.23873e+07 0 
1.23873e+07 5.58188e+07 0 
0 0 0 
3.84355e+07 5.74046e+06 0 
5.74046e+06 1.98153e+07 0 
0 0 0 
3.46302e+07 8.42736e+06 0 
8.42736e+06 5.64985e+07 0 
0 0 0 
-6.241e+06 8.2299e+06 0 
8.2299e+06 -2.28152e+07 0 
0 0 0 
2.56468e+07 -6.3379e+06 0 
-6.3379e+06 2.97667e+07 0 
0 0 0 
1.26162e+07 -3.46326e+06 0 
-3.46326e+06 4.70555e+06 0 
0 0 0 
3.26255e+07 1.39003e+07 0 
1.39003e+07 3.91637e+07 0 
0 0 0 
2.22656e+07 7.40787e+06 0 
7.40787e+06 3.30161e+07 0 
0 0 0 
-2.88076e+07 -4.40618e+06 0 
-4.40618e+06 -7.74065e+07 0 
0 0 0 
-8.84929e+06 5.42126e+06 0 
5.42126e+06 5.66172e+06 0 
0 0 0 
-2.74431e+07 9.8923e+06 0 
9.8923e+06 -1.90861e+07 0 
0 0 0 
-1.01125e+07 3.67691e+06 0 
3.67691e+06 -2.37604e+06 0 
0 0 0 
5.67264e+06 -7.06144e+06 0 
-7.06144e+06 1.05844e+07 0 
0 0 0 
-1.21217e+07 -3.3897e+06 0 
-3.3897e+06 -3.92544e+07 0 
0 0 0 
-1.22396e+07 8.61253e+06 0 
8.61253e+06 7.50593e+06 0 
0 0 0 
3.11674e+06 1.27929e+06 0 
1.27929e+06 3.65221e+07 0 
0 0 0 
-1.11574e+07 -1.00966e+07 0 
-1.00966e+07 -2.70684e+07 0 
0 0 0 
6.82876e+06 1.77497e+06 0 
1.77497e+06 -1.61161e+07 0 
0 0 0 
3.72357e+07 -2.9868e+06 0 
-2.9868e+06 3.65906e+07 0 
0 0 0 
3.04366e+07 2.97944e+06 0 
2.97944e+06 7.66253e+06 0 
0 0 0 
5.16215e+07 1.11889e+07 0 
1.11889e+07 8.14291e+07 0 
0 0 0 
1.2974e+07 7.60634e+06 0 
7.60634e+06 3.10978e+06 0 
0 0 0 
1.59131e+07 1.00119e+07 0 
1.00119e+07 -3.51232e+06 0 
0 0 0 
2.3964e+07 -9.40676e+06 0 
-9.40676e+06 696866 0 
0 0 0 
3.55838e+07 -8.26325e+06 0 
-8.26325e+06 6.54138e+06 0 
0 0 0 
0 0 0 
0 0 0 
0 0 0 
-5.73467e+06 7.70372e+06 0 
7.70372e+06 4.40501e+06 0 
0 0 0 
1.82808e+07 628630 0 
628630 1.48873e+07 0 
0 0 0 
-2.6292e+07 -7.27201e+06 0 
-7.27201e+06 -1.49832e+07 0 
0 0 0 
9.19294e+06 -6.26908e+06 0 
-6.26908e+06 -3.8459e+06 0 
0 0 0 
-1.11598e+07 -6.37925e+06 0 
-6.37925e+06 -1.13221e+07 0 
0 0 0 
1.26202e+07 2.19886e+06 0 
2.19886e+06 3.96681e+06 0 
0 0 0 
70081.4 4.52615e+06 0 
4.52615e+06 1.62103e+07 0 
0 0 0 
3.3345e+07 9.08586e+06 0 
9.08586e+06 1.23743e+07 0 
0 0 0 
-3.78967e+07 -3.2034e+06 0 
-3.2034e+06 -3.4229e+06 0 
0 0 0 
-673411 -470374 0 
-470374 -3.36267e+06 0 
0 0 0 
-1.53712e+07 -3.16288e+06 0 
-3.16288e+06 -1.22689e+07 0 
0 0 0 
8.81109e+06 -1.91373e+07 0 
-1.91373e+07 -2.97427e+06 0 
0 0 0 
-1.50235e+07 -7.54396e+06 0 
-7.54396e+06 6.18307e+06 0 
0 0 0 
2.30678e+07 1.19849e+07 0 
1.19849e+07 2.60644e+07 0 
0 0 0 
-1.94008e+07 1.46415e+07 0 
1.46415e+07 -6.027e+06 0 
0 0 0 
3.11979e+07 1.92419e+07 0 
1.92419e+07 -2.23385e+06 0 
0 0 0 
-3.45069e+07 1.12112e+07 0 
1.12112e+07 -4.00461e+07 0 
0 0 0 
6.23989e+06 -4.97842e+06 0 
-4.97842e+06 -2.93782e+07 0 
0 0 0 
-4.54124e+07 2.79849e+06 0 
2.79849e+06 -4.35918e+07 0 
0 0 0 
5.77537e+06 -1.42767e+06 0 
-1.42767e+06 -3.04194e+07 0 
0 0 0 
-4.2606e+07 9.36636e+06 0 
9.36636e+06 -4.74202e+07 0 
0 0 0 
5.68414e+06 -5.98693e+06 0 
-5.98693e+06 -1.56675e+07 0 
0 0 0 
4.00003e+06 -8.47355e+06 0 
-8.47355e+06 -5.44397e+06 0 
0 0 0 
5.70197e+06 -1.13851e+07 0 
-1.13851e+07 1.62471e+07 0 
0 0 0 
7.57801e+06 -1.43829e+07 0 
-1.43829e+07 6.94777e+06 0 
0 0 0 
-5.47888e+06 -8.29276e+06 0 
-8.29276e+06 -9.08498e+06 0 
0 0 0 
-3.46602e+07 2.78164e+06 0 
2.78164e+06 -1.14264e+07 0 
0 0 0 
-5.49194e+06 1.40078e+07 0 
1.40078e+07 -1.57392e+07 0 
0 0 0 
-4.18156e+06 9.45167e+06 0 
9.45167e+06 -1.01536e+07 0 
0 0 0 
1.23023e+07 7.59573e+06 0 
7.59573e+06 528425 0 
0 0 0 
1.15642e+07 -3.31739e+06 0 
-3.31739e+06 -2.47569e+06 0 
0 0 0 
-1.00316e+07 1.18361e+06 0 
1.18361e+06 -1.81987e+07 0 
0 0 0 
-1.89008e+07 3.50055e+06 0 
3.50055e+06 -1.53696e+07 0 
0 0 0 
-4.73428e+07 7.25261e+06 0 
7.25261e+06 -1.95868e+07 0 
0 0 0 
1.13806e+07 1.45068e+06 0 
1.45068e+06 -1.93967e+06 0 
0 0 0 
-2.89815e+07 -1.0911e+07 0 
-1.0911e+07 -8.7099e+06 0 
0 0 0 
2.87465e+07 -1.634e+07 0 
-1.634e+07 5.54244e+06 0 
0 0 0 
2.46838e+07 -1.12417e+07 0 
-1.12417e+07 1.65885e+07 0 
0 0 0 
1.25725e+07 -2.67992e+06 0 
-2.67992e+06 1.55831e+07 0 
0 0 0 
-2.7226e+06 2.95854e+06 0 
2.95854e+06 5.31228e+06 0 
0 0 0 
1.26773e+07 8.40599e+06 0 
8.40599e+06 -1.02586e+06 0 
0 0 0 
-3.63555e+07 -5.62168e+06 0 
-5.62168e+06 -4.48104e+07 0 
0 0 0 
-1.87759e+07 -542090 0 
-542090 -6.39012e+07 0 
0 0 0 
-1.93773e+07 -7.70206e+06 0 
-7.70206e+06 -5.64774e+07 0 
0 0 0 
-3.58922e+07 -1.12844e+07 0 
-1.12844e+07 -7.12875e+07 0 
0 0 0 
-403101 -6.30464e+06 0 
-6.30464e+06 -4.48918e+07 0 
0 0 0 
-2.3987e+07 -1.62729e+07 0 
-1.62729e+07 -4.66015e+07 0 
0 0 0 
-2.98045e+06 -9.07508e+06 0 
-9.07508e+06 -4.56354e+07 0 
0 0 0 
-4.04394e+07 -8.39935e+06 0 
-8.39935e+06 -3.81802e+07 0 
0 0 0 
-1.03505e+07 4.85528e+06 0 
4.85528e+06 -1.39429e+07 0 
0 0 0 
-2.60007e+07 2.13222e+06 0 
2.13222e+06 -5.10469e+06 0 
0 0 0 
4.44728e+07 1.77715e+07 0 
1.77715e+07 3.33387e+07 0 
0 0 0 
1.14076e+07 5.90532e+06 0 
5.90532e+06 2.59344e+07 0 
0 0 0 
2.25673e+07 2.51912e+06 0 
2.51912e+06 2.88542e+07 0 
0 0 0 
-1.26745e+07 -426945 0 
-426945 2.94305e+07 0 
0 0 0 
7.29219e+06 -5.47895e+06 0 
-5.47895e+06 4.35277e+07 0 
0 0 0 
1.17012e+07 4.24051e+06 0 
4.24051e+06 6.02274e+07 0 
0 0 0 
1.91018e+07 -725675 0 
-725675 5.85253e+07 0 
0 0 0 
6.9e+06 207537 0 
207537 3.21695e+07 0 
0 0 0 
1.07688e+07 -597469 0 
-597469 2.61483e+07 0 
0 0 0 
6.87378e+06 2.7969e+06 0 
2.7969e+06 2.83596e+07 0 
0 0 0 
1.59605e+07 1.10945e+07 0 
1.10945e+07 4.47844e+07 0 
0 0 0 
3.07984e+07 9.84256e+06 0 
9.84256e+06 6.82095e+07 0 
0 0 0 
1.37655e+07 9.42942e+06 0 
9.42942e+06 4.93443e+07 0 
0 0 0 
8.47709e+06 7.77665e+06 0 
7.77665e+06 2.53218e+07 0 
0 0 0 
-1.14355e+07 1.30572e+07 0 
1.30572e+07 -1.05216e+07 0 
0 0 0 
-2.68873e+07 1.16613e+07 0 
1.16613e+07 -2.56211e+07 0 
0 0 0 
6.75052e+06 4.6498e+06 0 
4.6498e+06 -1.61937e+06 0 
0 0 0 
-2.32214e+07 -5.3001e+06 0 
-5.3001e+06 -740819 0 
0 0 0 
1.27993e+07 -1.3298e+07 0 
-1.3298e+07 1.26986e+07 0 
0 0 0 
2.40787e+06 -1.05513e+07 0 
-1.05513e+07 5.44908e+06 0 
0 0 0 
-8.98801e+06 -6.55658e+06 0 
-6.55658e+06 -7.47641e+06 0 
0 0 0 
-9.0605e+06 -5.33637e+06 0 
-5.33637e+06 -1.0592e+07 0 
0 0 0 
-1.20583e+07 -723764 0 
-723764 6.07195e+06 0 
0 0 0 
2.83173e+07 -6.57033e+06 0 
-6.57033e+06 2.55063e+07 0 
0 0 0 
2.98201e+06 -358497 0 
-358497 3.7643e+07 0 
0 0 0 
2.71188e+07 4.93717e+06 0 
4.93717e+06 5.75677e+07 0 
0 0 0 
-1.64251e+07 5.07212e+06 0 
5.07212e+06 3.36195e+07 0 
0 0 0 
4.8998e+07 1.00712e+07 0 
1.00712e+07 7.24079e+07 0 
0 0 0 
2.16742e+06 4.91286e+06 0 
4.91286e+06 6.19517e+07 0 
0 0 0 
7.1044e+07 -1.58218e+07 0 
-1.58218e+07 9.14787e+07 0 
0 0 0 
1.28517e+07 -483173 0 
-483173 6.94801e+07 0 
0 0 0 
6.43172e+07 -1.04381e+07 0 
-1.04381e+07 7.68216e+07 0 
0 0 0 
-3.65707e+07 -1.09829e+07 0 
-1.09829e+07 2.89633e+07 0 
0 0 0 
2.50801e+07 -9.51677e+06 0 
-9.51677e+06 1.69844e+07 0 
0 0 0 
3.46076e+07 -3.74378e+06 0 
-3.74378e+06 4.16173e+07 0 
0 0 0 
0 0 0 
0 0 0 
0 0 0 
-1.28325e+07 5.29754e+06 0 
5.29754e+06 -6.33151e+07 0 
0 0 0 
9.68642e+06 8.17382e+06 0 
8.17382e+06 -3.82088e+07 0 
0 0 0 
2.77044e+07 3.8439e+06 0 
3.8439e+06 3.6136e+06 0 
0 0 0 
5.01144e+06 4.0647e+06 0 
4.0647e+06 -5.41297e+07 0 
0 0 0 
1.76102e+07 1.59501e+06 0 
1.59501e+06 -3.20453e+07 0 
0 0 0 
4.14489e+07 271949 0 
271949 1.94248e+07 0 
0 0 0 
4.39857e+07 9.46242e+06 0 
9.46242e+06 9.9957e+06 0 
0 0 0 
4.1107e+07 2.07161e+07 0 
2.07161e+07 -3.83239e+07 0 
0 0 0 
4.96155e+07 2.13936e+07 0 
2.13936e+07 -3.01994e+07 0 
0 0 0 
8.28617e+07 1.0005e+07 0 
1.0005e+07 5.29995e+07 0 
0 0 0 
8.46135e+07 2.24152e+07 0 
2.24152e+07 3.97567e+07 0 
0 0 0 
9.64483e+07 3.51e+07 0 
3.51e+07 5.38483e+07 0 
0 0 0 
8.29927e+07 3.05157e+07 0 
3.05157e+07 3.38346e+07 0 
0 0 0 
9.02948e+07 1.44222e+07 0 
1.44222e+07 3.39917e+07 0 
0 0 0 
7.63077e+07 673884 0 
673884 4.72062e+07 0 
0 0 0 
5.39303e+07 470834 0 
470834 1.6244e+07 0 
0 0 0 
8.18771e+07 1.15419e+07 0 
1.15419e+07 6.70772e+07 0 
0 0 0 
9.73471e+07 1.29239e+07 0 
1.29239e+07 4.64221e+07 0 
0 0 0 
1.06425e+08 2.98022e+07 0 
2.98022e+07 5.01037e+07 0 
0 0 0 
1.38606e+08 4.66055e+06 0 
4.66055e+06 1.48697e+08 0 
0 0 0 
1.34146e+08 2.95047e+06 0 
2.95047e+06 1.4028e+08 0 
0 0 0 
9.01501e+07 2.82771e+06 0 
2.82771e+06 3.6226e+07 0 
0 0 0 
1.0918e+08 1.84917e+07 0 
1.84917e+07 9.21116e+07 0 
0 0 0 
9.79241e+07 3.67363e+06 0 
3.67363e+06 7.90104e+07 0 
0 0 0 
9.13362e+07 6.47368e+06 0 
6.47368e+06 1.22096e+08 0 
0 0 0 
8.17471e+07 7.03243e+06 0 
7.03243e+06 8.49709e+07 0 
0 0 0 
7.72009e+07 1.10624e+07 0 
1.10624e+07 1.4795e+08 0 
0 0 0 
2.13657e+07 -7.92386e+06 0 
-7.92386e+06 7.34108e+07 0 
0 0 0 
3.49397e+07 -2.37166e+07 0 
-2.37166e+07 9.97056e+07 0 
0 0 0 
3.54407e+07 -2.80867e+07 0 
-2.80867e+07 1.02397e+08 0 
0 0 0 
4.666e+07 -1.84091e+07 0 
-1.84091e+07 1.19571e+08 0 
0 0 0 
2.47469e+07 -1.64326e+07 0 
-1.64326e+07 4.43792e+07 0 
0 0 0 
2.56649e+07 -2.95109e+07 0 
-2.95109e+07 5.39102e+07 0 
0 0 0 
2.37052e+07 -2.51467e+07 0 
-2.51467e+07 1.72267e+07 0 
0 0 0 
3.77341e+07 -2.43901e+06 0 
-2.43901e+06 6.16789e+07 0 
0 0 0 
1.66581e+07 -6.71911e+06 0 
-6.71911e+06 -1.50681e+07 0 
0 0 0 
-2.52482e+07 -1.66584e+07 0 
-1.66584e+07 -8.37827e+07 0 
0 0 0 
-7.26058e+07 -2.06556e+07 0 
-2.06556e+07 -1.41465e+08 0 
0 0 0 
-6.50347e+07 1.58306e+06 0 
1.58306e+06 -9.39649e+07 0 
0 0 0 
-4.16815e+07 -1.28143e+07 0 
-1.28143e+07 -2.45303e+07 0 
0 0 0 
-9.01394e+07 -2.55427e+07 0 
-2.55427e+07 -1.22297e+08 0 
0 0 0 
-1.33286e+08 -1.81776e+07 0 
-1.81776e+07 -1.99087e+08 0 
0 0 0 
-9.5981e+07 -656166 0 
-656166 -1.02967e+08 0 
0 0 0 
-6.88214e+07 -1.41752e+07 0 
-1.41752e+07 -6.87719e+07 0 
0 0 0 
-5.5876e+07 -615458 0 
-615458 -5.29403e+07 0 
0 0 0 
-8.62183e+07 -1.23742e+07 0 
-1.23742e+07 -9.7963e+07 0 
0 0 0 
-4.195e+07 5.14025e+06 0 
5.14025e+06 -3.03718e+07 0 
0 0 0 
-2.10047e+07 1.11127e+07 0 
1.11127e+07 3.456e+07 0 
0 0 0 
-4.01963e+07 1.78618e+07 0 
1.78618e+07 909846 0 
0 0 0 
-4.94523e+07 6.36058e+06 0 
6.36058e+06 -4.47599e+07 0 
0 0 0 
-1.4717e+07 -1.05386e+07 0 
-1.05386e+07 5.29964e+07 0 
0 0 0 
-3.65844e+07 -1.03638e+06 0 
-1.03638e+06 -2.96883e+07 0 
0 0 0 
-3.43001e+06 4.52798e+06 0 
4.52798e+06 5.86678e+07 0 
0 0 0 
-1.77104e+07 1.25521e+07 0 
1.25521e+07 1.77072e+07 0 
0 0 0 
-5.1757e+06 9.96558e+06 0 
9.96558e+06 2.66871e+07 0 
0 0 0 
2.43748e+07 6.87237e+06 0 
6.87237e+06 5.45274e+07 0 
0 0 0 
3.86014e+07 4.481e+06 0 
4.481e+06 5.34355e+07 0 
0 0 0 
1.82408e+07 2.064e+07 0 
2.064e+07 1.1962e+07 0 
0 0 0 
-2.94104e+06 2.32607e+07 0 
2.32607e+07 280454 0 
0 0 0 
2.62664e+06 1.5382e+07 0 
1.5382e+07 2.4961e+07 0 
0 0 0 
-9.57064e+06 1.07351e+07 0 
1.07351e+07 -1.22936e+06 0 
0 0 0 
1.00102e+07 -459392 0 
-459392 4.30519e+07 0 
0 0 0 
-8.4804e+06 1.6298e+06 0 
1.6298e+06 -2.16042e+07 0 
0 0 0 
-2.22598e+06 -6.55654e+06 0 
-6.55654e+06 8.14962e+06 0 
0 0 0 
2.33631e+07 -3.6299e+06 0 
-3.6299e+06 2.56656e+07 0 
0 0 0 
2.04761e+07 -2.66421e+06 0 
-2.66421e+06 3.4041e+07 0 
0 0 0 
-1.93779e+07 -5.78253e+06 0 
-5.78253e+06 -1.12685e+06 0 
0 0 0 
-4.91448e+07 -527182 0 
-527182 -6.44615e+07 0 
0 0 0 
-2.60233e+07 3.86761e+06 0 
3.86761e+06 -1.84868e+06 0 
0 0 0 
-1.47163e+07 1.25753e+07 0 
1.25753e+07 -8.12556e+06 0 
0 0 0 
-2.11912e+07 3.94084e+06 0 
3.94084e+06 -2.06053e+07 0 
0 0 0 
-3.17173e+07 -2.40876e+06 0 
-2.40876e+06 -2.29568e+06 0 
0 0 0 
-3.42774e+07 2.729e+06 0 
2.729e+06 -4.71703e+07 0 
0 0 0 
-1.02753e+07 -4.55125e+06 0 
-4.55125e+06 9.03329e+06 0 
0 0 0 
-2.89315e+07 2.58593e+06 0 
2.58593e+06 1.70792e+07 0 
0 0 0 
-2.5283e+07 4.94196e+06 0 
4.94196e+06 -1.66235e+07 0 
0 0 0 
-7.95842e+06 1.20466e+07 0 
1.20466e+07 -2.54745e+07 0 
0 0 0 
1.76582e+06 2.72663e+06 0 
2.72663e+06 1.52358e+07 0 
0 0 0 
-1.21136e+07 -3.92126e+06 0 
-3.92126e+06 3.13276e+06 0 
0 0 0 
8.70829e+06 -8.73606e+06 0 
-8.73606e+06 7.65019e+07 0 
0 0 0 
-1.36651e+07 5.17662e+06 0 
5.17662e+06 -772606 0 
0 0 0 
-4.54146e+07 4.11966e+06 0 
4.11966e+06 -4.36696e+07 0 
0 0 0 
-4.86356e+07 5317.63 0 
5317.63 -3.72369e+07 0 
0 0 0 
-1.73491e+07 -785281 0 
-785281 724015 0 
0 0 0 
-1.21498e+07 -1.21279e+07 0 
-1.21279e+07 1.26215e+07 0 
0 0 0 
0 0 0 
0 0 0 
0 0 0 
-966981 9.61594e+06 0 
9.61594e+06 -6.41149e+06 0 
0 0 0 
1.22014e+07 6.02849e+06 0 
6.02849e+06 -2.9648e+06 0 
0 0 0 
-2.6406e+07 -1.1975e+06 0 
-1.1975e+06 -6.23872e+06 0 
0 0 0 
3.80668e+06 8.59769e+06 0 
8.59769e+06 7.45379e+06 0 
0 0 0 
-4.98776e+06 -3.23206e+06 0 
-3.23206e+06 1.11213e+07 0 
0 0 0 
3.13847e+07 9.72676e+06 0 
9.72676e+06 1.85432e+07 0 
0 0 0 
4.40466e+06 153267 0 
153267 7.73302e+06 0 
0 0 0 
1.67253e+07 -2.60522e+06 0 
-2.60522e+06 2.51585e+07 0 
0 0 0 
-3.68218e+07 -1.05257e+06 0 
-1.05257e+06 5.41813e+06 0 
0 0 0 
2.00015e+07 -1.24812e+07 0 
-1.24812e+07 4.35516e+07 0 
0 0 0 
-2.86104e+07 -9.29568e+06 0 
-9.29568e+06 1.83659e+07 0 
0 0 0 
3.96293e+07 -1.62197e+07 0 
-1.62197e+07 3.48535e+07 0 
0 0 0 
1.28224e+06 -3.95111e+06 0 
-3.95111e+06 2.00584e+07 0 
0 0 0 
4.29986e+07 3.29446e+06 0 
3.29446e+06 2.75021e+07 0 
0 0 0 
-6.02279e+06 1.14371e+07 0 
1.14371e+07 7.65179e+06 0 
0 0 0 
1.64139e+07 1.07779e+07 0 
1.07779e+07 4.87118e+06 0 
0 0 0 
-3.55431e+07 1.16044e+06 0 
1.16044e+06 -3.08252e+07 0 
0 0 0 
-5.47878e+06 -159688 0 
-159688 -2.38888e+07 0 
0 0 0 
-1.92449e+07 7.39238e+06 0 
7.39238e+06 -1.81295e+07 0 
0 0 0 
1.40122e+07 7.98551e+06 0 
7.98551e+06 -568486 0 
0 0 0 
-2.60882e+07 8.87849e+06 0 
8.87849e+06 -1.52795e+07 0 
0 0 0 
-2.22779e+07 1.21535e+07 0 
1.21535e+07 -1.64552e+07 0 
0 0 0 
1.0292e+07 -1.1863e+06 0 
-1.1863e+06 7.45819e+06 0 
0 0 0 
-6.51279e+06 -5.78767e+06 0 
-5.78767e+06 -1.04546e+06 0 
0 0 0 
-1.2542e+07 -2.25236e+07 0 
-2.25236e+07 1.63273e+07 0 
0 0 0 
4.48982e+07 -1.3678e+07 0 
-1.3678e+07 4.80074e+07 0 
0 0 0 
-2.2091e+07 -6.48651e+06 0 
-6.48651e+06 1.13677e+07 0 
0 0 0 
4.06601e+07 6.91173e+06 0 
6.91173e+06 2.1822e+07 0 
0 0 0 
-2.44203e+07 1.41889e+07 0 
1.41889e+07 1.17782e+06 0 
0 0 0 
3.13689e+07 9.20814e+06 0 
9.20814e+06 9.6444e+06 0 
0 0 0 
-2.45441e+07 1.04594e+07 0 
1.04594e+07 -1.39206e+07 0 
0 0 0 
1.35232e+06 -9.75358e+06 0 
-9.75358e+06 -7.46249e+06 0 
0 0 0 
-1.105e+07 5.14369e+06 0 
5.14369e+06 -3.95581e+07 0 
0 0 0 
-7.70483e+07 6.05208e+06 0 
6.05208e+06 -7.44956e+07 0 
0 0 0 
-1.91905e+07 -1.08325e+06 0 
-1.08325e+06 -6.58081e+07 0 
0 0 0 
-5.63091e+07 -1.00924e+06 0 
-1.00924e+06 -7.26463e+07 0 
0 0 0 
1.58698e+07 -7.52635e+06 0 
-7.52635e+06 -2.86611e+07 0 
0 0 0 
1.60842e+07 -1.14689e+06 0 
-1.14689e+06 -1.78541e+07 0 
0 0 0 
7.12477e+06 -818899 0 
-818899 -6.79433e+06 0 
0 0 0 
-1.73294e+06 -457775 0 
-457775 -1.72783e+07 0 
0 0 0 
126860 -2.18704e+06 0 
-2.18704e+06 -3.65393e+07 0 
0 0 0 
-4.89469e+07 -8.00447e+06 0 
-8.00447e+06 -5.26249e+07 0 
0 0 0 
-5.55275e+06 -7.14775e+06 0 
-7.14775e+06 -2.98977e+07 0 
0 0 0 
-3.60381e+06 -791335 0 
-791335 -3.52229e+07 0 
0 0 0 
-3.03747e+07 -4.0276e+06 0 
-4.0276e+06 -1.19633e+07 0 
0 0 0 
2.06622e+07 -2.23622e+06 0 
-2.23622e+06 1.81454e+06 0 
0 0 0 
-1.0263e+07 -4.62957e+06 0 
-4.62957e+06 1.1249e+06 0 
0 0 0 
2.39459e+07 -3.17355e+06 0 
-3.17355e+06 3.61949e+07 0 
0 0 0 
-2.05381e+07 -3.43169e+06 0 
-3.43169e+06 3.00326e+07 0 
0 0 0 
3.90762e+07 2.15355e+06 0 
2.15355e+06 5.50893e+07 0 
0 0 0 
-2.84309e+06 1.31703e+07 0 
1.31703e+07 5.81232e+07 0 
0 0 0 
6.33439e+07 8.87897e+06 0 
8.87897e+06 8.71334e+07 0 
0 0 0 
1.32266e+07 -1.08401e+06 0 
-1.08401e+06 5.73204e+07 0 
0 0 0 
1.99794e+07 -5.95295e+06 0 
-5.95295e+06 5.63248e+07 0 
0 0 0 
-1.09438e+07 -278776 0 
-278776 1.94579e+07 0 
0 0 0 
-4.77531e+06 7.42639e+06 0 
7.42639e+06 1.84395e+07 0 
0 0 0 
374297 1.38095e+06 0 
1.38095e+06 9.30774e+06 0 
0 0 0 
1.55409e+07 5.79217e+06 0 
5.79217e+06 1.45579e+07 0 
0 0 0 
-1.25247e+07 -930802 0 
-930802 2.16456e+07 0 
0 0 0 
9.46516e+06 4.37326e+06 0 
4.37326e+06 2.11926e+07 0 
0 0 0 
1.38975e+07 791685 0 
791685 1.42535e+07 0 
0 0 0 
-2.86427e+06 1.49731e+07 0 
1.49731e+07 1.93415e+06 0 
0 0 0 
1.32972e+07 5.95739e+06 0 
5.95739e+06 267639 0 
0 0 0 
-1.53159e+07 -6.59612e+06 0 
-6.59612e+06 -1.71724e+07 0 
0 0 0 
-172548 -5.08625e+06 0 
-5.08625e+06 -1.59761e+07 0 
0 0 0 
-1.77221e+07 -9.13201e+06 0 
-9.13201e+06 -1.28896e+07 0 
0 0 0 
-1.40426e+07 5.91926e+06 0 
5.91926e+06 -2.79077e+07 0 
0 0 0 
-1.99778e+07 -786389 0 
-786389 -3.39086e+07 0 
0 0 0 
-3.96167e+07 -200969 0 
-200969 -3.39201e+07 0 
0 0 0 
-5.45052e+06 -2.65177e+06 0 
-2.65177e+06 -2.36479e+07 0 
0 0 0 
-384064 -7.13694e+06 0 
-7.13694e+06 -8.82277e+06 0 
0 0 0 
3.26057e+06 -7.21428e+06 0 
-7.21428e+06 803542 0 
0 0 0 
7.21099e+06 1.3562e+07 0 
1.3562e+07 1.0401e+07 0 
0 0 0 
-1.40203e+07 1.29468e+07 0 
1.29468e+07 1.31066e+07 0 
0 0 0 
1.07555e+07 4.76798e+06 0 
4.76798e+06 2.79114e+07 0 
0 0 0 
2.11915e+07 8.93511e+06 0 
8.93511e+06 1.74137e+07 0 
0 0 0 
6.99562e+06 9.30424e+06 0 
9.30424e+06 -881584 0 
0 0 0 
-2.50473e+07 1.0927e+07 0 
1.0927e+07 -1.24283e+07 0 
0 0 0 
1.21487e+07 1.87688e+07 0 
1.87688e+07 -1.19085e+07 0 
0 0 0 
-4.66939e+07 6.35263e+06 0 
6.35263e+06 -4.08838e+07 0 
0 0 0 
2.91163e+07 6.42514e+06 0 
6.42514e+06 -2.30901e+07 0 
0 0 0 
-2.22121e+07 -3.19076e+06 0 
-3.19076e+06 -4.73171e+07 0 
0 0 0 
1.42953e+07 -4.00214e+06 0 
-4.00214e+06 -4.11633e+07 0 
0 0 0 
-4.1997e+07 -5.84024e+06 0 
-5.84024e+06 -4.9408e+07 0 
0 0 0 
1.16083e+07 3.70736e+06 0 
3.70736e+06 -2.02951e+07 0 
0 0 0 
-3.26153e+07 2.01112e+06 0 
2.01112e+06 2.37864e+07 0 
0 0 0 
-3.53897e+07 4.57638e+06 0 
4.57638e+06 -2.83302e+07 0 
0 0 0 
0 0 0 
0 0 0 
0 0 0 
-1.66034e+07 406282 0 
406282 -5.19062e+07 0 
0 0 0 
-5.71358e+06 1.17022e+07 0 
1.17022e+07 -4.28721e+07 0 
0 0 0 
1.6942e+07 1.26982e+07 0 
1.26982e+07 -1.49963e+06 0 
0 0 0 
-5.23263e+06 4.65204e+06 0 
4.65204e+06 -7.49693e+07 0 
0 0 0 
241955 -3.5534e+06 0 
-3.5534e+06 -3.25985e+07 0 
0 0 0 
2.72428e+07 2.13585e+07 0 
2.13585e+07 2.77118e+07 0 
0 0 0 
3.17288e+07 1.75259e+07 0 
1.75259e+07 1.37948e+07 0 
0 0 0 
2.26229e+07 2.94956e+07 0 
2.94956e+07 -3.17227e+07 0 
0 0 0 
1.3768e+07 2.23537e+07 0 
2.23537e+07 -6.8368e+07 0 
0 0 0 
6.23497e+07 1.49269e+07 0 
1.49269e+07 6.18735e+07 0 
0 0 0 
4.83535e+07 1.42116e+07 0 
1.42116e+07 1.05396e+07 0 
0 0 0 
5.57715e+07 3.10368e+07 0 
3.10368e+07 8.30724e+07 0 
0 0 0 
2.1485e+07 2.85874e+07 0 
2.85874e+07 -2.28002e+07 0 
0 0 0 
2.08106e+07 2.31998e+07 0 
2.31998e+07 1.0069e+07 0 
0 0 0 
6.0998e+07 1.10082e+07 0 
1.10082e+07 2.94867e+07 0 
0 0 0 
1.18503e+08 2.88117e+07 0 
2.88117e+07 5.75031e+07 0 
0 0 0 
1.13157e+08 1.47248e+07 0 
1.47248e+07 6.09329e+07 0 
0 0 0 
1.12017e+08 2.65329e+07 0 
2.65329e+07 6.99534e+07 0 
0 0 0 
1.03891e+08 1.3491e+07 0 
1.3491e+07 3.82665e+07 0 
0 0 0 
1.2107e+08 1.08046e+07 0 
1.08046e+07 1.21238e+08 0 
0 0 0 
1.23128e+08 -6.29246e+06 0 
-6.29246e+06 1.13734e+08 0 
0 0 0 
1.16107e+08 7.82011e+06 0 
7.82011e+06 7.8059e+07 0 
0 0 0 
8.81695e+07 664553 0 
664553 7.07809e+07 0 
0 0 0 
7.41154e+07 -4.3666e+06 0 
-4.3666e+06 7.04669e+07 0 
0 0 0 
1.14209e+08 -3.86553e+06 0 
-3.86553e+06 1.16242e+08 0 
0 0 0 
1.07702e+08 -3.17919e+06 0 
-3.17919e+06 1.21342e+08 0 
0 0 0 
7.09182e+07 -7.37833e+06 0 
-7.37833e+06 1.07924e+08 0 
0 0 0 
3.00797e+07 -2.10754e+07 0 
-2.10754e+07 6.81266e+07 0 
0 0 0 
6.74061e+06 -3.61173e+07 0 
-3.61173e+07 6.1359e+07 0 
0 0 0 
2.44328e+07 -9.16297e+06 0 
-9.16297e+06 1.23063e+08 0 
0 0 0 
1.45466e+07 -5.54961e+06 0 
-5.54961e+06 1.1795e+08 0 
0 0 0 
-9.11822e+06 -20260.4 0 
-20260.4 3.01108e+07 0 
0 0 0 
2.36814e+06 -2.23874e+07 0 
-2.23874e+07 728290 0 
0 0 0 
1.4775e+07 -2.52613e+07 0 
-2.52613e+07 4.28906e+07 0 
0 0 0 
938290 -1.52892e+07 0 
-1.52892e+07 5.56082e+07 0 
0 0 0 
-4.71563e+07 -2.29609e+07 0 
-2.29609e+07 -4.84451e+07 0 
0 0 0 
-6.48459e+07 -3.06711e+07 0 
-3.06711e+07 -1.15494e+08 0 
0 0 0 
-6.15182e+07 -1.55814e+07 0 
-1.55814e+07 -1.10318e+08 0 
0 0 0 
-5.76953e+07 -1.19876e+07 0 
-1.19876e+07 -9.84561e+07 0 
0 0 0 
-5.95963e+07 -2.29895e+07 0 
-2.29895e+07 -5.02138e+07 0 
0 0 0 
-9.89915e+07 -3.6097e+07 0 
-3.6097e+07 -1.39492e+08 0 
0 0 0 
-1.07241e+08 -2.32951e+07 0 
-2.32951e+07 -1.58818e+08 0 
0 0 0 
-7.9877e+07 -3.0662e+06 0 
-3.0662e+06 -7.98484e+07 0 
0 0 0 
-5.60535e+07 6.95882e+06 0 
6.95882e+06 -6.6382e+07 0 
0 0 0 
-5.78868e+07 5.32852e+06 0 
5.32852e+06 -6.95832e+07 0 
0 0 0 
-5.1399e+07 -1.40814e+07 0 
-1.40814e+07 -8.26722e+07 0 
0 0 0 
-4.31084e+07 2.91018e+06 0 
2.91018e+06 -2.00443e+07 0 
0 0 0 
-1.96912e+07 6.27522e+06 0 
6.27522e+06 4.01737e+07 0 
0 0 0 
-2.01965e+07 1.38498e+07 0 
1.38498e+07 2.07968e+07 0 
0 0 0 
-4.72594e+07 1.39782e+07 0 
1.39782e+07 -5.97403e+07 0 
0 0 0 
1.23342e+07 1.17202e+06 0 
1.17202e+06 3.92001e+07 0 
0 0 0 
5.12228e+06 3.73238e+06 0 
3.73238e+06 3.08154e+06 0 
0 0 0 
3.11941e+07 1.29144e+07 0 
1.29144e+07 8.70207e+07 0 
0 0 0 
1.87638e+07 1.87659e+07 0 
1.87659e+07 2.40666e+07 0 
0 0 0 
3.12895e+07 1.80436e+07 0 
1.80436e+07 4.21381e+07 0 
0 0 0 
1.93724e+07 1.23533e+07 0 
1.23533e+07 3.4314e+07 0 
0 0 0 
2.12496e+07 7.1228e+06 0 
7.1228e+06 6.65262e+07 0 
0 0 0 
3.6294e+06 7.49609e+06 0 
7.49609e+06 -1.1445e+06 0 
0 0 0 
6.14431e+06 9.22092e+06 0 
9.22092e+06 1.86961e+07 0 
0 0 0 
-2.75793e+06 1.06278e+07 0 
1.06278e+07 9.2162e+06 0 
0 0 0 
3.2592e+06 1.13603e+07 0 
1.13603e+07 -7.55311e+06 0 
0 0 0 
1.58594e+07 -5.60563e+06 0 
-5.60563e+06 3.2407e+07 0 
0 0 0 
-2.23465e+07 1.84318e+06 0 
1.84318e+06 -9.33009e+06 0 
0 0 0 
-1.68607e+07 5.62276e+06 0 
5.62276e+06 -9.80658e+06 0 
0 0 0 
680189 -744155 0 
-744155 1.64114e+07 0 
0 0 0 
1.3697e+07 -1.7637e+06 0 
-1.7637e+06 3.60732e+07 0 
0 0 0 
2.13628e+07 -4.3893e+06 0 
-4.3893e+06 1.51989e+07 0 
0 0 0 
1.21068e+06 -2.52701e+06 0 
-2.52701e+06 -5.46372e+07 0 
0 0 0 
2.68747e+07 -5.17234e+06 0 
-5.17234e+06 1.64376e+07 0 
0 0 0 
1.28469e+07 7.19728e+06 0 
7.19728e+06 1.11552e+07 0 
0 0 0 
-5.21376e+06 283954 0 
283954 -1.39111e+07 0 
0 0 0 
2.74052e+07 4.07603e+06 0 
4.07603e+06 1.10266e+07 0 
0 0 0 
1.19359e+07 3.80916e+06 0 
3.80916e+06 -2.61525e+07 0 
0 0 0 
9.40507e+06 740474 0 
740474 -8.19074e+06 0 
0 0 0 
3.43826e+07 -2.11056e+06 0 
-2.11056e+06 6.70572e+07 0 
0 0 0 
-3.96158e+06 1.90214e+07 0 
1.90214e+07 -5.32308e+06 0 
0 0 0 
-7.98731e+06 1.71681e+07 0 
1.71681e+07 -3.51044e+07 0 
0 0 0 
1.1208e+07 -3.04597e+06 0 
-3.04597e+06 -1.65919e+06 0 
0 0 0 
2.0208e+07 -6.04272e+06 0 
-6.04272e+06 8.74416e+06 0 
0 0 0 
4.62296e+07 -4.38585e+06 0 
-4.38585e+06 9.78507e+07 0 
0 0 0 
2.03337e+07 -119080 0 
-119080 3.03848e+07 0 
0 0 0 
5.3945e+06 6.49243e+06 0 
6.49243e+06 -3.05076e+07 0 
0 0 0 
1.49733e+07 1.21972e+07 0 
1.21972e+07 -3.07054e+07 0 
0 0 0 
3.02349e+07 7.06074e+06 0 
7.06074e+06 2.29871e+07 0 
0 0 0 
2.54557e+07 -2.10067e+07 0 
-2.10067e+07 1.18552e+07 0 
0 0 0 
5.19792e+07 -1.41018e+07 0 
-1.41018e+07 5.73573e+07 0 
0 0 0 
0 0 0 
0 0 0 
0 0 0 
8.02895e+06 3.92037e+06 0 
3.92037e+06 -748549 0 
0 0 0 
2.40903e+06 -3.66931e+06 0 
-3.66931e+06 -1.80611e+07 0 
0 0 0 
-1.8063e+07 2.07991e+06 0 
2.07991e+06 -9.98242e+06 0 
0 0 0 
2.37978e+06 3.11025e+06 0 
3.11025e+06 2.18067e+07 0 
0 0 0 
-6.98588e+06 573692 0 
573692 1.56112e+07 0 
0 0 0 
2.81306e+07 801468 0 
801468 3.27681e+07 0 
0 0 0 
-3.09131e+06 -1.20849e+07 0 
-1.20849e+07 1.3249e+07 0 
0 0 0 
3.99588e+06 -1.20658e+07 0 
-1.20658e+07 -1.09982e+07 0 
0 0 0 
-5.60169e+07 -9.55873e+06 0 
-9.55873e+06 -4.55216e+07 0 
0 0 0 
-1.44388e+07 -9.00566e+06 0 
-9.00566e+06 -4.55844e+07 0 
0 0 0 
-3.42767e+07 -8.81411e+06 0 
-8.81411e+06 -2.7524e+07 0 
0 0 0 
4.10768e+07 -6.20942e+06 0 
-6.20942e+06 2.52154e+07 0 
0 0 0 
3.53341e+07 3.09239e+06 0 
3.09239e+06 5.49941e+07 0 
0 0 0 
6.09023e+07 4.99249e+06 0 
4.99249e+06 6.59056e+07 0 
0 0 0 
1.15415e+07 4.33404e+06 0 
4.33404e+06 3.36182e+07 0 
0 0 0 
-838798 2.15659e+06 0 
2.15659e+06 1.11062e+07 0 
0 0 0 
-2.80313e+07 -2.21172e+06 0 
-2.21172e+06 -2.90502e+06 0 
0 0 0 
-3.50864e+06 -1.12399e+06 0 
-1.12399e+06 2.28647e+06 0 
0 0 0 
-8.17522e+06 441099 0 
441099 -1.12207e+07 0 
0 0 0 
2.44475e+07 1.13063e+06 0 
1.13063e+06 -4.45922e+06 0 
0 0 0 
-3.43645e+07 1.60944e+06 0 
1.60944e+06 -4.05487e+07 0 
0 0 0 
-2.56044e+07 1.85868e+07 0 
1.85868e+07 -4.65163e+07 0 
0 0 0 
-4.20853e+07 6.99928e+06 0 
6.99928e+06 -5.39557e+07 0 
0 0 0 
-3.32381e+07 -6.95037e+06 0 
-6.95037e+06 -4.3959e+07 0 
0 0 0 
-3.9133e+07 -5.10212e+06 0 
-5.10212e+06 -3.61866e+07 0 
0 0 0 
4.70164e+07 -6.2556e+06 0 
-6.2556e+06 3.9418e+06 0 
0 0 0 
-1.01509e+07 -1.49496e+06 0 
-1.49496e+06 2.1389e+06 0 
0 0 0 
5.42806e+07 -319999 0 
-319999 2.63529e+07 0 
0 0 0 
-2.34456e+07 9.26019e+06 0 
9.26019e+06 -2.80133e+07 0 
0 0 0 
1.04657e+06 -1.56561e+06 0 
-1.56561e+06 -2.69986e+07 0 
0 0 0 
-4.0152e+07 -5.73408e+06 0 
-5.73408e+06 -4.997e+07 0 
0 0 0 
-1.12323e+07 2.16816e+06 0 
2.16816e+06 -3.41146e+07 0 
0 0 0 
2.3325e+06 -1.14275e+07 0 
-1.14275e+07 -1.41329e+07 0 
0 0 0 
-5.90623e+07 8.08426e+06 0 
8.08426e+06 -3.1767e+07 0 
0 0 0 
1.1206e+07 4.54691e+06 0 
4.54691e+06 7.62464e+06 0 
0 0 0 
-4.30869e+07 1.49482e+07 0 
1.49482e+07 -1.4408e+07 0 
0 0 0 
4.03337e+07 1.11219e+07 0 
1.11219e+07 3.34253e+07 0 
0 0 0 
1.0733e+07 5.54271e+06 0 
5.54271e+06 3.61487e+07 0 
0 0 0 
2.90909e+07 2.00522e+06 0 
2.00522e+06 3.9603e+07 0 
0 0 0 
2.56258e+07 -4.20017e+06 0 
-4.20017e+06 4.30959e+07 0 
0 0 0 
8.4407e+06 -6.50402e+06 0 
-6.50402e+06 3.27322e+07 0 
0 0 0 
-1.41792e+07 -6.1112e+06 0 
-6.1112e+06 2.28401e+07 0 
0 0 0 
-540555 -5.28996e+06 0 
-5.28996e+06 2.10278e+07 0 
0 0 0 
2.43064e+07 -6.2523e+06 0 
-6.2523e+06 3.57833e+07 0 
0 0 0 
-1.88555e+07 -1.19665e+06 0 
-1.19665e+06 1.32284e+07 0 
0 0 0 
3.26604e+07 -5.85918e+06 0 
-5.85918e+06 4.21614e+07 0 
0 0 0 
-1.08442e+07 -9.16346e+06 0 
-9.16346e+06 1.62601e+07 0 
0 0 0 
3.28958e+07 929953 0 
929953 3.17926e+07 0 
0 0 0 
-2.96171e+07 2.48478e+06 0 
2.48478e+06 9.1253e+06 0 
0 0 0 
3.06835e+07 143385 0 
143385 7.63176e+06 0 
0 0 0 
-1.01751e+07 1.58558e+07 0 
1.58558e+07 -2.02847e+07 0 
0 0 0 
-1.02076e+06 -705478 0 
-705478 -3.82224e+07 0 
0 0 0 
-2.82496e+07 -4.68664e+06 0 
-4.68664e+06 -5.07506e+07 0 
0 0 0 
-6.27678e+06 -6.31939e+06 0 
-6.31939e+06 -3.174e+07 0 
0 0 0 
-1.77656e+07 -1.11721e+07 0 
-1.11721e+07 -2.4757e+07 0 
0 0 0 
-3.40127e+06 8.49741e+06 0 
8.49741e+06 -3.3475e+07 0 
0 0 0 
-2.25361e+07 9.21474e+06 0 
9.21474e+06 -3.75029e+07 0 
0 0 0 
-3.34282e+06 5.52766e+06 0 
5.52766e+06 -3.5661e+07 0 
0 0 0 
-3.57087e+07 3.29188e+06 0 
3.29188e+06 -4.52047e+07 0 
0 0 0 
-6.44493e+06 2.87236e+06 0 
2.87236e+06 -2.24954e+07 0 
0 0 0 
1.4093e+06 4.80443e+06 0 
4.80443e+06 -1.58072e+07 0 
0 0 0 
3.89301e+06 1.29809e+07 0 
1.29809e+07 -1.45705e+07 0 
0 0 0 
-2.1442e+07 3.86011e+06 0 
3.86011e+06 -4.35663e+07 0 
0 0 0 
-1.48156e+07 1.39502e+06 0 
1.39502e+06 -3.45082e+07 0 
0 0 0 
-3.28048e+07 -1.16336e+07 0 
-1.16336e+07 -4.11697e+07 0 
0 0 0 
-1.06901e+07 -953264 0 
-953264 -4.69887e+07 0 
0 0 0 
-2.35204e+07 -1.03498e+07 0 
-1.03498e+07 -4.05097e+07 0 
0 0 0 
-1.92427e+07 3.76764e+06 0 
3.76764e+06 -4.81286e+07 0 
0 0 0 
-3.20213e+07 -243642 0 
-243642 -5.06503e+07 0 
0 0 0 
-2.05008e+07 3.32833e+06 0 
3.32833e+06 -2.48385e+07 0 
0 0 0 
5.65443e+06 -512454 0 
-512454 -9.84637e+06 0 
0 0 0 
1.52638e+07 7.20958e+06 0 
7.20958e+06 6.02592e+06 0 
0 0 0 
1.4834e+07 5.6191e+06 0 
5.6191e+06 1.10028e+07 0 
0 0 0 
-1.18225e+07 1.97206e+07 0 
1.97206e+07 -9.1598e+06 0 
0 0 0 
-1.98159e+06 1.94696e+07 0 
1.94696e+07 724727 0 
0 0 0 
862805 8.17522e+06 0 
8.17522e+06 -2.32785e+06 0 
0 0 0 
2.20874e+06 2.95447e+06 0 
2.95447e+06 -1.0156e+07 0 
0 0 0 
-1.93758e+07 4.15992e+06 0 
4.15992e+06 -1.51109e+07 0 
0 0 0 
6.73032e+06 6.9211e+06 0 
6.9211e+06 -1.7596e+07 0 
0 0 0 
-3.55368e+07 1.55613e+07 0 
1.55613e+07 -4.04825e+07 0 
0 0 0 
2.28023e+07 9.93085e+06 0 
9.93085e+06 -1.08074e+07 0 
0 0 0 
-2.70715e+07 5.05473e+06 0 
5.05473e+06 -1.31544e+07 0 
0 0 0 
2.15565e+07 -7.38458e+06 0 
-7.38458e+06 1.72245e+06 0 
0 0 0 
-1.46614e+07 -2.03674e+06 0 
-2.03674e+06 -1.37745e+07 0 
0 0 0 
1.14253e+06 -5.53779e+06 0 
-5.53779e+06 -1.5986e+07 0 
0 0 0 
-9.68451e+06 6.34787e+06 0 
6.34787e+06 -3.86867e+07 0 
0 0 0 
2.41875e+07 8.11708e+06 0 
8.11708e+06 9.09687e+06 0 
0 0 0 
-1.94994e+07 -905986 0 
-905986 -5.26506e+07 0 
0 0 0 
0 0 0 
0 0 0 
0 0 0 
-396076 1.38327e+07 0 
1.38327e+07 -3.11462e+07 0 
0 0 0 
2.39564e+06 1.74924e+07 0 
1.74924e+07 -3.71798e+07 0 
0 0 0 
3.65191e+06 3.76007e+06 0 
3.76007e+06 -2.02664e+07 0 
0 0 0 
-2.21356e+07 2.3969e+06 0 
2.3969e+06 -7.96502e+07 0 
0 0 0 
2.10615e+07 1.41187e+07 0 
1.41187e+07 -2.93495e+07 0 
0 0 0 
7.44718e+07 1.66011e+07 0 
1.66011e+07 8.20947e+07 0 
0 0 0 
6.41924e+07 3.02824e+07 0 
3.02824e+07 1.43667e+07 0 
0 0 0 
6.6638e+07 3.19896e+07 0 
3.19896e+07 -3.64905e+06 0 
0 0 0 
2.66963e+07 1.83213e+07 0 
1.83213e+07 -1.06062e+08 0 
0 0 0 
9.83096e+07 1.27653e+07 0 
1.27653e+07 8.03036e+07 0 
0 0 0 
7.66158e+07 8.11807e+06 0 
8.11807e+06 2.59195e+07 0 
0 0 0 
1.04343e+08 2.94774e+07 0 
2.94774e+07 1.15624e+08 0 
0 0 0 
4.12978e+07 1.7713e+07 0 
1.7713e+07 -2.71411e+07 0 
0 0 0 
7.72042e+07 2.49056e+07 0 
2.49056e+07 1.81941e+07 0 
0 0 0 
7.96266e+07 9.39824e+06 0 
9.39824e+06 3.24311e+07 0 
0 0 0 
5.92411e+07 1.33138e+07 0 
1.33138e+07 4.00705e+07 0 
0 0 0 
7.25268e+07 -2.36502e+06 0 
-2.36502e+06 4.80403e+07 0 
0 0 0 
6.16937e+07 2.44909e+07 0 
2.44909e+07 5.98131e+07 0 
0 0 0 
4.15616e+07 1.82902e+07 0 
1.82902e+07 9.05426e+06 0 
0 0 0 
8.66684e+07 1.16887e+07 0 
1.16887e+07 9.4913e+07 0 
0 0 0 
7.39437e+07 -298716 0 
-298716 7.15282e+07 0 
0 0 0 
7.91162e+07 3.58526e+06 0 
3.58526e+06 7.82267e+07 0 
0 0 0 
8.36302e+07 -1.57432e+07 0 
-1.57432e+07 5.58658e+07 0 
0 0 0 
8.79951e+07 5.2774e+06 0 
5.2774e+06 9.63378e+07 0 
0 0 0 
5.63903e+07 7.00732e+06 0 
7.00732e+06 8.17269e+07 0 
0 0 0 
9.37047e+07 7.90578e+06 0 
7.90578e+06 1.21612e+08 0 
0 0 0 
1.13257e+08 -2.10344e+07 0 
-2.10344e+07 8.62282e+07 0 
0 0 0 
1.14166e+08 -2.63179e+07 0 
-2.63179e+07 7.75307e+07 0 
0 0 0 
1.51947e+08 -2.39004e+07 0 
-2.39004e+07 1.12967e+08 0 
0 0 0 
1.72561e+08 -2.76375e+07 0 
-2.76375e+07 1.9129e+08 0 
0 0 0 
1.36206e+08 -2.21169e+07 0 
-2.21169e+07 1.57799e+08 0 
0 0 0 
5.54898e+07 -2.849e+07 0 
-2.849e+07 2.67518e+07 0 
0 0 0 
5.42114e+06 -2.90767e+07 0 
-2.90767e+07 -4.24994e+06 0 
0 0 0 
1.91e+07 -2.30553e+07 0 
-2.30553e+07 4.96069e+07 0 
0 0 0 
1.38522e+07 -3.02275e+07 0 
-3.02275e+07 4.08619e+07 0 
0 0 0 
-3.78696e+07 -3.34594e+07 0 
-3.34594e+07 -5.67399e+07 0 
0 0 0 
-6.46972e+07 -3.12872e+07 0 
-3.12872e+07 -9.45812e+07 0 
0 0 0 
-8.56463e+07 -3.09001e+07 0 
-3.09001e+07 -1.13377e+08 0 
0 0 0 
-1.18497e+08 -1.25582e+07 0 
-1.25582e+07 -1.23604e+08 0 
0 0 0 
-1.20331e+08 -3.27717e+07 0 
-3.27717e+07 -9.12061e+07 0 
0 0 0 
-1.38099e+08 -2.7741e+07 0 
-2.7741e+07 -1.53009e+08 0 
0 0 0 
-1.09262e+08 -1.46129e+07 0 
-1.46129e+07 -1.28515e+08 0 
0 0 0 
-7.26541e+07 1.02235e+07 0 
1.02235e+07 -7.01803e+07 0 
0 0 0 
-8.26485e+07 -7.05708e+06 0 
-7.05708e+06 -6.97919e+07 0 
0 0 0 
-8.59615e+07 -328171 0 
-328171 -9.96364e+07 0 
0 0 0 
-7.18842e+07 -1.79668e+06 0 
-1.79668e+06 -7.56037e+07 0 
0 0 0 
-2.01606e+07 1.79886e+07 0 
1.79886e+07 4.1923e+06 0 
0 0 0 
-9.88283e+06 2.08269e+07 0 
2.08269e+07 4.17886e+07 0 
0 0 0 
-3.49562e+07 1.34312e+07 0 
1.34312e+07 8.95977e+06 0 
0 0 0 
-4.57046e+07 1.40805e+07 0 
1.40805e+07 -5.92976e+07 0 
0 0 0 
-1.9533e+07 9.60832e+06 0 
9.60832e+06 2.19813e+07 0 
0 0 0 
5.96129e+06 1.8945e+07 0 
1.8945e+07 2.34684e+07 0 
0 0 0 
5.48083e+07 1.68739e+07 0 
1.68739e+07 8.29914e+07 0 
0 0 0 
4.54827e+07 1.37256e+07 0 
1.37256e+07 4.59408e+07 0 
0 0 0 
1.85598e+07 1.58123e+07 0 
1.58123e+07 3.45618e+07 0 
0 0 0 
8.37189e+06 1.0893e+07 0 
1.0893e+07 1.80973e+07 0 
0 0 0 
3.35505e+07 6.41886e+06 0 
6.41886e+06 6.33734e+07 0 
0 0 0 
-2.21229e+07 -6.83928e+06 0 
-6.83928e+06 -2.63526e+07 0 
0 0 0 
-2.5881e+07 3.65933e+06 0 
3.65933e+06 3.51377e+07 0 
0 0 0 
-4.15048e+07 6.95748e+06 0 
6.95748e+06 -2.16954e+07 0 
0 0 0 
-3.92394e+07 1.26761e+07 0 
1.26761e+07 -4.91389e+06 0 
0 0 0 
-3.98643e+07 7.95712e+06 0 
7.95712e+06 1.57746e+07 0 
0 0 0 
-2.40075e+07 9.03306e+06 0 
9.03306e+06 -2.05035e+07 0 
0 0 0 
-5.14239e+06 4.24671e+06 0 
4.24671e+06 -1.57613e+07 0 
0 0 0 
7.34546e+06 5.30024e+06 0 
5.30024e+06 3.15914e+07 0 
0 0 0 
4.5898e+06 5.33378e+06 0 
5.33378e+06 2.35814e+07 0 
0 0 0 
-2.19893e+06 -6.16297e+06 0 
-6.16297e+06 3.72686e+06 0 
0 0 0 
-1.05552e+07 5.43618e+06 0 
5.43618e+06 -4.90244e+07 0 
0 0 0 
1.07364e+07 9.12122e+06 0 
9.12122e+06 -6.96393e+06 0 
0 0 0 
1.74556e+07 1.12041e+06 0 
1.12041e+06 2.64394e+07 0 
0 0 0 
5.98237e+06 2.81056e+06 0 
2.81056e+06 -8.86532e+06 0 
0 0 0 
-9.73322e+06 88432.7 0 
88432.7 -1.4115e+07 0 
0 0 0 
-1.55572e+07 -7.32931e+06 0 
-7.32931e+06 -2.66575e+07 0 
0 0 0 
-1.17047e+07 210170 0 
210170 -1.62716e+07 0 
0 0 0 
5.86638e+06 -4.17309e+06 0 
-4.17309e+06 6.7741e+07 0 
0 0 0 
-2.64902e+07 8.1542e+06 0 
8.1542e+06 -5.73328e+06 0 
0 0 0 
-5.85399e+07 1.70721e+07 0 
1.70721e+07 -5.47469e+07 0 
0 0 0 
-5.6623e+07 8.4076e+06 0 
8.4076e+06 -5.17983e+07 0 
0 0 0 
-3.62996e+07 -3.9649e+06 0 
-3.9649e+06 -1.5952e+07 0 
0 0 0 
-4.48715e+06 -1.75499e+07 0 
-1.75499e+07 8.19057e+07 0 
0 0 0 
-3.37943e+07 -4.907e+06 0 
-4.907e+06 2.70788e+07 0 
0 0 0 
-4.11267e+07 3.99047e+06 0 
3.99047e+06 -2.58956e+07 0 
0 0 0 
-4.82477e+07 1.58848e+07 0 
1.58848e+07 -5.21301e+07 0 
0 0 0 
-5.20386e+07 516276 0 
516276 -3.51521e+07 0 
0 0 0 
-1.93797e+07 -6.11985e+06 0 
-6.11985e+06 4.71075e+06 0 
0 0 0 
1.80804e+06 -2.61996e+06 0 
-2.61996e+06 3.38712e+07 0 
0 0 0 
-1.1663e+07 -1.58668e+06 0 
-1.58668e+06 1.22659e+07 0 
0 0 0 
0 0 0 
0 0 0 
0 0 0 
4.13232e+06 -958067 0 
-958067 -4.71216e+06 0 
0 0 0 
3.35731e+06 -5.08954e+06 0 
-5.08954e+06 -5.12232e+06 0 
0 0 0 
-1.68682e+07 7.83056e+06 0 
7.83056e+06 -1.73768e+07 0 
0 0 0 
-2.16462e+06 973360 0 
973360 -3.19734e+07 0 
0 0 0 
-2.82244e+07 9.53516e+06 0 
9.53516e+06 -2.48553e+07 0 
0 0 0 
-990869 751393 0 
751393 -1.60493e+07 0 
0 0 0 
-1.52856e+07 1.63475e+06 0 
1.63475e+06 -1.64302e+07 0 
0 0 0 
4.44213e+06 -1.04518e+07 0 
-1.04518e+07 1.41263e+07 0 
0 0 0 
-1.93724e+07 53022.4 0 
53022.4 4.68421e+06 0 
0 0 0 
5.05811e+06 9.6359e+06 0 
9.6359e+06 2.91795e+07 0 
0 0 0 
-2.2459e+06 1.20097e+07 0 
1.20097e+07 1.84954e+07 0 
0 0 0 
3.66923e+07 1.42565e+07 0 
1.42565e+07 3.28949e+07 0 
0 0 0 
3.91395e+07 9.28381e+06 0 
9.28381e+06 2.64578e+07 0 
0 0 0 
2.22263e+07 -1.02307e+07 0 
-1.02307e+07 1.58999e+07 0 
0 0 0 
2.87762e+07 -6.74919e+06 0 
-6.74919e+06 1.35683e+07 0 
0 0 0 
-3.87942e+07 -9.70319e+06 0 
-9.70319e+06 -1.13882e+07 0 
0 0 0 
-1.11277e+07 -6.07945e+06 0 
-6.07945e+06 -5.8191e+06 0 
0 0 0 
-2.01566e+07 -2.56677e+06 0 
-2.56677e+06 -3.47545e+06 0 
0 0 0 
-6.88397e+06 -8.3575e+06 0 
-8.3575e+06 -5.84248e+06 0 
0 0 0 
2.03014e+07 -1.05248e+07 0 
-1.05248e+07 -2.2136e+07 0 
0 0 0 
-1.45772e+07 -1.20452e+07 0 
-1.20452e+07 -2.34951e+07 0 
0 0 0 
-919961 4.69277e+06 0 
4.69277e+06 -2.0737e+07 0 
0 0 0 
-6.5202e+07 3.3481e+06 0 
3.3481e+06 -4.3797e+07 0 
0 0 0 
-1.70642e+07 1.11671e+07 0 
1.11671e+07 -4.33343e+06 0 
0 0 0 
-2.58289e+07 7.73741e+06 0 
7.73741e+06 1.43668e+07 0 
0 0 0 
6.15359e+07 63895.7 0 
63895.7 4.95979e+07 0 
0 0 0 
4.92885e+06 2.95386e+06 0 
2.95386e+06 3.90721e+07 0 
0 0 0 
8.92187e+07 -1.95091e+06 0 
-1.95091e+06 7.16517e+07 0 
0 0 0 
-3.00734e+07 -1.02648e+07 0 
-1.02648e+07 3.29986e+07 0 
0 0 0 
4.14585e+07 -2.32477e+06 0 
-2.32477e+06 5.24452e+07 0 
0 0 0 
-1.51402e+07 177440 0 
177440 4.11143e+07 0 
0 0 0 
2.4172e+07 903136 0 
903136 4.44598e+07 0 
0 0 0 
1.30571e+07 1.30374e+06 0 
1.30374e+06 4.40289e+07 0 
0 0 0 
-3.43769e+07 5.58663e+06 0 
5.58663e+06 2.3546e+07 0 
0 0 0 
3.71381e+07 327654 0 
327654 1.8207e+07 0 
0 0 0 
-5.24343e+07 1.32583e+07 0 
1.32583e+07 -4.81899e+06 0 
0 0 0 
3.63247e+07 1.04791e+07 0 
1.04791e+07 7.56136e+06 0 
0 0 0 
-2.0537e+07 1.10161e+07 0 
1.10161e+07 -1.1428e+07 0 
0 0 0 
8.50298e+06 7.93156e+06 0 
7.93156e+06 380137 0 
0 0 0 
1.10567e+07 -2.71529e+06 0 
-2.71529e+06 2.19878e+06 0 
0 0 0 
-481104 -7.23749e+06 0 
-7.23749e+06 1.35626e+07 0 
0 0 0 
-5.17586e+06 1.19615e+06 0 
1.19615e+06 1.68495e+07 0 
0 0 0 
-2.7726e+06 1.4374e+06 0 
1.4374e+06 4.28474e+07 0 
0 0 0 
2.3022e+07 306136 0 
306136 4.92919e+07 0 
0 0 0 
-147733 4.11611e+06 0 
4.11611e+06 4.16828e+07 0 
0 0 0 
3.75889e+07 1.10025e+06 0 
1.10025e+06 4.79942e+07 0 
0 0 0 
-9.5704e+06 3.11146e+06 0 
3.11146e+06 5.01202e+07 0 
0 0 0 
4.91298e+07 2.21388e+06 0 
2.21388e+06 6.21669e+07 0 
0 0 0 
1.74437e+06 1.16498e+06 0 
1.16498e+06 4.34474e+07 0 
0 0 0 
4.49811e+07 1.03654e+07 0 
1.03654e+07 8.18739e+07 0 
0 0 0 
1.85794e+07 1.40703e+06 0 
1.40703e+06 5.67009e+07 0 
0 0 0 
-2.77152e+06 -6.96222e+06 0 
-6.96222e+06 4.88332e+07 0 
0 0 0 
1.58783e+07 -1.13223e+07 0 
-1.13223e+07 6.14844e+07 0 
0 0 0 
1.19773e+07 -1.25706e+07 0 
-1.25706e+07 4.10642e+07 0 
0 0 0 
3.18178e+07 -7.73909e+06 0 
-7.73909e+06 4.6859e+07 0 
0 0 0 
3.70769e+07 534626 0 
534626 4.82831e+07 0 
0 0 0 
-9.00362e+06 2.28095e+06 0 
2.28095e+06 2.1726e+07 0 
0 0 0 
6.5186e+06 979669 0 
979669 3.82354e+07 0 
0 0 0 
-5.80935e+06 -1.79349e+06 0 
-1.79349e+06 2.94889e+07 0 
0 0 0 
1.49139e+07 2.38527e+06 0 
2.38527e+06 3.49591e+07 0 
0 0 0 
3.70963e+07 7.81465e+06 0 
7.81465e+06 4.96476e+07 0 
0 0 0 
4.38227e+06 7.29778e+06 0 
7.29778e+06 2.48042e+07 0 
0 0 0 
9.68544e+06 4.64294e+06 0 
4.64294e+06 4.19143e+07 0 
0 0 0 
-2.02768e+07 -5.96629e+06 0 
-5.96629e+06 2.52531e+07 0 
0 0 0 
7.65811e+06 -5.51214e+06 0 
-5.51214e+06 4.35519e+07 0 
0 0 0 
1.82171e+07 -1.83491e+06 0 
-1.83491e+06 7.25854e+07 0 
0 0 0 
1.97509e+07 -4.1426e+06 0 
-4.1426e+06 5.4352e+07 0 
0 0 0 
7.52608e+06 -1.14983e+06 0 
-1.14983e+06 4.06918e+07 0 
0 0 0 
1.27534e+07 5.23107e+06 0 
5.23107e+06 3.77434e+07 0 
0 0 0 
-7.92311e+06 1.00191e+07 0 
1.00191e+07 1.77272e+07 0 
0 0 0 
2.02791e+07 8.56212e+06 0 
8.56212e+06 3.65086e+07 0 
0 0 0 
2.84209e+07 4.57176e+06 0 
4.57176e+06 5.07278e+07 0 
0 0 0 
2.86821e+07 5.65924e+06 0 
5.65924e+06 5.22465e+07 0 
0 0 0 
1.49929e+07 -648920 0 
-648920 3.83746e+07 0 
0 0 0 
6.48358e+06 4.21655e+06 0 
4.21655e+06 6.61348e+06 0 
0 0 0 
-1.72193e+07 -745694 0 
-745694 5.35578e+06 0 
0 0 0 
-5.60587e+06 -2.7096e+06 0 
-2.7096e+06 8.53617e+06 0 
0 0 0 
-257121 -64172.1 0 
-64172.1 -4.17893e+06 0 
0 0 0 
2.41211e+07 4.89358e+06 0 
4.89358e+06 2.7537e+06 0 
0 0 0 
-2.49852e+07 1.00773e+07 0 
1.00773e+07 -9.77399e+06 0 
0 0 0 
1.7777e+07 1.64767e+06 0 
1.64767e+06 -4.51226e+06 0 
0 0 0 
-3.70467e+07 6.08098e+06 0 
6.08098e+06 -3.0671e+07 0 
0 0 0 
3.60059e+06 -7.43701e+06 0 
-7.43701e+06 -1.4199e+07 0 
0 0 0 
-6.45408e+06 5.50311e+06 0 
5.50311e+06 -1.32612e+07 0 
0 0 0 
8.01355e+06 -1.07322e+06 0 
-1.07322e+06 9.35832e+06 0 
0 0 0 
1.41307e+07 -458695 0 
-458695 2.56048e+07 0 
0 0 0 
-2.10574e+07 -7.34974e+06 0 
-7.34974e+06 1.41968e+07 0 
0 0 0 
-2.46684e+07 3.039e+06 0 
3.039e+06 -4.97365e+07 0 
0 0 0 
6.64057e+06 -1.0005e+07 0 
-1.0005e+07 7.91622e+06 0 
0 0 0 
0 0 0 
0 0 0 
0 0 0 
-1.5272e+07 6.91437e+06 0 
6.91437e+06 -1.37989e+07 0 
0 0 0 
-3.38821e+07 1.27527e+07 0 
1.27527e+07 -6.37575e+07 0 
0 0 0 
-3.91932e+07 89424 0 
89424 -4.24947e+07 0 
0 0 0 
-4.94124e+07 1.03101e+07 0 
1.03101e+07 -7.16434e+07 0 
0 0 0 
-2.15232e+07 2.96356e+07 0 
2.96356e+07 -3.5448e+07 0 
0 0 0 
2.42494e+07 2.37786e+07 0 
2.37786e+07 6.334e+07 0 
0 0 0 
-3.13833e+06 2.18251e+07 0 
2.18251e+07 3.1884e+06 0 
0 0 0 
-4.82329e+07 1.28323e+07 0 
1.28323e+07 -4.91043e+07 0 
0 0 0 
-9.73613e+07 2.37244e+07 0 
2.37244e+07 -1.54313e+08 0 
0 0 0 
-5.5417e+07 2.08951e+07 0 
2.08951e+07 1.70363e+07 0 
0 0 0 
-6.25277e+07 8.12529e+06 0 
8.12529e+06 -1.66683e+07 0 
0 0 0 
-3.67955e+07 1.53968e+07 0 
1.53968e+07 7.69684e+07 0 
0 0 0 
-7.36093e+07 2.46654e+07 0 
2.46654e+07 -4.78933e+07 0 
0 0 0 
-7.90894e+07 4.21982e+07 0 
4.21982e+07 -5.02368e+07 0 
0 0 0 
-6.47727e+07 1.2157e+07 0 
1.2157e+07 -2.79946e+07 0 
0 0 0 
-5.901e+07 1.6737e+07 0 
1.6737e+07 -2.19544e+07 0 
0 0 0 
-5.66259e+07 2.31261e+06 0 
2.31261e+06 3.99529e+07 0 
0 0 0 
-5.31178e+07 1.92435e+07 0 
1.92435e+07 1.58056e+07 0 
0 0 0 
-7.60828e+07 1.12931e+07 0 
1.12931e+07 -3.06842e+07 0 
0 0 0 
-6.25566e+07 1.56775e+07 0 
1.56775e+07 3.33638e+07 0 
0 0 0 
-3.8233e+07 1.2493e+06 0 
1.2493e+06 8.95071e+06 0 
0 0 0 
-1.77728e+07 6.83081e+06 0 
6.83081e+06 4.69076e+07 0 
0 0 0 
-3.26196e+07 -8.06557e+06 0 
-8.06557e+06 5.02307e+06 0 
0 0 0 
1.0502e+07 -1.33141e+07 0 
-1.33141e+07 9.44335e+07 0 
0 0 0 
2.17e+07 -375721 0 
-375721 7.35561e+07 0 
0 0 0 
1.21003e+07 8.41519e+06 0 
8.41519e+06 7.06377e+07 0 
0 0 0 
7.68764e+06 -1.12505e+07 0 
-1.12505e+07 2.19004e+07 0 
0 0 0 
4.21018e+07 -2.40901e+07 0 
-2.40901e+07 4.70047e+07 0 
0 0 0 
3.07439e+07 -2.76685e+07 0 
-2.76685e+07 7.42935e+07 0 
0 0 0 
4.9435e+07 -2.92782e+07 0 
-2.92782e+07 1.41927e+08 0 
0 0 0 
3.41157e+07 -4.10924e+07 0 
-4.10924e+07 1.07258e+08 0 
0 0 0 
-1.284e+07 -4.35699e+07 0 
-4.35699e+07 -7.32449e+06 0 
0 0 0 
-5.33007e+06 -3.55134e+07 0 
-3.55134e+07 1.68544e+07 0 
0 0 0 
-1.57017e+07 -3.62001e+07 0 
-3.62001e+07 2.055e+07 0 
0 0 0 
-5.36452e+07 -4.59937e+07 0 
-4.59937e+07 2.84059e+06 0 
0 0 0 
-9.83721e+07 -4.63579e+07 0 
-4.63579e+07 -9.19309e+07 0 
0 0 0 
-8.60008e+07 -4.57479e+07 0 
-4.57479e+07 -8.55784e+07 0 
0 0 0 
-7.11792e+07 -3.52225e+07 0 
-3.52225e+07 -8.15365e+07 0 
0 0 0 
-7.68573e+07 -2.70876e+07 0 
-2.70876e+07 -1.16643e+08 0 
0 0 0 
-7.98475e+07 -3.29492e+07 0 
-3.29492e+07 -9.18382e+07 0 
0 0 0 
-8.77423e+07 -2.61587e+07 0 
-2.61587e+07 -1.435e+08 0 
0 0 0 
-6.64083e+07 -1.65386e+07 0 
-1.65386e+07 -7.09969e+07 0 
0 0 0 
-7.94089e+07 8.89267e+06 0 
8.89267e+06 -6.68808e+07 0 
0 0 0 
-6.65459e+07 9.66593e+06 0 
9.66593e+06 -7.62037e+07 0 
0 0 0 
-6.90185e+07 1.0538e+07 0 
1.0538e+07 -1.01979e+08 0 
0 0 0 
-3.46062e+07 2.84014e+06 0 
2.84014e+06 -4.17892e+07 0 
0 0 0 
7.42828e+06 2.59096e+07 0 
2.59096e+07 2.91727e+07 0 
0 0 0 
2.08416e+07 3.00298e+06 0 
3.00298e+06 3.85407e+07 0 
0 0 0 
1.77837e+07 1.74104e+07 0 
1.74104e+07 2.17002e+07 0 
0 0 0 
-9.99097e+06 2.56215e+07 0 
2.56215e+07 -3.29308e+07 0 
0 0 0 
8.52259e+06 1.824e+07 0 
1.824e+07 1.22703e+07 0 
0 0 0 
5.06764e+07 3.33642e+07 0 
3.33642e+07 6.6438e+07 0 
0 0 0 
5.80016e+07 2.18743e+07 0 
2.18743e+07 6.05981e+07 0 
0 0 0 
5.15846e+07 1.82909e+07 0 
1.82909e+07 4.91249e+07 0 
0 0 0 
6.22027e+07 -639274 0 
-639274 4.71247e+07 0 
0 0 0 
3.3776e+07 7.33288e+06 0 
7.33288e+06 2.00243e+07 0 
0 0 0 
2.41398e+07 4.7357e+06 0 
4.7357e+06 5.35052e+07 0 
0 0 0 
2.1041e+07 110957 0 
110957 -2.7145e+07 0 
0 0 0 
7.18838e+07 -2.20603e+06 0 
-2.20603e+06 7.71561e+07 0 
0 0 0 
4.65421e+07 1.08449e+07 0 
1.08449e+07 8.31437e+06 0 
0 0 0 
5.07161e+07 8.21297e+06 0 
8.21297e+06 4.28984e+07 0 
0 0 0 
4.50597e+07 -6.90724e+06 0 
-6.90724e+06 3.66251e+07 0 
0 0 0 
2.45515e+07 1.18319e+07 0 
1.18319e+07 -9.38003e+06 0 
0 0 0 
1.0084e+07 1.12008e+07 0 
1.12008e+07 -2.4661e+06 0 
0 0 0 
8.32841e+06 5.57157e+06 0 
5.57157e+06 2.53065e+07 0 
0 0 0 
1.82778e+07 9.79741e+06 0 
9.79741e+06 3.43564e+07 0 
0 0 0 
1.43782e+07 6.15771e+06 0 
6.15771e+06 -5.93641e+06 0 
0 0 0 
5.19432e+06 3.20139e+06 0 
3.20139e+06 -4.31901e+07 0 
0 0 0 
1.10643e+07 -4.6543e+06 0 
-4.6543e+06 -1.14724e+07 0 
0 0 0 
8.38151e+06 -5.55674e+06 0 
-5.55674e+06 1.31293e+07 0 
0 0 0 
-1.54731e+07 -6.20061e+06 0 
-6.20061e+06 -2.08997e+06 0 
0 0 0 
-3.06272e+07 -335419 0 
-335419 -3.32197e+07 0 
0 0 0 
-2.90287e+07 3.92064e+06 0 
3.92064e+06 -1.86033e+07 0 
0 0 0 
-3.46415e+07 -2.32814e+06 0 
-2.32814e+06 -3.01594e+07 0 
0 0 0 
1.25916e+07 -8.49316e+06 0 
-8.49316e+06 6.38492e+07 0 
0 0 0 
1.45356e+07 -1.25912e+06 0 
-1.25912e+06 1.53899e+07 0 
0 0 0 
1.24495e+07 1.15048e+07 0 
1.15048e+07 -1.17574e+07 0 
0 0 0 
-6.19202e+06 7.41231e+06 0 
7.41231e+06 -5.12703e+07 0 
0 0 0 
7.32866e+06 9.63629e+06 0 
9.63629e+06 -1.88658e+07 0 
0 0 0 
6.4813e+07 -3.61912e+06 0 
-3.61912e+06 1.02227e+08 0 
0 0 0 
7.47717e+07 -579870 0 
-579870 6.97674e+07 0 
0 0 0 
5.09107e+07 7.18299e+06 0 
7.18299e+06 1.88448e+07 0 
0 0 0 
2.42007e+07 1.63823e+06 0 
1.63823e+06 -1.56431e+07 0 
0 0 0 
1.15624e+07 9.0912e+06 0 
9.0912e+06 -3.95239e+07 0 
0 0 0 
2.48345e+07 -4.10877e+06 0 
-4.10877e+06 1.67646e+07 0 
0 0 0 
2.95133e+07 -1.47812e+07 0 
-1.47812e+07 4.64099e+07 0 
0 0 0 
2.83645e+06 -2.35023e+06 0 
-2.35023e+06 2.06336e+07 0 
0 0 0 
-4.0559e+07 -130287 0 
-130287 -4.70916e+07 0 
0 0 0 
0 0 0 
0 0 0 
0 0 0 
-32954.4 -3.63154e+06 0 
-3.63154e+06 -2.77e+06 0 
0 0 0 
1.09426e+07 -149358 0 
-149358 2.52651e+06 0 
0 0 0 
-7.68826e+06 3.42903e+06 0 
3.42903e+06 -1.75619e+07 0 
0 0 0 
-5.32245e+06 3.45508e+06 0 
3.45508e+06 -2.0726e+07 0 
0 0 0 
-2.46646e+07 1.00373e+07 0 
1.00373e+07 -2.99523e+07 0 
0 0 0 
-1.51254e+07 -2.32551e+06 0 
-2.32551e+06 -2.24625e+07 0 
0 0 0 
-1.82459e+07 94855.7 0 
94855.7 -2.31583e+07 0 
0 0 0 
-1.42067e+07 -5.40656e+06 0 
-5.40656e+06 -2.36976e+07 0 
0 0 0 
-2.99252e+06 -3.93932e+06 0 
-3.93932e+06 -4.34175e+06 0 
0 0 0 
6.58068e+06 1.06536e+07 0 
1.06536e+07 -7.94507e+06 0 
0 0 0 
-8.65063e+06 7.51347e+06 0 
7.51347e+06 -96859.2 0 
0 0 0 
2.99832e+07 1.64192e+07 0 
1.64192e+07 2.22278e+07 0 
0 0 0 
1.92464e+07 -2.15535e+06 0 
-2.15535e+06 2.74255e+07 0 
0 0 0 
-591378 -1.15514e+07 0 
-1.15514e+07 1.09158e+07 0 
0 0 0 
3.66091e+07 -2.47561e+07 0 
-2.47561e+07 1.40773e+07 0 
0 0 0 
-3.54427e+07 -1.19553e+07 0 
-1.19553e+07 -1.89109e+07 0 
0 0 0 
-7.23871e+06 -6.81257e+06 0 
-6.81257e+06 -9.06089e+06 0 
0 0 0 
-2.82409e+07 -2.51726e+06 0 
-2.51726e+06 -2.56898e+07 0 
0 0 0 
3.95615e+06 2.27184e+06 0 
2.27184e+06 1.26896e+06 0 
0 0 0 
8.27585e+06 -6.679e+06 0 
-6.679e+06 2.91591e+07 0 
0 0 0 
2.67256e+07 -2.41536e+06 0 
-2.41536e+06 3.1101e+07 0 
0 0 0 
9.40094e+06 -6.91894e+06 0 
-6.91894e+06 2.32924e+07 0 
0 0 0 
-5.37176e+07 -3.84081e+06 0 
-3.84081e+06 -2.28302e+07 0 
0 0 0 
-9.91337e+06 1.04128e+07 0 
1.04128e+07 -3.64925e+07 0 
0 0 0 
-5.82964e+07 1.06314e+07 0 
1.06314e+07 -6.71268e+07 0 
0 0 0 
4.02249e+07 1.54895e+07 0 
1.54895e+07 -2.21146e+07 0 
0 0 0 
-1.71906e+07 1.73392e+07 0 
1.73392e+07 -3.11091e+07 0 
0 0 0 
4.84909e+07 421461 0 
421461 3.55419e+06 0 
0 0 0 
-4.08765e+07 -3.26285e+06 0 
-3.26285e+06 -7.80232e+06 0 
0 0 0 
2.20948e+07 -4.09474e+06 0 
-4.09474e+06 1.15689e+07 0 
0 0 0 
-2.3509e+07 -1.40308e+07 0 
-1.40308e+07 -1.94193e+07 0 
0 0 0 
1.93042e+06 -3.78271e+06 0 
-3.78271e+06 -1.94045e+07 0 
0 0 0 
-7.62487e+06 -3.49525e+06 0 
-3.49525e+06 -2.77692e+07 0 
0 0 0 
-5.42978e+07 -3.83025e+06 0 
-3.83025e+06 -4.21499e+07 0 
0 0 0 
2.62892e+07 -3.55586e+06 0 
-3.55586e+06 4.00955e+06 0 
0 0 0 
-3.50709e+07 2.11613e+06 0 
2.11613e+06 -2.42422e+07 0 
0 0 0 
1.66458e+07 4.70665e+06 0 
4.70665e+06 -1.60291e+07 0 
0 0 0 
-1.79139e+07 1.1343e+07 0 
1.1343e+07 -4.44597e+07 0 
0 0 0 
-2.31295e+07 1.0097e+07 0 
1.0097e+07 -4.77219e+07 0 
0 0 0 
-6.09377e+06 9.36674e+06 0 
9.36674e+06 -3.73008e+07 0 
0 0 0 
-1.62893e+07 2.37636e+06 0 
2.37636e+06 -4.47878e+07 0 
0 0 0 
-2.25166e+07 6.76767e+06 0 
6.76767e+06 -3.02204e+07 0 
0 0 0 
-2.03793e+07 8.02417e+06 0 
8.02417e+06 -3.47629e+07 0 
0 0 0 
-6.12782e+06 5.64735e+06 0 
5.64735e+06 -1.60648e+07 0 
0 0 0 
-1.30037e+07 6.16942e+06 0 
6.16942e+06 -2.26498e+07 0 
0 0 0 
8.11081e+06 2.29066e+06 0 
2.29066e+06 -2.52788e+07 0 
0 0 0 
-3.72991e+07 5.64481e+06 0 
5.64481e+06 -5.16403e+07 0 
0 0 0 
-1.51166e+06 -2.05651e+06 0 
-2.05651e+06 -4.39248e+07 0 
0 0 0 
-2.93752e+07 354768 0 
354768 -6.37841e+07 0 
0 0 0 
5.48881e+06 -3.80538e+06 0 
-3.80538e+06 -6.54347e+07 0 
0 0 0 
-4.33743e+07 -6.79387e+06 0 
-6.79387e+06 -7.47664e+07 0 
0 0 0 
-3.69663e+07 6.89211e+06 0 
6.89211e+06 -6.98891e+07 0 
0 0 0 
-3.10677e+07 3.0918e+06 0 
3.0918e+06 -4.68702e+07 0 
0 0 0 
-1.03165e+07 -8.47977e+06 0 
-8.47977e+06 -7.40658e+06 0 
0 0 0 
3.84037e+07 -1.01822e+07 0 
-1.01822e+07 1.53556e+07 0 
0 0 0 
2.21925e+07 -1.6892e+07 0 
-1.6892e+07 1.38405e+07 0 
0 0 0 
-1.06358e+07 -4.89333e+06 0 
-4.89333e+06 7.43764e+06 0 
0 0 0 
-1.80272e+07 -1.04114e+07 0 
-1.04114e+07 -1.18314e+07 0 
0 0 0 
-2.58225e+06 -1.74191e+06 0 
-1.74191e+06 -2.03341e+06 0 
0 0 0 
1.24914e+07 4.12724e+06 0 
4.12724e+06 8.67204e+06 0 
0 0 0 
3.70416e+07 4.33762e+06 0 
4.33762e+06 1.08627e+07 0 
0 0 0 
-4.73624e+06 9.39667e+06 0 
9.39667e+06 1.82727e+07 0 
0 0 0 
-1.21574e+07 3.59096e+06 0 
3.59096e+06 -263438 0 
0 0 0 
-3.6106e+07 -151106 0 
-151106 -6.53331e+06 0 
0 0 0 
-1.60364e+07 -479277 0 
-479277 1.03745e+06 0 
0 0 0 
18906.1 -2.89767e+06 0 
-2.89767e+06 -8.32788e+06 0 
0 0 0 
675043 -1.15062e+07 0 
-1.15062e+07 1.04785e+07 0 
0 0 0 
6.02912e+06 -5.72126e+06 0 
-5.72126e+06 1.74496e+07 0 
0 0 0 
1.03739e+07 -1.74417e+06 0 
-1.74417e+06 9.47792e+06 0 
0 0 0 
-7.81108e+06 -1.12375e+06 0 
-1.12375e+06 8.75241e+06 0 
0 0 0 
4.12152e+06 2.7632e+06 0 
2.7632e+06 7.21981e+06 0 
0 0 0 
9.00663e+06 612942 0 
612942 -7.30981e+06 0 
0 0 0 
-2.85656e+06 -1.86496e+06 0 
-1.86496e+06 -1.55466e+07 0 
0 0 0 
-1.96236e+06 -1.03134e+07 0 
-1.03134e+07 -1.67128e+07 0 
0 0 0 
-2.98782e+06 -7.05504e+06 0 
-7.05504e+06 -8.53522e+06 0 
0 0 0 
-3.32721e+07 -1.02379e+07 0 
-1.02379e+07 -2.08968e+07 0 
0 0 0 
1.73991e+06 -1.37993e+07 0 
-1.37993e+07 -9.44327e+06 0 
0 0 0 
-7.56497e+06 -5.12008e+06 0 
-5.12008e+06 -2.02167e+07 0 
0 0 0 
1.85048e+07 -1.13571e+07 0 
-1.13571e+07 -1.97096e+07 0 
0 0 0 
-2.50099e+07 -87427.6 0 
-87427.6 -4.80195e+07 0 
0 0 0 
511147 2.15935e+06 0 
2.15935e+06 -3.47884e+07 0 
0 0 0 
-4.00684e+07 -927571 0 
-927571 -3.81079e+07 0 
0 0 0 
426796 -7.03855e+06 0 
-7.03855e+06 -1.82896e+07 0 
0 0 0 
2.66416e+06 2.64284e+06 0 
2.64284e+06 -8.48821e+06 0 
0 0 0 
-1.02164e+07 1.69575e+06 0 
1.69575e+06 -8.60914e+06 0 
0 0 0 
2.66161e+06 -4.66455e+06 0 
-4.66455e+06 5.47097e+06 0 
0 0 0 
-2.38586e+07 -2.55409e+06 0 
-2.55409e+06 1.33402e+06 0 
0 0 0 
-2.31407e+06 -7.31363e+06 0 
-7.31363e+06 8.23536e+06 0 
0 0 0 
-1.61206e+07 -2.01641e+06 0 
-2.01641e+06 -1.127e+07 0 
0 0 0 
-2.42473e+06 -5.66986e+06 0 
-5.66986e+06 9.41106e+06 0 
0 0 0 
0 0 0 
0 0 0 
0 0 0 
-1.26463e+07 -2.80125e+06 0 
-2.80125e+06 -1.74301e+07 0 
0 0 0 
-4.82903e+07 7.21825e+06 0 
7.21825e+06 -5.3458e+07 0 
0 0 0 
-5.77641e+07 -9.03425e+06 0 
-9.03425e+06 -6.63944e+07 0 
0 0 0 
-6.32561e+07 5.91107e+06 0 
5.91107e+06 -5.08015e+07 0 
0 0 0 
-5.6219e+07 3.76735e+07 0 
3.76735e+07 -2.50247e+07 0 
0 0 0 
-3.17879e+07 2.55438e+07 0 
2.55438e+07 2.98407e+07 0 
0 0 0 
-4.65338e+07 2.44512e+07 0 
2.44512e+07 -1.43538e+07 0 
0 0 0 
-5.61498e+07 8.90723e+06 0 
8.90723e+06 -6.71216e+07 0 
0 0 0 
-7.84894e+07 1.7731e+07 0 
1.7731e+07 -1.07904e+08 0 
0 0 0 
-4.01239e+07 2.8733e+07 0 
2.8733e+07 -2.80304e+06 0 
0 0 0 
-2.37047e+07 2.60282e+07 0 
2.60282e+07 -1.45411e+07 0 
0 0 0 
3.5857e+07 2.22697e+07 0 
2.22697e+07 1.05484e+08 0 
0 0 0 
1.02117e+07 2.81403e+07 0 
2.81403e+07 6.55892e+06 0 
0 0 0 
-876216 3.09369e+07 0 
3.09369e+07 -3.43583e+07 0 
0 0 0 
-1.7857e+06 2.19053e+07 0 
2.19053e+07 -3.25751e+07 0 
0 0 0 
1.02975e+07 8.52017e+06 0 
8.52017e+06 -1.23046e+07 0 
0 0 0 
6.29975e+07 3.12695e+06 0 
3.12695e+06 8.43164e+07 0 
0 0 0 
5.69543e+07 1.19529e+07 0 
1.19529e+07 6.00669e+07 0 
0 0 0 
5.59892e+07 2.2042e+07 0 
2.2042e+07 2.95608e+07 0 
0 0 0 
8.38045e+07 2.35346e+07 0 
2.35346e+07 5.87598e+07 0 
0 0 0 
7.84754e+07 2.5167e+07 0 
2.5167e+07 4.56573e+07 0 
0 0 0 
6.81698e+07 -1.08205e+06 0 
-1.08205e+06 4.44683e+07 0 
0 0 0 
5.58397e+07 -2.32309e+06 0 
-2.32309e+06 3.74754e+07 0 
0 0 0 
8.90852e+07 -20680.6 0 
-20680.6 1.13233e+08 0 
0 0 0 
8.15634e+07 2.98917e+06 0 
2.98917e+06 1.23782e+08 0 
0 0 0 
2.28179e+07 419465 0 
419465 4.40869e+07 0 
0 0 0 
-4.0352e+07 282809 0 
282809 -5.49302e+06 0 
0 0 0 
-4.91525e+07 -9.75435e+06 0 
-9.75435e+06 8.48233e+06 0 
0 0 0 
-1.98605e+07 -1.82063e+07 0 
-1.82063e+07 4.08256e+07 0 
0 0 0 
1.29679e+07 -3.02914e+07 0 
-3.02914e+07 1.14312e+08 0 
0 0 0 
-1.08217e+07 -4.526e+07 0 
-4.526e+07 6.74086e+07 0 
0 0 0 
-3.85175e+07 -3.5863e+07 0 
-3.5863e+07 4.96135e+06 0 
0 0 0 
-3.03428e+07 -3.07079e+07 0 
-3.07079e+07 5.8691e+06 0 
0 0 0 
-4.4761e+07 -3.95271e+07 0 
-3.95271e+07 3.31422e+06 0 
0 0 0 
-5.11571e+07 -4.69278e+07 0 
-4.69278e+07 -1.66758e+07 0 
0 0 0 
-5.58787e+07 -3.23045e+07 0 
-3.23045e+07 -8.03816e+07 0 
0 0 0 
-5.99886e+07 -3.08358e+07 0 
-3.08358e+07 -5.83795e+07 0 
0 0 0 
-8.71566e+07 -3.23799e+07 0 
-3.23799e+07 -8.41411e+07 0 
0 0 0 
-1.14218e+08 -3.59521e+07 0 
-3.59521e+07 -1.30747e+08 0 
0 0 0 
-8.67881e+07 -3.14735e+07 0 
-3.14735e+07 -9.92774e+07 0 
0 0 0 
-9.03448e+07 -1.58336e+07 0 
-1.58336e+07 -1.26369e+08 0 
0 0 0 
-5.32102e+07 1.53336e+06 0 
1.53336e+06 -4.61971e+07 0 
0 0 0 
-3.44579e+07 5.42198e+06 0 
5.42198e+06 -5.90365e+07 0 
0 0 0 
-5.14805e+07 -2.82542e+06 0 
-2.82542e+06 -6.29689e+07 0 
0 0 0 
-7.77729e+07 7.71331e+06 0 
7.71331e+06 -1.09723e+08 0 
0 0 0 
-4.64841e+07 2.45905e+07 0 
2.45905e+07 -2.45576e+07 0 
0 0 0 
-1.35804e+07 3.8546e+07 0 
3.8546e+07 2.65229e+07 0 
0 0 0 
-7.26558e+06 1.97276e+07 0 
1.97276e+07 1.52167e+07 0 
0 0 0 
606477 2.02162e+07 0 
2.02162e+07 1.76072e+07 0 
0 0 0 
-1.22889e+07 1.34647e+07 0 
1.34647e+07 -2.82023e+07 0 
0 0 0 
2.68386e+06 2.93587e+07 0 
2.93587e+07 3.00143e+07 0 
0 0 0 
-1.18401e+07 5.01752e+07 0 
5.01752e+07 3.62761e+07 0 
0 0 0 
-1.29156e+07 2.28488e+07 0 
2.28488e+07 1.85491e+07 0 
0 0 0 
-1.10853e+07 7.87643e+06 0 
7.87643e+06 1.04464e+07 0 
0 0 0 
-3.13205e+07 -709984 0 
-709984 1.10905e+07 0 
0 0 0 
-2.88218e+07 -5.03803e+06 0 
-5.03803e+06 1.31904e+07 0 
0 0 0 
-8.37296e+06 1.06627e+07 0 
1.06627e+07 3.04586e+07 0 
0 0 0 
-2.3419e+07 8.12413e+06 0 
8.12413e+06 -2.27208e+07 0 
0 0 0 
1.52818e+07 2.13302e+07 0 
2.13302e+07 3.66087e+07 0 
0 0 0 
1.29564e+07 3.53638e+06 0 
3.53638e+06 -1.83393e+06 0 
0 0 0 
-671591 -8.31968e+06 0 
-8.31968e+06 1.94248e+07 0 
0 0 0 
1.60422e+06 -486570 0 
-486570 2.70547e+07 0 
0 0 0 
-2.16362e+07 3.22074e+06 0 
3.22074e+06 -9.49597e+06 0 
0 0 0 
-3.54376e+07 1.15639e+06 0 
1.15639e+06 -1.1677e+07 0 
0 0 0 
-2.9949e+07 5.50938e+06 0 
5.50938e+06 821617 0 
0 0 0 
-4.21509e+07 253190 0 
253190 4.63245e+06 0 
0 0 0 
-5.12163e+07 -7.43549e+06 0 
-7.43549e+06 -2.83994e+07 0 
0 0 0 
-5.81145e+07 6.4877e+06 0 
6.4877e+06 -5.72576e+07 0 
0 0 0 
-4.93252e+07 1.02776e+07 0 
1.02776e+07 -4.03739e+07 0 
0 0 0 
-1.39825e+07 3.21707e+06 0 
3.21707e+06 8.74952e+06 0 
0 0 0 
808666 -1.12809e+06 0 
-1.12809e+06 -8.24847e+06 0 
0 0 0 
1.17101e+07 -584007 0 
-584007 -5.1752e+06 0 
0 0 0 
1.16477e+07 -2.45137e+06 0 
-2.45137e+06 -1.30882e+06 0 
0 0 0 
7.05801e+06 4.89655e+06 0 
4.89655e+06 -2.81146e+07 0 
0 0 0 
4.20029e+07 1.87983e+06 0 
1.87983e+06 6.38601e+07 0 
0 0 0 
9.14234e+06 639062 0 
639062 1.81344e+07 0 
0 0 0 
-2.47205e+07 662460 0 
662460 -2.19819e+07 0 
0 0 0 
-2.53539e+07 6.01074e+06 0 
6.01074e+06 -4.0959e+07 0 
0 0 0 
-1.33432e+07 1.44649e+07 0 
1.44649e+07 -2.50078e+07 0 
0 0 0 
2.06552e+07 6.6562e+06 0 
6.6562e+06 7.13186e+07 0 
0 0 0 
-1.10728e+06 -2.62989e+06 0 
-2.62989e+06 3.35053e+07 0 
0 0 0 
-1.87572e+07 -4.29758e+06 0 
-4.29758e+06 6.56358e+06 0 
0 0 0 
-5.30148e+07 -5.69557e+06 0 
-5.69557e+06 -2.59692e+07 0 
0 0 0 
-7.59667e+07 1.12479e+07 0 
1.12479e+07 -7.03778e+07 0 
0 0 0 
-5.78213e+07 659782 0 
659782 -2.8433e+07 0 
0 0 0 
-3.57129e+07 -844869 0 
-844869 1.60388e+07 0 
0 0 0 
8.58883e+06 -1.08087e+07 0 
-1.08087e+07 3.67234e+07 0 
0 0 0 
1.7228e+07 6.1511e+06 0 
6.1511e+06 -2.61871e+07 0 
0 0 0 
2.873e+07 3.63842e+06 0 
3.63842e+06 1.18249e+07 0 
0 0 0 
0 0 0 
0 0 0 
0 0 0 
-2.08409e+07 -9.88135e+06 0 
-9.88135e+06 -3.84208e+06 0 
0 0 0 
2.57889e+07 -1.21884e+07 0 
-1.21884e+07 995374 0 
0 0 0 
-1.83284e+06 -9.68851e+06 0 
-9.68851e+06 224584 0 
0 0 0 
2.18792e+07 22295.8 0 
22295.8 1.26443e+07 0 
0 0 0 
-2.60014e+07 8.15868e+06 0 
8.15868e+06 -1.95882e+07 0 
0 0 0 
-2.43513e+07 4.73961e+06 0 
4.73961e+06 -2.88156e+07 0 
0 0 0 
-1.21796e+07 9.41014e+06 0 
9.41014e+06 -8.65849e+06 0 
0 0 0 
-2.2328e+07 -3.23304e+06 0 
-3.23304e+06 -2.79277e+06 0 
0 0 0 
3.43154e+07 8.54778e+06 0 
8.54778e+06 2.48138e+07 0 
0 0 0 
2.09131e+07 4.58759e+06 0 
4.58759e+06 2.56773e+07 0 
0 0 0 
-1.15484e+06 1.33231e+07 0 
1.33231e+07 -8.46574e+06 0 
0 0 0 
304909 1.48886e+07 0 
1.48886e+07 -2.03061e+07 0 
0 0 0 
-5.28278e+06 5.50134e+06 0 
5.50134e+06 -4.07845e+07 0 
0 0 0 
-5.60623e+07 -1.02947e+07 0 
-1.02947e+07 -5.41154e+07 0 
0 0 0 
3.02356e+07 -1.21954e+07 0 
-1.21954e+07 -1.73252e+07 0 
0 0 0 
-3.14469e+07 -1.32458e+07 0 
-1.32458e+07 -1.62267e+07 0 
0 0 0 
2.40074e+07 -7.72152e+06 0 
-7.72152e+06 1.61482e+06 0 
0 0 0 
-2.96809e+07 3.00748e+06 0 
3.00748e+06 -2.13592e+07 0 
0 0 0 
-4.33265e+06 6.16049e+06 0 
6.16049e+06 -2.64013e+07 0 
0 0 0 
-1.88017e+07 1.97823e+06 0 
1.97823e+06 -3.35454e+07 0 
0 0 0 
-2.69642e+06 -570274 0 
-570274 -1.24738e+07 0 
0 0 0 
1.68889e+06 -6.64104e+06 0 
-6.64104e+06 -1.94062e+06 0 
0 0 0 
-3.62322e+07 -8.1047e+06 0 
-8.1047e+06 6.00181e+06 0 
0 0 0 
2.78875e+07 6.06413e+06 0 
6.06413e+06 3.79116e+07 0 
0 0 0 
-2.47182e+07 5.13171e+06 0 
5.13171e+06 2.65996e+07 0 
0 0 0 
7.64312e+07 1.19392e+07 0 
1.19392e+07 5.05705e+07 0 
0 0 0 
-7.48456e+06 7.14514e+06 0 
7.14514e+06 1.37957e+07 0 
0 0 0 
2.18205e+07 3.07795e+06 0 
3.07795e+06 5.25103e+06 0 
0 0 0 
-4.04022e+07 -5.72284e+06 0 
-5.72284e+06 -1.32958e+07 0 
0 0 0 
1.92431e+07 -1.29021e+07 0 
-1.29021e+07 2.19235e+07 0 
0 0 0 
-1.26004e+07 -1.05686e+07 0 
-1.05686e+07 2.03169e+07 0 
0 0 0 
3.66483e+07 -1.41275e+07 0 
-1.41275e+07 5.10121e+07 0 
0 0 0 
7.60813e+06 -9.40643e+06 0 
-9.40643e+06 3.31515e+07 0 
0 0 0 
-2.16878e+07 -5.05588e+06 0 
-5.05588e+06 1.41785e+07 0 
0 0 0 
3.26691e+07 3.37602e+06 0 
3.37602e+06 2.16775e+07 0 
0 0 0 
-1.29351e+07 3.46045e+06 0 
3.46045e+06 1.88023e+06 0 
0 0 0 
2.37984e+07 2.00331e+06 0 
2.00331e+06 4.39846e+06 0 
0 0 0 
-1.09445e+07 3.58409e+06 0 
3.58409e+06 -6.75748e+06 0 
0 0 0 
-3.16208e+06 8.82598e+06 0 
8.82598e+06 -1.06546e+07 0 
0 0 0 
-8.17254e+06 2.74971e+06 0 
2.74971e+06 -2.07437e+07 0 
0 0 0 
-6.6179e+06 6.26639e+06 0 
6.26639e+06 -452391 0 
0 0 0 
-1.21174e+07 4.16959e+06 0 
4.16959e+06 -2.76741e+06 0 
0 0 0 
-9.53475e+06 2.35516e+06 0 
2.35516e+06 -2.58595e+06 0 
0 0 0 
-1.9089e+06 2.62491e+06 0 
2.62491e+06 -1.15788e+07 0 
0 0 0 
-2.03756e+07 -7.60718e+06 0 
-7.60718e+06 -2.77741e+07 0 
0 0 0 
1.06348e+07 -6.13719e+06 0 
-6.13719e+06 -2.71276e+07 0 
0 0 0 
-4.29256e+07 -2.00526e+06 0 
-2.00526e+06 -4.65156e+07 0 
0 0 0 
5.76676e+06 -4.81836e+06 0 
-4.81836e+06 -1.74223e+07 0 
0 0 0 
-5.83324e+06 1.33748e+06 0 
1.33748e+06 1.67514e+06 0 
0 0 0 
3.0601e+07 3.76058e+06 0 
3.76058e+06 1.70363e+07 0 
0 0 0 
-1.32737e+07 324684 0 
324684 6.63697e+06 0 
0 0 0 
1.62358e+06 2.50904e+06 0 
2.50904e+06 1.29935e+07 0 
0 0 0 
-1.55895e+07 1.74035e+07 0 
1.74035e+07 -2.02577e+06 0 
0 0 0 
-2.55253e+07 6.75908e+06 0 
6.75908e+06 -7.48918e+06 0 
0 0 0 
1.29208e+07 -7.8856e+06 0 
-7.8856e+06 4.71995e+06 0 
0 0 0 
1.18556e+07 -1.49836e+07 0 
-1.49836e+07 7.93191e+06 0 
0 0 0 
1.26752e+07 -1.28883e+07 0 
-1.28883e+07 1.07354e+07 0 
0 0 0 
-1.7211e+06 -1.46413e+06 0 
-1.46413e+06 1.35336e+07 0 
0 0 0 
1.94827e+07 5.86116e+06 0 
5.86116e+06 4.88831e+06 0 
0 0 0 
-1.15845e+07 3.81044e+06 0 
3.81044e+06 -2.34317e+07 0 
0 0 0 
4.05579e+07 6.82277e+06 0 
6.82277e+06 9.5378e+06 0 
0 0 0 
-2.45686e+07 -4.37836e+06 0 
-4.37836e+06 -2.79006e+07 0 
0 0 0 
-1.66923e+07 -4.24844e+06 0 
-4.24844e+06 -2.35619e+07 0 
0 0 0 
-4.17924e+07 364313 0 
364313 -2.73898e+07 0 
0 0 0 
-3.63081e+07 -2.50924e+06 0 
-2.50924e+06 -2.73469e+07 0 
0 0 0 
-2.85552e+06 1.69317e+06 0 
1.69317e+06 -885196 0 
0 0 0 
1.48556e+07 406139 0 
406139 1.2731e+07 0 
0 0 0 
3.79077e+06 2.90754e+06 0 
2.90754e+06 2.35738e+07 0 
0 0 0 
1.5633e+07 -3.96628e+06 0 
-3.96628e+06 4.62529e+07 0 
0 0 0 
3.98182e+06 206379 0 
206379 4.44454e+07 0 
0 0 0 
2.98728e+07 -3.90846e+06 0 
-3.90846e+06 4.60035e+07 0 
0 0 0 
1.67547e+07 381261 0 
381261 4.13346e+07 0 
0 0 0 
3.29292e+06 -5.90987e+06 0 
-5.90987e+06 1.79672e+07 0 
0 0 0 
1.22396e+07 -2.77369e+06 0 
-2.77369e+06 6.46428e+06 0 
0 0 0 
-9.97467e+06 -454818 0 
-454818 -1.08089e+07 0 
0 0 0 
-4.82254e+07 3.63846e+06 0 
3.63846e+06 -2.55255e+07 0 
0 0 0 
9.70928e+06 -1.40912e+07 0 
-1.40912e+07 -1.56369e+06 0 
0 0 0 
-5.97124e+06 -1.43798e+07 0 
-1.43798e+07 2.92594e+06 0 
0 0 0 
2.03026e+07 -1.59944e+07 0 
-1.59944e+07 8.0615e+06 0 
0 0 0 
1.58704e+07 -1.41699e+07 0 
-1.41699e+07 -8.83987e+06 0 
0 0 0 
3.07107e+06 3.06544e+06 0 
3.06544e+06 -2.04103e+07 0 
0 0 0 
-2.2167e+07 4.21604e+06 0 
4.21604e+06 -2.72616e+07 0 
0 0 0 
-1.3572e+07 8.4965e+06 0 
8.4965e+06 -7.33921e+06 0 
0 0 0 
3.13613e+07 5.49778e+06 0 
5.49778e+06 3.29728e+07 0 
0 0 0 
-2.35506e+07 4.18786e+06 0 
4.18786e+06 1.90872e+07 0 
0 0 0 
2.30591e+07 1.2772e+06 0 
1.2772e+06 3.05773e+07 0 
0 0 0 
-2.05112e+07 -1.78737e+06 0 
-1.78737e+06 1.66055e+07 0 
0 0 0 
6.4353e+06 -5.03896e+06 0 
-5.03896e+06 4.34101e+07 0 
0 0 0 
1.02135e+07 3.71171e+06 0 
3.71171e+06 5.62421e+07 0 
0 0 0 
2.71089e+07 -7.18964e+06 0 
-7.18964e+06 1.04552e+07 0 
0 0 0 
5.01118e+07 -583929 0 
-583929 6.1416e+07 0 
0 0 0 
0 0 0 
0 0 0 
0 0 0 
-1.00337e+06 704103 0 
704103 -1.4866e+07 0 
0 0 0 
-2.72601e+07 -6.97581e+06 0 
-6.97581e+06 -4.71533e+07 0 
0 0 0 
-4.70405e+07 -468487 0 
-468487 -6.66765e+07 0 
0 0 0 
1.60895e+06 1.68525e+07 0 
1.68525e+07 1.64642e+07 0 
0 0 0 
-2.60528e+07 3.83782e+07 0 
3.83782e+07 -2.40244e+07 0 
0 0 0 
-1.25843e+07 2.98147e+07 0 
2.98147e+07 4.44351e+07 0 
0 0 0 
-4.98847e+07 1.28584e+07 0 
1.28584e+07 -4.89357e+07 0 
0 0 0 
-8.85681e+07 -401384 0 
-401384 -8.00253e+07 0 
0 0 0 
-8.38111e+07 1.67894e+07 0 
1.67894e+07 -7.16508e+07 0 
0 0 0 
-6.32379e+07 2.80456e+07 0 
2.80456e+07 -1.98109e+07 0 
0 0 0 
-5.34623e+07 3.86934e+07 0 
3.86934e+07 -2.5235e+07 0 
0 0 0 
1.40354e+07 3.23947e+07 0 
3.23947e+07 8.50924e+07 0 
0 0 0 
-2770.88 2.04015e+07 0 
2.04015e+07 -1.12581e+06 0 
0 0 0 
-2.80287e+07 1.7338e+07 0 
1.7338e+07 -3.34772e+07 0 
0 0 0 
-3.08394e+07 2.8591e+07 0 
2.8591e+07 -4.17179e+07 0 
0 0 0 
-1.90949e+07 2.32638e+07 0 
2.32638e+07 -4.55347e+07 0 
0 0 0 
3.10599e+07 1.87296e+07 0 
1.87296e+07 6.25063e+07 0 
0 0 0 
5.00663e+07 8.33058e+06 0 
8.33058e+06 6.70556e+07 0 
0 0 0 
3.46009e+07 1.14572e+07 0 
1.14572e+07 3.70031e+07 0 
0 0 0 
2.79296e+07 1.84872e+07 0 
1.84872e+07 4.1782e+07 0 
0 0 0 
-94651.9 1.01028e+07 0 
1.01028e+07 -1.92388e+06 0 
0 0 0 
4.61894e+06 -3.48615e+06 0 
-3.48615e+06 -4.10509e+06 0 
0 0 0 
4.06118e+07 4.24804e+06 0 
4.24804e+06 5.70228e+07 0 
0 0 0 
4.24846e+07 1.73705e+06 0 
1.73705e+06 8.29044e+07 0 
0 0 0 
4.16586e+07 -1.74392e+07 0 
-1.74392e+07 8.5199e+07 0 
0 0 0 
2.21115e+06 -4.65496e+07 0 
-4.65496e+07 2.63879e+07 0 
0 0 0 
-1.64767e+07 -2.9222e+07 0 
-2.9222e+07 3.43682e+06 0 
0 0 0 
-2.1836e+07 -2.51553e+07 0 
-2.51553e+07 2.91009e+07 0 
0 0 0 
-3.79125e+07 -1.97061e+07 0 
-1.97061e+07 1.67465e+07 0 
0 0 0 
-2.67076e+07 -2.99352e+07 0 
-2.99352e+07 6.79877e+07 0 
0 0 0 
-2.43943e+07 -4.99789e+07 0 
-4.99789e+07 5.37875e+07 0 
0 0 0 
-4.71106e+07 -5.53163e+07 0 
-5.53163e+07 -1.40406e+06 0 
0 0 0 
-7.30281e+07 -4.62099e+07 0 
-4.62099e+07 6.75713e+06 0 
0 0 0 
-7.13978e+07 -4.99151e+07 0 
-4.99151e+07 -8.11617e+06 0 
0 0 0 
-6.94295e+07 -4.19363e+07 0 
-4.19363e+07 -4.06628e+07 0 
0 0 0 
-1.05159e+08 -4.48312e+07 0 
-4.48312e+07 -8.00623e+07 0 
0 0 0 
-9.77249e+07 -3.46054e+07 0 
-3.46054e+07 -6.47733e+07 0 
0 0 0 
-1.00471e+08 -4.5206e+07 0 
-4.5206e+07 -1.06535e+08 0 
0 0 0 
-1.03491e+08 -3.51101e+07 0 
-3.51101e+07 -1.25485e+08 0 
0 0 0 
-7.87414e+07 -2.39134e+07 0 
-2.39134e+07 -8.89413e+07 0 
0 0 0 
-5.20912e+07 -1.26597e+07 0 
-1.26597e+07 -7.60839e+07 0 
0 0 0 
-6.4197e+06 1.03126e+07 0 
1.03126e+07 -2.12691e+07 0 
0 0 0 
-3.09896e+07 7.19277e+06 0 
7.19277e+06 -8.47231e+07 0 
0 0 0 
-2.56103e+07 -887997 0 
-887997 -4.22342e+07 0 
0 0 0 
-3.38096e+07 1.72894e+07 0 
1.72894e+07 -8.0663e+07 0 
0 0 0 
3.35735e+06 2.46052e+07 0 
2.46052e+07 1.65902e+07 0 
0 0 0 
-1.89142e+07 4.0873e+07 0 
4.0873e+07 2.27912e+07 0 
0 0 0 
-7.96303e+06 3.11739e+07 0 
3.11739e+07 7.09689e+06 0 
0 0 0 
5.13437e+06 1.69933e+07 0 
1.69933e+07 -1.66762e+07 0 
0 0 0 
2.27226e+06 1.85238e+07 0 
1.85238e+07 1.12948e+07 0 
0 0 0 
1.61576e+07 2.9525e+07 0 
2.9525e+07 5.19689e+07 0 
0 0 0 
1.57111e+07 3.38628e+07 0 
3.38628e+07 2.93548e+07 0 
0 0 0 
-1.72513e+07 2.54501e+07 0 
2.54501e+07 -5.27926e+06 0 
0 0 0 
-3.13191e+07 1.24351e+07 0 
1.24351e+07 -1.33199e+07 0 
0 0 0 
-1.43442e+07 -2.76267e+06 0 
-2.76267e+06 1.49436e+07 0 
0 0 0 
7.4814e+06 7.27621e+06 0 
7.27621e+06 2.26272e+07 0 
0 0 0 
3.60279e+07 9.73072e+06 0 
9.73072e+06 6.07227e+07 0 
0 0 0 
2.57875e+07 1.49017e+07 0 
1.49017e+07 -1.27693e+06 0 
0 0 0 
3.93332e+07 1.58414e+07 0 
1.58414e+07 4.3047e+07 0 
0 0 0 
7.45782e+06 1.23564e+07 0 
1.23564e+07 -1.73779e+07 0 
0 0 0 
3.55617e+07 8.90315e+06 0 
8.90315e+06 3.04991e+07 0 
0 0 0 
3.7876e+07 1.77581e+06 0 
1.77581e+06 3.28138e+07 0 
0 0 0 
3.67902e+07 -5.01123e+06 0 
-5.01123e+06 1.48649e+07 0 
0 0 0 
3.67169e+07 -3.89913e+06 0 
-3.89913e+06 2.17793e+06 0 
0 0 0 
3.47403e+07 -1.48382e+07 0 
-1.48382e+07 1.84695e+07 0 
0 0 0 
3.84536e+07 -3.93343e+06 0 
-3.93343e+06 2.8641e+07 0 
0 0 0 
1.85942e+07 3.26779e+06 0 
3.26779e+06 -5.1243e+06 0 
0 0 0 
-4.21821e+06 -6.33616e+06 0 
-6.33616e+06 -1.54509e+07 0 
0 0 0 
-1.83466e+07 7.91348e+06 0 
7.91348e+06 -4.06908e+07 0 
0 0 0 
5.6678e+06 2.60703e+06 0 
2.60703e+06 1.18588e+07 0 
0 0 0 
847632 1.11246e+06 0 
1.11246e+06 -1.01561e+07 0 
0 0 0 
8.26682e+06 8.14512e+06 0 
8.14512e+06 2.03442e+06 0 
0 0 0 
7.65726e+06 -930556 0 
-930556 -8.12395e+06 0 
0 0 0 
4.31711e+06 9.76498e+06 0 
9.76498e+06 -1.44313e+07 0 
0 0 0 
2.05309e+07 1.4989e+06 0 
1.4989e+06 1.95168e+07 0 
0 0 0 
3.5475e+07 -1.36645e+07 0 
-1.36645e+07 3.21823e+07 0 
0 0 0 
2.82554e+07 6.06709e+06 0 
6.06709e+06 9.3898e+06 0 
0 0 0 
9.78807e+06 1.79177e+07 0 
1.79177e+07 -2.10556e+06 0 
0 0 0 
164447 2.21891e+07 0 
2.21891e+07 -3.07239e+07 0 
0 0 0 
3.55487e+07 7.98752e+06 0 
7.98752e+06 6.40063e+07 0 
0 0 0 
3.61575e+07 2.83534e+06 0 
2.83534e+06 2.20664e+07 0 
0 0 0 
2.39178e+07 -1.32971e+07 0 
-1.32971e+07 1.92152e+07 0 
0 0 0 
2.76815e+07 -1.40153e+07 0 
-1.40153e+07 2.71934e+07 0 
0 0 0 
-7.14136e+06 2.74629e+06 0 
2.74629e+06 -5.36686e+07 0 
0 0 0 
-5.04314e+06 -2.27979e+06 0 
-2.27979e+06 -3.20624e+06 0 
0 0 0 
-3.66475e+06 -3.35755e+06 0 
-3.35755e+06 -5.7689e+06 0 
0 0 0 
1.04879e+07 6.82442e+06 0 
6.82442e+06 5.34576e+07 0 
0 0 0 
-2.68321e+07 -1.83612e+06 0 
-1.83612e+06 -3.18714e+07 0 
0 0 0 
-1.99112e+07 5.21842e+06 0 
5.21842e+06 5.35702e+06 0 
0 0 0 
-1.13169e+07 -2.21763e+06 0 
-2.21763e+06 -2.49493e+07 0 
0 0 0 
0 0 0 
0 0 0 
0 0 0 
-2.9012e+07 4.24912e+06 0 
4.24912e+06 -5.10693e+06 0 
0 0 0 
2.01633e+07 -4.6048e+06 0 
-4.6048e+06 3.03399e+07 0 
0 0 0 
1.56964e+06 -1.05561e+07 0 
-1.05561e+07 1.27636e+07 0 
0 0 0 
3.89262e+07 -1.48585e+07 0 
-1.48585e+07 2.97084e+06 0 
0 0 0 
-1.30484e+07 -3.87663e+06 0 
-3.87663e+06 -2.06437e+07 0 
0 0 0 
-2.43788e+07 8.6842e+06 0 
8.6842e+06 -1.64449e+07 0 
0 0 0 
-1.03694e+07 1.02135e+07 0 
1.02135e+07 -1.39586e+07 0 
0 0 0 
-1.68969e+07 1.81593e+07 0 
1.81593e+07 5.9504e+06 0 
0 0 0 
3.65829e+07 1.03806e+07 0 
1.03806e+07 2.94905e+07 0 
0 0 0 
1.24736e+07 1.03973e+06 0 
1.03973e+06 1.12866e+07 0 
0 0 0 
1.95787e+07 -2.83685e+06 0 
-2.83685e+06 2.20413e+07 0 
0 0 0 
-2.39296e+06 6.37966e+06 0 
6.37966e+06 -5.86543e+06 0 
0 0 0 
-1.45546e+07 -9.45354e+06 0 
-9.45354e+06 -7.51862e+06 0 
0 0 0 
-4.21597e+07 -9.81432e+06 0 
-9.81432e+06 -1.45329e+07 0 
0 0 0 
2.27313e+07 -1.1759e+07 0 
-1.1759e+07 2.83022e+07 0 
0 0 0 
-2.38277e+06 -1.11536e+07 0 
-1.11536e+07 1.65242e+07 0 
0 0 0 
3.10546e+07 -1.70697e+07 0 
-1.70697e+07 1.873e+07 0 
0 0 0 
3.73304e+06 -1.02725e+07 0 
-1.02725e+07 9.3556e+06 0 
0 0 0 
-1.23671e+06 33279.9 0 
33279.9 -1.61286e+06 0 
0 0 0 
-1.90149e+07 2.99595e+06 0 
2.99595e+06 -1.78847e+07 0 
0 0 0 
-6.70729e+06 5.54128e+06 0 
5.54128e+06 -9.64892e+06 0 
0 0 0 
-1.07766e+07 231238 0 
231238 -1.49466e+07 0 
0 0 0 
-2.31978e+07 8.6242e+06 0 
8.6242e+06 -1.59594e+07 0 
0 0 0 
1.1018e+07 8.82302e+06 0 
8.82302e+06 -781393 0 
0 0 0 
-2.92029e+07 1.17314e+07 0 
1.17314e+07 -3.43843e+07 0 
0 0 0 
3.61737e+07 1.02862e+07 0 
1.02862e+07 -1.73469e+07 0 
0 0 0 
-2.78685e+07 -1.88962e+06 0 
-1.88962e+06 -5.42867e+07 0 
0 0 0 
-7.97293e+06 -2.83519e+06 0 
-2.83519e+06 -3.82852e+07 0 
0 0 0 
-4.47665e+07 8.29189e+06 0 
8.29189e+06 -3.5272e+07 0 
0 0 0 
1.76633e+07 3.17801e+06 0 
3.17801e+06 -3.91961e+06 0 
0 0 0 
-2.50144e+07 -3.11964e+06 0 
-3.11964e+06 -5.19131e+06 0 
0 0 0 
9.90555e+06 -197977 0 
-197977 4.30566e+06 0 
0 0 0 
2.07023e+07 -1.31149e+07 0 
-1.31149e+07 1.76227e+07 0 
0 0 0 
-3.2106e+07 -2.24688e+06 0 
-2.24688e+06 -3.76223e+06 0 
0 0 0 
5.02552e+07 -2.3036e+06 0 
-2.3036e+06 3.17106e+07 0 
0 0 0 
-90141.9 -606627 0 
-606627 2.7318e+07 0 
0 0 0 
3.20526e+07 -644444 0 
-644444 5.53219e+07 0 
0 0 0 
7.47615e+06 1.12578e+06 0 
1.12578e+06 5.63315e+07 0 
0 0 0 
2.71389e+07 -2.11925e+06 0 
-2.11925e+06 5.25776e+07 0 
0 0 0 
-3.72357e+06 141938 0 
141938 3.03964e+07 0 
0 0 0 
5.77389e+06 7.41154e+06 0 
7.41154e+06 1.5064e+07 0 
0 0 0 
-1.50642e+07 2.08566e+06 0 
2.08566e+06 1.06384e+07 0 
0 0 0 
-6.18775e+06 1.39088e+06 0 
1.39088e+06 1.47468e+07 0 
0 0 0 
6.57472e+06 -6.87047e+06 0 
-6.87047e+06 2.13075e+07 0 
0 0 0 
3.87255e+06 -5.64041e+06 0 
-5.64041e+06 2.27945e+07 0 
0 0 0 
1.71702e+07 -8.11637e+06 0 
-8.11637e+06 3.34936e+07 0 
0 0 0 
6.81117e+06 1.75893e+06 0 
1.75893e+06 3.24724e+07 0 
0 0 0 
-1.12104e+07 3.84853e+06 0 
3.84853e+06 1.76503e+07 0 
0 0 0 
2.01652e+07 -2.07794e+06 0 
-2.07794e+06 1.22038e+07 0 
0 0 0 
2.2754e+07 -3.40746e+06 0 
-3.40746e+06 1.48238e+07 0 
0 0 0 
-1.78681e+07 -3.01369e+06 0 
-3.01369e+06 -8.84955e+06 0 
0 0 0 
4.40849e+06 3.43258e+06 0 
3.43258e+06 2.92095e+06 0 
0 0 0 
-1.22716e+07 -1.94404e+06 0 
-1.94404e+06 -1.07299e+07 0 
0 0 0 
-3.82396e+07 4.02796e+06 0 
4.02796e+06 -2.58214e+07 0 
0 0 0 
-1.01696e+07 -5.78351e+06 0 
-5.78351e+06 856142 0 
0 0 0 
1.36172e+07 745398 0 
745398 1.89636e+07 0 
0 0 0 
2.4101e+07 -3.10681e+06 0 
-3.10681e+06 3.11129e+07 0 
0 0 0 
1.96454e+07 -7.67511e+06 0 
-7.67511e+06 3.05169e+07 0 
0 0 0 
4.35851e+07 -9.13292e+06 0 
-9.13292e+06 5.19401e+07 0 
0 0 0 
2.47642e+06 2.93462e+06 0 
2.93462e+06 5.8899e+07 0 
0 0 0 
5.69033e+07 -346816 0 
-346816 6.48917e+07 0 
0 0 0 
-2.45292e+06 -5.64424e+06 0 
-5.64424e+06 3.93497e+07 0 
0 0 0 
2.92017e+06 -3.59893e+06 0 
-3.59893e+06 2.81826e+07 0 
0 0 0 
-2.03326e+07 -1.90543e+06 0 
-1.90543e+06 7.42618e+06 0 
0 0 0 
-1.93464e+07 6.08706e+06 0 
6.08706e+06 1.30516e+07 0 
0 0 0 
3.19561e+06 1.49425e+07 0 
1.49425e+07 1.49994e+07 0 
0 0 0 
1.38918e+07 5.42846e+06 0 
5.42846e+06 8.30792e+06 0 
0 0 0 
-2.21676e+07 2.77956e+06 0 
2.77956e+06 -9.03713e+06 0 
0 0 0 
1.03235e+07 5.90306e+06 0 
5.90306e+06 -6.93204e+06 0 
0 0 0 
-1.86301e+07 1.3659e+07 0 
1.3659e+07 -1.26072e+07 0 
0 0 0 
1.61055e+07 2.82982e+06 0 
2.82982e+06 1.63257e+07 0 
0 0 0 
-1.5772e+06 -4.44249e+06 0 
-4.44249e+06 9.37772e+06 0 
0 0 0 
1.76755e+07 -8.00781e+06 0 
-8.00781e+06 2.03079e+07 0 
0 0 0 
-2.73633e+06 -7.19161e+06 0 
-7.19161e+06 1.34546e+07 0 
0 0 0 
1.24642e+07 -8.27749e+06 0 
-8.27749e+06 2.32556e+07 0 
0 0 0 
-2.70462e+07 5.45847e+06 0 
5.45847e+06 1.00495e+07 0 
0 0 0 
-7.50933e+06 5.33304e+06 0 
5.33304e+06 1.99216e+07 0 
0 0 0 
7.40056e+06 4.79959e+06 0 
4.79959e+06 4.10881e+07 0 
0 0 0 
5.57226e+07 948036 0 
948036 7.83586e+07 0 
0 0 0 
3.04289e+07 1.48191e+06 0 
1.48191e+06 1.02832e+08 0 
0 0 0 
7.67451e+07 -2.92742e+06 0 
-2.92742e+06 1.23151e+08 0 
0 0 0 
1.25257e+07 -4.80779e+06 0 
-4.80779e+06 7.64442e+07 0 
0 0 0 
2.51202e+06 3.5708e+06 0 
3.5708e+06 4.50193e+07 0 
0 0 0 
1.7445e+07 663821 0 
663821 9.12755e+06 0 
0 0 0 
-4.34186e+07 -2.78273e+06 0 
-2.78273e+06 -4.15806e+07 0 
0 0 0 
-3.13912e+06 -2.03719e+06 0 
-2.03719e+06 -4.85889e+07 0 
0 0 0 
-5.24983e+07 -1.8453e+06 0 
-1.8453e+06 -7.39636e+07 0 
0 0 0 
-3.05362e+07 5.56157e+06 0 
5.56157e+06 -6.90625e+07 0 
0 0 0 
-2.37865e+07 -3.17235e+06 0 
-3.17235e+06 -6.92132e+07 0 
0 0 0 
-115294 -4.10627e+06 0 
-4.10627e+06 -4.29136e+07 0 
0 0 0 
1.89355e+06 -7.32556e+06 0 
-7.32556e+06 3.68059e+07 0 
0 0 0 
-1.94104e+07 -1.74593e+07 0 
-1.74593e+07 -4.00952e+07 0 
0 0 0 
0 0 0 
0 0 0 
0 0 0 
-1.33345e+07 -4.31808e+06 0 
-4.31808e+06 -1.86406e+07 0 
0 0 0 
-1.22552e+07 -6.97373e+06 0 
-6.97373e+06 -4.62618e+07 0 
0 0 0 
5.89399e+06 2.90532e+06 0 
2.90532e+06 -4.16589e+07 0 
0 0 0 
6.02149e+07 2.04787e+07 0 
2.04787e+07 7.55908e+07 0 
0 0 0 
5.31654e+07 2.76917e+07 0 
2.76917e+07 -5.63214e+06 0 
0 0 0 
5.75243e+07 2.28582e+07 0 
2.28582e+07 5.12095e+07 0 
0 0 0 
3.15725e+07 6.25473e+06 0 
6.25473e+06 -4.87091e+07 0 
0 0 0 
5.92021e+07 186925 0 
186925 -1.003e+07 0 
0 0 0 
5.42672e+07 1.91349e+07 0 
1.91349e+07 -1.53393e+07 0 
0 0 0 
9.14787e+07 3.15715e+07 0 
3.15715e+07 4.78662e+07 0 
0 0 0 
7.78427e+07 3.90577e+07 0 
3.90577e+07 1.03164e+07 0 
0 0 0 
8.03485e+07 3.64162e+07 0 
3.64162e+07 1.01842e+08 0 
0 0 0 
1.57013e+07 2.03206e+07 0 
2.03206e+07 -2.18114e+07 0 
0 0 0 
2.46506e+07 1.85741e+07 0 
1.85741e+07 3.45612e+06 0 
0 0 0 
-9.40847e+06 1.79785e+07 0 
1.79785e+07 -2.3677e+07 0 
0 0 0 
-2.79382e+07 3.18375e+07 0 
3.18375e+07 -5.6176e+07 0 
0 0 0 
1.07017e+07 2.09666e+07 0 
2.09666e+07 2.28129e+07 0 
0 0 0 
2.10326e+07 1.32648e+07 0 
1.32648e+07 6.53423e+07 0 
0 0 0 
2.81698e+07 2.06507e+07 0 
2.06507e+07 4.40175e+07 0 
0 0 0 
1.72856e+07 1.09792e+07 0 
1.09792e+07 3.49441e+07 0 
0 0 0 
-2.34511e+06 1.12011e+07 0 
1.12011e+07 -1.70516e+07 0 
0 0 0 
6.21063e+06 1.27018e+07 0 
1.27018e+07 -6.14856e+06 0 
0 0 0 
2.02121e+07 153209 0 
153209 5.16288e+07 0 
0 0 0 
4.19928e+07 5.78147e+06 0 
5.78147e+06 7.51905e+07 0 
0 0 0 
3.13207e+07 -1.10553e+07 0 
-1.10553e+07 4.08175e+07 0 
0 0 0 
4.66223e+07 -2.13411e+07 0 
-2.13411e+07 1.48546e+07 0 
0 0 0 
6.82938e+07 -3.04382e+07 0 
-3.04382e+07 4.28236e+07 0 
0 0 0 
8.65862e+07 -1.98329e+07 0 
-1.98329e+07 8.1838e+07 0 
0 0 0 
8.37431e+07 -2.14674e+07 0 
-2.14674e+07 5.55221e+07 0 
0 0 0 
6.62352e+07 -3.23009e+07 0 
-3.23009e+07 7.74745e+07 0 
0 0 0 
3.45441e+07 -3.96464e+07 0 
-3.96464e+07 3.45747e+07 0 
0 0 0 
4.46751e+07 -4.96073e+07 0 
-4.96073e+07 4.19818e+07 0 
0 0 0 
3.72853e+07 -5.29393e+07 0 
-5.29393e+07 3.19806e+07 0 
0 0 0 
1.48097e+07 -5.18219e+07 0 
-5.18219e+07 3.33523e+07 0 
0 0 0 
-3.07831e+07 -5.76529e+07 0 
-5.76529e+07 -4.4945e+07 0 
0 0 0 
-3.7267e+07 -5.36209e+07 0 
-5.36209e+07 -3.42486e+07 0 
0 0 0 
-5.67672e+07 -3.34713e+07 0 
-3.34713e+07 -5.60498e+07 0 
0 0 0 
-5.90305e+07 -3.85372e+07 0 
-3.85372e+07 -8.46264e+07 0 
0 0 0 
-5.35184e+07 -2.44318e+07 0 
-2.44318e+07 -1.0929e+08 0 
0 0 0 
-3.82329e+07 -9.82338e+06 0 
-9.82338e+06 -4.46746e+07 0 
0 0 0 
-3.9456e+07 9.79496e+06 0 
9.79496e+06 -6.23286e+07 0 
0 0 0 
-4.28052e+07 8.26556e+06 0 
8.26556e+06 -2.7111e+07 0 
0 0 0 
-7.68452e+07 8.17992e+06 0 
8.17992e+06 -1.1103e+08 0 
0 0 0 
-4.48349e+07 -1.0539e+06 0 
-1.0539e+06 -4.57626e+07 0 
0 0 0 
-4.55455e+07 1.89019e+07 0 
1.89019e+07 -7.34328e+07 0 
0 0 0 
2.78392e+06 3.23553e+07 0 
3.23553e+07 6.24546e+07 0 
0 0 0 
132261 4.38043e+07 0 
4.38043e+07 7.82585e+06 0 
0 0 0 
-8.41256e+06 3.72792e+07 0 
3.72792e+07 -1.48549e+07 0 
0 0 0 
-1.35796e+07 1.99171e+07 0 
1.99171e+07 -3.5446e+07 0 
0 0 0 
2.37773e+07 1.4733e+07 0 
1.4733e+07 3.60476e+07 0 
0 0 0 
4.26671e+07 2.67997e+07 0 
2.67997e+07 6.8448e+07 0 
0 0 0 
1.20905e+06 2.7529e+07 0 
2.7529e+07 1.23471e+07 0 
0 0 0 
-4.18922e+06 2.63959e+07 0 
2.63959e+07 1.57384e+07 0 
0 0 0 
-9.27219e+06 2.14999e+07 0 
2.14999e+07 -5.19294e+07 0 
0 0 0 
2.7564e+07 -692367 0 
-692367 3.09828e+07 0 
0 0 0 
3.44499e+07 1.95393e+07 0 
1.95393e+07 3.84278e+07 0 
0 0 0 
2.15574e+07 2.06715e+06 0 
2.06715e+06 3.70891e+07 0 
0 0 0 
4.20328e+06 8.01043e+06 0 
8.01043e+06 1.13265e+07 0 
0 0 0 
1.13727e+07 1.16088e+07 0 
1.16088e+07 3.13792e+07 0 
0 0 0 
-1.1374e+07 2.86737e+06 0 
2.86737e+06 -1.06328e+07 0 
0 0 0 
-1.64519e+07 2.18849e+06 0 
2.18849e+06 -6.38028e+06 0 
0 0 0 
-1.47626e+07 -7.74126e+06 0 
-7.74126e+06 -3.04278e+06 0 
0 0 0 
-1.50057e+07 -4.52006e+06 0 
-4.52006e+06 7.54511e+06 0 
0 0 0 
-2.38376e+07 -3.98672e+06 0 
-3.98672e+06 -2.02388e+07 0 
0 0 0 
-9.34871e+06 2.27482e+06 0 
2.27482e+06 -7.21792e+06 0 
0 0 0 
-5.17677e+06 -1.12271e+07 0 
-1.12271e+07 1.58755e+07 0 
0 0 0 
-3.10708e+07 -1.48231e+07 0 
-1.48231e+07 -1.93941e+07 0 
0 0 0 
-1.922e+07 -3.8455e+06 0 
-3.8455e+06 1.19887e+06 0 
0 0 0 
-3.93772e+07 1.19269e+07 0 
1.19269e+07 -5.03837e+07 0 
0 0 0 
-1.80762e+07 1.69383e+07 0 
1.69383e+07 4.19579e+06 0 
0 0 0 
-7.38287e+06 8.25921e+06 0 
8.25921e+06 -1.54478e+07 0 
0 0 0 
1.27875e+06 2.34814e+06 0 
2.34814e+06 -1.27632e+06 0 
0 0 0 
2.00381e+06 -1.26317e+06 0 
-1.26317e+06 -2.76926e+06 0 
0 0 0 
1.2286e+07 1.50466e+07 0 
1.50466e+07 -23488.9 0 
0 0 0 
1.71599e+07 1.4319e+07 0 
1.4319e+07 -6.04038e+06 0 
0 0 0 
3.03323e+07 1.0885e+07 0 
1.0885e+07 3.01014e+07 0 
0 0 0 
1.39906e+07 -1.54526e+06 0 
-1.54526e+06 1.24439e+07 0 
0 0 0 
-457983 2.95772e+06 0 
2.95772e+06 1.19158e+07 0 
0 0 0 
-3.72309e+07 1.85091e+07 0 
1.85091e+07 -3.21885e+07 0 
0 0 0 
-2.92646e+07 1.28032e+07 0 
1.28032e+07 -263272 0 
0 0 0 
-4.86752e+07 -9.62931e+06 0 
-9.62931e+06 -1.46229e+07 0 
0 0 0 
-4.42117e+07 -1.41857e+07 0 
-1.41857e+07 -1.40058e+07 0 
0 0 0 
-1.66698e+07 -1.18996e+07 0 
-1.18996e+07 2.52176e+07 0 
0 0 0 
-2.37564e+07 -4.67177e+06 0 
-4.67177e+06 -3.89939e+07 0 
0 0 0 
-8.62028e+06 -1.79851e+06 0 
-1.79851e+06 -1.764e+07 0 
0 0 0 
-2.6088e+06 -479055 0 
-479055 -9.58286e+06 0 
0 0 0 
2.58087e+07 1.8034e+06 0 
1.8034e+06 6.38874e+07 0 
0 0 0 
5.94044e+06 5.33685e+06 0 
5.33685e+06 -5.40491e+06 0 
0 0 0 
2.51742e+07 7.42913e+06 0 
7.42913e+06 1.87931e+07 0 
0 0 0 
25361 1.05107e+06 0 
1.05107e+06 -3.24819e+07 0 
0 0 0 
2.72229e+07 -9.83359e+06 0 
-9.83359e+06 1.65013e+07 0 
0 0 0 
0 0 0 
0 0 0 
0 0 0 
-1.79446e+07 3.79767e+06 0 
3.79767e+06 1.15272e+06 0 
0 0 0 
1.90174e+06 5.7204e+06 0 
5.7204e+06 6.62968e+06 0 
0 0 0 
-4.497e+06 1.15696e+06 0 
1.15696e+06 1.99909e+07 0 
0 0 0 
3.86372e+07 -8.82783e+06 0 
-8.82783e+06 5.05659e+07 0 
0 0 0 
2.56862e+07 -1.13607e+07 0 
-1.13607e+07 4.97572e+07 0 
0 0 0 
1.16455e+07 -1.00599e+06 0 
-1.00599e+06 2.93368e+07 0 
0 0 0 
1.3707e+07 1.68402e+07 0 
1.68402e+07 1.97805e+07 0 
0 0 0 
-2.9748e+07 1.49445e+07 0 
1.49445e+07 -1.88668e+07 0 
0 0 0 
1.82586e+07 6.68037e+06 0 
6.68037e+06 -7.90555e+06 0 
0 0 0 
-1.19898e+07 -1.96518e+06 0 
-1.96518e+06 -2.13344e+07 0 
0 0 0 
1.72167e+07 -462674 0 
-462674 -2.88427e+07 0 
0 0 0 
-2.37439e+07 -1.29899e+06 0 
-1.29899e+06 -3.50642e+07 0 
0 0 0 
-3.27855e+07 2.66301e+06 0 
2.66301e+06 -5.38496e+07 0 
0 0 0 
-4.66544e+07 5.43039e+06 0 
5.43039e+06 -4.61392e+07 0 
0 0 0 
-8.29686e+06 1.40423e+07 0 
1.40423e+07 -2.44401e+07 0 
0 0 0 
-1.1372e+07 -6.40889e+06 0 
-6.40889e+06 -7.12082e+06 0 
0 0 0 
2.26618e+07 -9.58934e+06 0 
-9.58934e+06 2.09773e+07 0 
0 0 0 
1.38369e+07 -1.19507e+07 0 
-1.19507e+07 2.34438e+07 0 
0 0 0 
3.03644e+07 -1.28705e+07 0 
-1.28705e+07 3.73156e+07 0 
0 0 0 
59071.8 5.19362e+06 0 
5.19362e+06 3.97212e+07 0 
0 0 0 
2.62667e+07 9.25601e+06 0 
9.25601e+06 3.22565e+07 0 
0 0 0 
-1.65488e+07 1.28538e+07 0 
1.28538e+07 2.66029e+07 0 
0 0 0 
4.79434e+06 8.17804e+06 0 
8.17804e+06 4.39368e+07 0 
0 0 0 
1.46177e+07 -952148 0 
-952148 3.43508e+07 0 
0 0 0 
1.22969e+06 -4.69814e+06 0 
-4.69814e+06 2.53624e+07 0 
0 0 0 
2.70359e+07 -401036 0 
-401036 1.44987e+07 0 
0 0 0 
-7.64037e+06 -9.13994e+06 0 
-9.13994e+06 -3.4949e+06 0 
0 0 0 
-3.46704e+06 9.23836e+06 0 
9.23836e+06 -1.2839e+07 0 
0 0 0 
-1.84845e+07 6.94181e+06 0 
6.94181e+06 -2.92279e+07 0 
0 0 0 
-4.96364e+06 9.8975e+06 0 
9.8975e+06 -2.87276e+07 0 
0 0 0 
-4.03969e+07 -2.97519e+06 0 
-2.97519e+06 -3.0197e+07 0 
0 0 0 
641291 -1.02485e+07 0 
-1.02485e+07 -1.18021e+07 0 
0 0 0 
1.64744e+07 -3.32075e+06 0 
-3.32075e+06 -1.24902e+06 0 
0 0 0 
-1.47225e+07 -9.44274e+06 0 
-9.44274e+06 7.47138e+06 0 
0 0 0 
4.17576e+07 7.84418e+06 0 
7.84418e+06 1.38988e+07 0 
0 0 0 
-5.469e+06 2.83798e+06 0 
2.83798e+06 -1.83441e+06 0 
0 0 0 
1.07145e+07 5.32967e+06 0 
5.32967e+06 9.1956e+06 0 
0 0 0 
-2.63544e+06 3.48897e+06 0 
3.48897e+06 4.58944e+06 0 
0 0 0 
-1.64744e+06 -4.33683e+06 0 
-4.33683e+06 9.05593e+06 0 
0 0 0 
2.99369e+06 -6.93295e+06 0 
-6.93295e+06 6.82699e+06 0 
0 0 0 
-8.5694e+06 3.62976e+06 0 
3.62976e+06 -2.7175e+06 0 
0 0 0 
-2.65469e+07 428976 0 
428976 -2.33241e+07 0 
0 0 0 
-2.92444e+07 -1.14325e+06 0 
-1.14325e+06 -3.02596e+07 0 
0 0 0 
-1.47707e+07 -6.32309e+06 0 
-6.32309e+06 -2.95812e+07 0 
0 0 0 
-1.48935e+07 -1.66805e+07 0 
-1.66805e+07 -3.28617e+07 0 
0 0 0 
7.65152e+06 -5.87777e+06 0 
-5.87777e+06 -1.58551e+07 0 
0 0 0 
2.84833e+06 -6.29393e+06 0 
-6.29393e+06 -1.66817e+07 0 
0 0 0 
-2.05565e+07 5.11362e+06 0 
5.11362e+06 -1.82257e+07 0 
0 0 0 
-549676 4.46631e+06 0 
4.46631e+06 9.3974e+06 0 
0 0 0 
1.71348e+07 -1.05506e+07 0 
-1.05506e+07 4.83182e+06 0 
0 0 0 
2.18262e+06 -6.63918e+06 0 
-6.63918e+06 3.00419e+06 0 
0 0 0 
1.01494e+07 8.19384e+06 0 
8.19384e+06 -2.96353e+06 0 
0 0 0 
-2.8684e+07 -499489 0 
-499489 -1.43871e+07 0 
0 0 0 
-1.69834e+07 9.98364e+06 0 
9.98364e+06 -6.86091e+06 0 
0 0 0 
-2.14609e+07 6.31975e+06 0 
6.31975e+06 -2.96705e+06 0 
0 0 0 
2.95357e+07 1.2107e+07 0 
1.2107e+07 3.649e+07 0 
0 0 0 
1.66244e+07 1.94635e+06 0 
1.94635e+06 4.08492e+07 0 
0 0 0 
1.88767e+07 4.11459e+06 0 
4.11459e+06 4.3157e+07 0 
0 0 0 
4.82754e+07 -1.08886e+06 0 
-1.08886e+06 5.61813e+07 0 
0 0 0 
-1.34405e+07 -2.18241e+06 0 
-2.18241e+06 1.75066e+07 0 
0 0 0 
2.99565e+07 -9.79676e+06 0 
-9.79676e+06 9.72394e+06 0 
0 0 0 
-1.72489e+07 -1.47999e+07 0 
-1.47999e+07 -2.19826e+07 0 
0 0 0 
-1.55823e+07 -1.51033e+07 0 
-1.51033e+07 -2.7333e+07 0 
0 0 0 
-1.89309e+07 -7.9012e+06 0 
-7.9012e+06 -3.82293e+07 0 
0 0 0 
-2.22469e+07 8.68625e+06 0 
8.68625e+06 -4.46357e+07 0 
0 0 0 
-2.82286e+07 2.23792e+06 0 
2.23792e+06 -4.3464e+07 0 
0 0 0 
-325417 771565 0 
771565 -2.60644e+07 0 
0 0 0 
-2.96367e+07 6.50022e+06 0 
6.50022e+06 -3.09003e+07 0 
0 0 0 
9.47079e+06 -126879 0 
-126879 -1.89687e+07 0 
0 0 0 
-2.46226e+07 4.95422e+06 0 
4.95422e+06 -3.86986e+07 0 
0 0 0 
-1.42369e+07 4.76913e+06 0 
4.76913e+06 -4.71455e+07 0 
0 0 0 
-3.7358e+07 -7.33993e+06 0 
-7.33993e+06 -5.76691e+07 0 
0 0 0 
7.57622e+06 -5.75593e+06 0 
-5.75593e+06 -4.00594e+07 0 
0 0 0 
-2.41861e+07 -9.19847e+06 0 
-9.19847e+06 -3.86927e+07 0 
0 0 0 
-4.28304e+06 5.53577e+06 0 
5.53577e+06 -3.23229e+07 0 
0 0 0 
-2.37551e+07 -800599 0 
-800599 -3.48841e+07 0 
0 0 0 
-7.19919e+06 1.70636e+07 0 
1.70636e+07 -1.86782e+07 0 
0 0 0 
-2.04797e+07 1.72503e+07 0 
1.72503e+07 -2.20082e+07 0 
0 0 0 
1.19236e+07 1.2229e+07 0 
1.2229e+07 -8.90484e+06 0 
0 0 0 
-1.89992e+07 595912 0 
595912 -2.55356e+07 0 
0 0 0 
2.911e+07 2.91694e+06 0 
2.91694e+06 -2.07394e+07 0 
0 0 0 
-2.65633e+07 -6.98837e+06 0 
-6.98837e+06 -2.1309e+07 0 
0 0 0 
1.40948e+06 -1.70128e+06 0 
-1.70128e+06 -6.32346e+06 0 
0 0 0 
-7.88779e+06 -8.29321e+06 0 
-8.29321e+06 -6.34291e+06 0 
0 0 0 
-1.11394e+07 -1.52974e+06 0 
-1.52974e+06 2.20135e+06 0 
0 0 0 
780496 -1.08203e+07 0 
-1.08203e+07 -978769 0 
0 0 0 
-2.36527e+06 1.16014e+07 0 
1.16014e+07 -1.11347e+07 0 
0 0 0 
-4.02511e+07 5.78095e+06 0 
5.78095e+06 -3.25456e+07 0 
0 0 0 
-412918 1.57324e+07 0 
1.57324e+07 -9.44429e+06 0 
0 0 0 
-4.11621e+06 7.27674e+06 0 
7.27674e+06 2.63888e+06 0 
0 0 0 
1.57524e+07 -92181.1 0 
-92181.1 3.33948e+07 0 
0 0 0 
2.80711e+07 -5.98083e+06 0 
-5.98083e+06 -1.25976e+07 0 
0 0 0 
5.45082e+07 -7.60352e+06 0 
-7.60352e+06 7.41131e+07 0 
0 0 0 
0 0 0 
0 0 0 
0 0 0 
7.04217e+06 -821231 0 
-821231 -1.95648e+07 0 
0 0 0 
1.58597e+07 -5.28722e+06 0 
-5.28722e+06 -3.9115e+07 0 
0 0 0 
4.4937e+07 1.27826e+07 0 
1.27826e+07 1.05695e+07 0 
0 0 0 
4.90718e+07 2.9226e+07 0 
2.9226e+07 7.15489e+07 0 
0 0 0 
-6.75069e+06 2.45445e+07 0 
2.45445e+07 -1.72913e+07 0 
0 0 0 
1.05193e+07 2.64682e+07 0 
2.64682e+07 1.9099e+07 0 
0 0 0 
-4.13846e+07 1.81136e+07 0 
1.81136e+07 -8.49756e+07 0 
0 0 0 
-2.15415e+07 6.78371e+06 0 
6.78371e+06 -2.59689e+07 0 
0 0 0 
748579 2.26724e+07 0 
2.26724e+07 -2.78474e+07 0 
0 0 0 
2.22621e+07 3.66727e+07 0 
3.66727e+07 5.94363e+07 0 
0 0 0 
-1.93731e+07 3.97621e+07 0 
3.97621e+07 -4.00145e+07 0 
0 0 0 
6.37157e+06 2.32723e+07 0 
2.32723e+07 6.31533e+07 0 
0 0 0 
-3.92789e+07 1.08781e+07 0 
1.08781e+07 -5.90506e+07 0 
0 0 0 
-2.94218e+07 1.27151e+07 0 
1.27151e+07 2.77446e+06 0 
0 0 0 
-4.7467e+07 4.23933e+06 0 
4.23933e+06 -3.86234e+07 0 
0 0 0 
-6.48253e+07 2.84673e+07 0 
2.84673e+07 -6.50985e+07 0 
0 0 0 
-3.99522e+07 2.89721e+07 0 
2.89721e+07 4.54367e+06 0 
0 0 0 
-5.21118e+06 3.22788e+07 0 
3.22788e+07 5.51222e+07 0 
0 0 0 
-1.95895e+07 2.14789e+07 0 
2.14789e+07 3.66401e+07 0 
0 0 0 
-4.75991e+07 1.09057e+07 0 
1.09057e+07 -1.34206e+07 0 
0 0 0 
-7.63416e+07 3.99223e+06 0 
3.99223e+06 -5.07573e+07 0 
0 0 0 
-8.39839e+07 -2.7364e+06 0 
-2.7364e+06 -4.44445e+07 0 
0 0 0 
-3.38801e+07 8.20099e+06 0 
8.20099e+06 4.75968e+07 0 
0 0 0 
-1.54476e+07 1.43812e+07 0 
1.43812e+07 4.52634e+07 0 
0 0 0 
2.88081e+06 -5.81383e+06 0 
-5.81383e+06 1.73853e+07 0 
0 0 0 
-3.22475e+06 -1.19443e+07 0 
-1.19443e+07 -2.89549e+07 0 
0 0 0 
1.65575e+07 -2.22116e+07 0 
-2.22116e+07 2.05344e+07 0 
0 0 0 
2.38856e+07 -1.74599e+07 0 
-1.74599e+07 7.18302e+07 0 
0 0 0 
-3.50525e+07 -3.57758e+07 0 
-3.57758e+07 8.11012e+06 0 
0 0 0 
-4.52354e+07 -4.48019e+07 0 
-4.48019e+07 4.88065e+06 0 
0 0 0 
-2.878e+07 -4.9298e+07 0 
-4.9298e+07 7.04166e+06 0 
0 0 0 
-1.45969e+07 -4.32755e+07 0 
-4.32755e+07 3.22097e+07 0 
0 0 0 
-1.50498e+07 -5.46546e+07 0 
-5.46546e+07 3.3035e+06 0 
0 0 0 
35093 -5.33313e+07 0 
-5.33313e+07 7.15292e+06 0 
0 0 0 
-5.88215e+06 -6.81721e+07 0 
-6.81721e+07 -3.37832e+07 0 
0 0 0 
-3.03227e+06 -6.08618e+07 0 
-6.08618e+07 -4.10719e+06 0 
0 0 0 
-1.45087e+07 -4.89067e+07 0 
-4.89067e+07 -5.25928e+07 0 
0 0 0 
312279 -3.69285e+07 0 
-3.69285e+07 -2.1572e+07 0 
0 0 0 
-3.78467e+07 -3.09935e+07 0 
-3.09935e+07 -1.10596e+08 0 
0 0 0 
9.675e+06 -8.53207e+06 0 
-8.53207e+06 1.44477e+07 0 
0 0 0 
-8.82989e+06 7.17228e+06 0 
7.17228e+06 -4.47482e+07 0 
0 0 0 
-1.03739e+06 1.02252e+07 0 
1.02252e+07 -1.92271e+07 0 
0 0 0 
-2.79661e+07 1.2513e+07 0 
1.2513e+07 -1.06942e+08 0 
0 0 0 
2.35897e+06 2.36805e+06 0 
2.36805e+06 -3.92147e+07 0 
0 0 0 
1.21039e+07 2.63079e+07 0 
2.63079e+07 -9.62408e+06 0 
0 0 0 
4.45547e+07 3.30095e+07 0 
3.30095e+07 9.3577e+07 0 
0 0 0 
5.17581e+06 3.65685e+07 0 
3.65685e+07 -1.20231e+07 0 
0 0 0 
-1.32775e+07 3.13661e+07 0 
3.13661e+07 -2.64921e+07 0 
0 0 0 
-2.72183e+07 2.89612e+07 0 
2.89612e+07 -4.74113e+07 0 
0 0 0 
5.92768e+06 2.34078e+07 0 
2.34078e+07 3.25571e+07 0 
0 0 0 
1.22216e+07 2.57452e+07 0 
2.57452e+07 5.81872e+07 0 
0 0 0 
3.74167e+06 1.31455e+07 0 
1.31455e+07 1.17945e+07 0 
0 0 0 
-4.76844e+06 1.41364e+07 0 
1.41364e+07 1.03835e+07 0 
0 0 0 
-2.84538e+07 1.94355e+07 0 
1.94355e+07 -6.15347e+07 0 
0 0 0 
1.67281e+07 1.56307e+07 0 
1.56307e+07 2.64622e+07 0 
0 0 0 
1.83898e+07 1.66919e+07 0 
1.66919e+07 2.22832e+07 0 
0 0 0 
3.28115e+07 6.42798e+06 0 
6.42798e+06 3.2044e+07 0 
0 0 0 
2.68836e+07 1.41314e+07 0 
1.41314e+07 1.97004e+07 0 
0 0 0 
8.46316e+06 -1.18194e+06 0 
-1.18194e+06 3.34306e+07 0 
0 0 0 
-1.0477e+07 -544976 0 
-544976 -1.03344e+07 0 
0 0 0 
-2.78012e+06 3.10234e+06 0 
3.10234e+06 -1.32292e+07 0 
0 0 0 
4.46318e+06 -4.63888e+06 0 
-4.63888e+06 1.21292e+06 0 
0 0 0 
9.04693e+06 -956658 0 
-956658 2.03535e+07 0 
0 0 0 
7.31022e+06 3.68425e+06 0 
3.68425e+06 7.71581e+06 0 
0 0 0 
1.34189e+07 9.29124e+06 0 
9.29124e+06 -9.55622e+06 0 
0 0 0 
2.0432e+07 -9.48343e+06 0 
-9.48343e+06 -5.19746e+06 0 
0 0 0 
3.00907e+07 -5.82467e+06 0 
-5.82467e+06 6.77652e+06 0 
0 0 0 
4.58978e+07 -1.07043e+07 0 
-1.07043e+07 4.59336e+07 0 
0 0 0 
3.35318e+07 9.54752e+06 0 
9.54752e+06 -6.9772e+06 0 
0 0 0 
3.03089e+07 1.53656e+07 0 
1.53656e+07 8.82133e+06 0 
0 0 0 
-3.5962e+06 1.11511e+06 0 
1.11511e+06 -3.08699e+07 0 
0 0 0 
175437 5.71173e+06 0 
5.71173e+06 1.21266e+07 0 
0 0 0 
-3.18474e+06 6.70688e+06 0 
6.70688e+06 3.96951e+06 0 
0 0 0 
-4.10181e+06 1.78009e+07 0 
1.78009e+07 5.3088e+06 0 
0 0 0 
-5.24169e+06 2.05483e+07 0 
2.05483e+07 -1.35525e+07 0 
0 0 0 
1.1869e+07 3.21941e+06 0 
3.21941e+06 -1.83766e+06 0 
0 0 0 
2.66536e+07 -5.86802e+06 0 
-5.86802e+06 2.9203e+06 0 
0 0 0 
2.5174e+07 -9.19788e+06 0 
-9.19788e+06 3.75623e+07 0 
0 0 0 
7.0765e+06 6.49636e+06 0 
6.49636e+06 -279777 0 
0 0 0 
-3.63982e+06 8.67666e+06 0 
8.67666e+06 -1.47876e+07 0 
0 0 0 
-4.06726e+06 -3.73125e+06 0 
-3.73125e+06 -2.34711e+07 0 
0 0 0 
3.24766e+06 -9.74133e+06 0 
-9.74133e+06 391133 0 
0 0 0 
2.31067e+07 -5.7249e+06 0 
-5.7249e+06 5.0904e+07 0 
0 0 0 
7.24809e+06 5.7597e+06 0 
5.7597e+06 -8.7537e+06 0 
0 0 0 
-1.45885e+06 -2.84823e+06 0 
-2.84823e+06 -2.47258e+07 0 
0 0 0 
1.87179e+06 3.92483e+06 0 
3.92483e+06 -2.01732e+07 0 
0 0 0 
3.20001e+07 675589 0 
675589 7.92971e+07 0 
0 0 0 
-6.36245e+06 -1.97358e+06 0 
-1.97358e+06 -8.88087e+06 0 
0 0 0 
-1.55935e+07 -3.42282e+06 0 
-3.42282e+06 4.25034e+06 0 
0 0 0 
-2.52296e+07 -2.95149e+06 0 
-2.95149e+06 -4.3382e+07 0 
0 0 0 
-1.8632e+07 -2.42475e+06 0 
-2.42475e+06 -1.11183e+07 0 
0 0 0 
-2.83107e+07 -1.45784e+06 0 
-1.45784e+06 -2.33034e+07 0 
0 0 0 
0 0 0 
0 0 0 
0 0 0 
-9.31366e+06 1.11972e+07 0 
1.11972e+07 -5.71423e+06 0 
0 0 0 
-1.00021e+07 -636492 0 
-636492 -3.22545e+06 0 
0 0 0 
-1.02811e+07 744897 0 
744897 -6.46943e+06 0 
0 0 0 
3.33468e+06 -5.53213e+06 0 
-5.53213e+06 -4.04143e+06 0 
0 0 0 
-1.15907e+06 -3.72087e+06 0 
-3.72087e+06 -1.54692e+07 0 
0 0 0 
2.77779e+07 -1.00753e+06 0 
-1.00753e+06 -6.07264e+06 0 
0 0 0 
1.19852e+07 6.6584e+06 0 
6.6584e+06 -8.3598e+06 0 
0 0 0 
-2.76301e+07 1.0795e+07 0 
1.0795e+07 -6.66864e+06 0 
0 0 0 
1.47076e+07 6.39928e+06 0 
6.39928e+06 -2.51277e+06 0 
0 0 0 
-1.83178e+07 -4.41052e+06 0 
-4.41052e+06 -1.17194e+07 0 
0 0 0 
2.96543e+07 -9.34705e+06 0 
-9.34705e+06 1.66265e+07 0 
0 0 0 
-2.47747e+07 -1.02906e+07 0 
-1.02906e+07 -1.1695e+07 0 
0 0 0 
1.19796e+07 -9.84984e+06 0 
-9.84984e+06 1.59217e+07 0 
0 0 0 
-3.88001e+07 2.53104e+06 0 
2.53104e+06 -3.28886e+06 0 
0 0 0 
1.88091e+07 4.78484e+06 0 
4.78484e+06 1.88286e+07 0 
0 0 0 
-3.25249e+07 5.78411e+06 0 
5.78411e+06 7.20465e+06 0 
0 0 0 
3.43707e+07 -5.8013e+06 0 
-5.8013e+06 3.62704e+07 0 
0 0 0 
-7.43303e+06 -7.5955e+06 0 
-7.5955e+06 2.79675e+07 0 
0 0 0 
4.2749e+07 -9.72005e+06 0 
-9.72005e+06 4.73874e+07 0 
0 0 0 
2.49245e+07 -7.34165e+06 0 
-7.34165e+06 1.87225e+07 0 
0 0 0 
1.33069e+07 -2.59927e+06 0 
-2.59927e+06 1.06717e+07 0 
0 0 0 
-2.59603e+07 4.72568e+06 0 
4.72568e+06 -1.19777e+07 0 
0 0 0 
-2.15107e+07 6.4431e+06 0 
6.4431e+06 -2.33091e+07 0 
0 0 0 
-1.86199e+07 -1.29222e+06 0 
-1.29222e+06 -1.94012e+07 0 
0 0 0 
-7.86891e+06 -7.60178e+06 0 
-7.60178e+06 -1.90813e+07 0 
0 0 0 
9.42711e+06 -7.31319e+06 0 
-7.31319e+06 -1.895e+07 0 
0 0 0 
-7.77314e+06 -7.38916e+06 0 
-7.38916e+06 -3.63662e+07 0 
0 0 0 
-7.49325e+06 3.07741e+06 0 
3.07741e+06 -3.79719e+07 0 
0 0 0 
-2.57602e+07 1.81563e+06 0 
1.81563e+06 -5.25203e+07 0 
0 0 0 
-1.20697e+07 5.07389e+06 0 
5.07389e+06 -5.39584e+07 0 
0 0 0 
-6.18217e+07 7.42677e+06 0 
7.42677e+06 -6.57829e+07 0 
0 0 0 
-9.05126e+06 569929 0 
569929 -3.20196e+07 0 
0 0 0 
1.73629e+07 2.08982e+06 0 
2.08982e+06 -7.15008e+06 0 
0 0 0 
-1.06906e+07 -2.26437e+06 0 
-2.26437e+06 -1.56452e+07 0 
0 0 0 
4.29187e+07 -411646 0 
-411646 1.7548e+07 0 
0 0 0 
-1.27337e+07 -502256 0 
-502256 -6.55586e+06 0 
0 0 0 
8.06439e+06 2.71751e+06 0 
2.71751e+06 -1.12853e+07 0 
0 0 0 
-2.18143e+07 -4.0237e+06 0 
-4.0237e+06 -1.90449e+07 0 
0 0 0 
-2.65524e+06 -6.99876e+06 0 
-6.99876e+06 -1.64058e+07 0 
0 0 0 
-6.98551e+06 -4.45179e+06 0 
-4.45179e+06 -7.50088e+06 0 
0 0 0 
-2.70353e+06 -6.39632e+06 0 
-6.39632e+06 -8.161e+06 0 
0 0 0 
-2.638e+07 2.01227e+06 0 
2.01227e+06 -2.08458e+07 0 
0 0 0 
-3.47257e+07 2.18927e+06 0 
2.18927e+06 -1.96735e+07 0 
0 0 0 
-1.05223e+07 -5.73388e+06 0 
-5.73388e+06 -9.44602e+06 0 
0 0 0 
-1.07918e+07 -381335 0 
-381335 7.72827e+06 0 
0 0 0 
4.08772e+07 -1.68175e+06 0 
-1.68175e+06 3.12006e+07 0 
0 0 0 
2.30681e+07 548927 0 
548927 3.1245e+07 0 
0 0 0 
316166 7.50175e+06 0 
7.50175e+06 2.22065e+07 0 
0 0 0 
-1.03984e+07 6.82686e+06 0 
6.82686e+06 8.84337e+06 0 
0 0 0 
1.46162e+07 -532507 0 
-532507 3.5405e+07 0 
0 0 0 
1.90129e+07 -4.83926e+06 0 
-4.83926e+06 2.99431e+07 0 
0 0 0 
1.21244e+07 -1.34655e+07 0 
-1.34655e+07 1.55336e+07 0 
0 0 0 
-2.44502e+06 -696058 0 
-696058 -5.98936e+06 0 
0 0 0 
-2.64573e+07 8.15845e+06 0 
8.15845e+06 -2.89377e+07 0 
0 0 0 
-2.88395e+07 1.72065e+07 0 
1.72065e+07 -3.14174e+07 0 
0 0 0 
-3.77684e+06 8.86064e+06 0 
8.86064e+06 -2.43413e+07 0 
0 0 0 
1.13375e+07 7.17263e+06 0 
7.17263e+06 -1.40753e+07 0 
0 0 0 
-5.89068e+06 4.61859e+06 0 
4.61859e+06 957763 0 
0 0 0 
3.83979e+07 4.79797e+06 0 
4.79797e+06 1.94972e+07 0 
0 0 0 
-4.05548e+07 -8.86727e+06 0 
-8.86727e+06 -4.66867e+06 0 
0 0 0 
3.04269e+07 -1.36791e+07 0 
-1.36791e+07 1.76009e+07 0 
0 0 0 
-1.28318e+07 -1.225e+07 0 
-1.225e+07 1.64074e+07 0 
0 0 0 
1.78514e+07 -1.62169e+07 0 
-1.62169e+07 3.81334e+07 0 
0 0 0 
3.26924e+07 -4.97162e+06 0 
-4.97162e+06 5.92285e+07 0 
0 0 0 
-337529 -5.87975e+06 0 
-5.87975e+06 4.48111e+07 0 
0 0 0 
-616520 -1.43776e+06 0 
-1.43776e+06 2.89881e+07 0 
0 0 0 
8.22546e+06 -542992 0 
-542992 2.30445e+07 0 
0 0 0 
-2.25338e+06 -7.51708e+06 0 
-7.51708e+06 8.5423e+06 0 
0 0 0 
1.20009e+07 1.59168e+06 0 
1.59168e+06 6.9591e+06 0 
0 0 0 
-1.12959e+07 1.06928e+06 0 
1.06928e+06 -6.9875e+06 0 
0 0 0 
-229941 4.33625e+06 0 
4.33625e+06 342763 0 
0 0 0 
-2.71578e+07 -8.28824e+06 0 
-8.28824e+06 -1.55657e+06 0 
0 0 0 
3.37378e+07 5.22554e+06 0 
5.22554e+06 2.65452e+07 0 
0 0 0 
-1.87855e+07 -1.33518e+07 0 
-1.33518e+07 1.0642e+07 0 
0 0 0 
3.30043e+07 -4.30681e+06 0 
-4.30681e+06 2.49992e+07 0 
0 0 0 
-7.15866e+06 3.69214e+06 0 
3.69214e+06 3.79568e+06 0 
0 0 0 
9.3853e+06 1.01341e+07 0 
1.01341e+07 -642633 0 
0 0 0 
-5.621e+06 2.62622e+06 0 
2.62622e+06 -7.50097e+06 0 
0 0 0 
-2.44221e+07 1.1599e+07 0 
1.1599e+07 -2.29435e+07 0 
0 0 0 
-1.65661e+07 -2.86036e+06 0 
-2.86036e+06 -2.00205e+07 0 
0 0 0 
2.42646e+07 -9.39179e+06 0 
-9.39179e+06 -2.56311e+06 0 
0 0 0 
-8.14969e+06 -1.05138e+06 0 
-1.05138e+06 -2.88106e+07 0 
0 0 0 
-1.6316e+07 1.71665e+06 0 
1.71665e+06 -2.47633e+07 0 
0 0 0 
-853555 -2.13737e+06 0 
-2.13737e+06 -1.53414e+07 0 
0 0 0 
-4.16867e+07 71771.5 0 
71771.5 -3.15786e+07 0 
0 0 0 
1.85169e+07 -1.25294e+07 0 
-1.25294e+07 4.72802e+06 0 
0 0 0 
1.27994e+07 -410238 0 
-410238 1.14426e+07 0 
0 0 0 
-1.02922e+07 4.66651e+06 0 
4.66651e+06 8.23699e+06 0 
0 0 0 
-1.14018e+07 1.99718e+07 0 
1.99718e+07 -7.01033e+06 0 
0 0 0 
-1.23856e+07 1.21571e+07 0 
1.21571e+07 -3.22747e+07 0 
0 0 0 
-2.19096e+07 1.85006e+07 0 
1.85006e+07 -4.3536e+07 0 
0 0 0 
1.52207e+07 7.67081e+06 0 
7.67081e+06 -2.71531e+07 0 
0 0 0 
4.66917e+06 -4.26086e+06 0 
-4.26086e+06 6.29974e+07 0 
0 0 0 
-2.73952e+07 4.66493e+06 0 
4.66493e+06 -2.84927e+07 0 
0 0 0 
0 0 0 
0 0 0 
0 0 0 
-1.14998e+07 5.65277e+06 0 
5.65277e+06 -2.37677e+07 0 
0 0 0 
-1.41704e+07 1.52869e+07 0 
1.52869e+07 -3.88455e+07 0 
0 0 0 
2.30827e+06 1.88848e+07 0 
1.88848e+07 2.34691e+07 0 
0 0 0 
8.99487e+06 1.37145e+07 0 
1.37145e+07 4.91077e+07 0 
0 0 0 
-1.90238e+07 1.84238e+07 0 
1.84238e+07 -3.303e+07 0 
0 0 0 
-2.73674e+07 6.80581e+06 0 
6.80581e+06 7.63356e+06 0 
0 0 0 
-7.60003e+07 -5.1709e+06 0 
-5.1709e+06 -1.18445e+08 0 
0 0 0 
-2.37375e+07 1.27316e+07 0 
1.27316e+07 -1.95219e+06 0 
0 0 0 
-8.2258e+06 2.88694e+07 0 
2.88694e+07 -2.05486e+07 0 
0 0 0 
3.75315e+07 3.02097e+07 0 
3.02097e+07 9.5246e+07 0 
0 0 0 
-2.04507e+07 3.61038e+07 0 
3.61038e+07 -4.85606e+07 0 
0 0 0 
-1.67268e+07 1.84527e+07 0 
1.84527e+07 1.55787e+07 0 
0 0 0 
-5.06784e+07 1.61508e+07 0 
1.61508e+07 -6.0446e+07 0 
0 0 0 
-1.62694e+07 1.42434e+07 0 
1.42434e+07 1.02607e+07 0 
0 0 0 
-3.52292e+06 1.28808e+07 0 
1.28808e+07 -1.9247e+07 0 
0 0 0 
-9.83432e+06 2.38989e+07 0 
2.38989e+07 -3.90299e+07 0 
0 0 0 
4.13075e+06 3.68931e+07 0 
3.68931e+07 2.21549e+07 0 
0 0 0 
2.29764e+07 2.0159e+07 0 
2.0159e+07 6.45211e+07 0 
0 0 0 
1.98651e+07 1.48051e+07 0 
1.48051e+07 2.41312e+07 0 
0 0 0 
2.70349e+07 -1.14593e+07 0 
-1.14593e+07 -2.23661e+06 0 
0 0 0 
1.90793e+07 -4.80693e+06 0 
-4.80693e+06 -2.65352e+07 0 
0 0 0 
1.74714e+07 9.15553e+06 0 
9.15553e+06 3.85083e+06 0 
0 0 0 
2.78909e+07 1.62546e+07 0 
1.62546e+07 6.78633e+07 0 
0 0 0 
6.05775e+06 3.3893e+06 0 
3.3893e+06 3.42408e+07 0 
0 0 0 
-3.41746e+07 -1.20578e+07 0 
-1.20578e+07 -1.08448e+07 0 
0 0 0 
-5.86929e+07 -1.82069e+07 0 
-1.82069e+07 -4.78176e+07 0 
0 0 0 
-5.16892e+07 -1.97055e+07 0 
-1.97055e+07 -9.85316e+06 0 
0 0 0 
-3.48509e+07 -2.89612e+07 0 
-2.89612e+07 3.78075e+07 0 
0 0 0 
-2.97101e+07 -4.73564e+07 0 
-4.73564e+07 -1.66827e+06 0 
0 0 0 
-7.20963e+06 -3.55667e+07 0 
-3.55667e+07 1.55469e+06 0 
0 0 0 
-1.29689e+07 -4.08576e+07 0 
-4.08576e+07 1.34616e+07 0 
0 0 0 
-5.79012e+06 -3.97011e+07 0 
-3.97011e+07 3.41536e+07 0 
0 0 0 
-1.35269e+07 -6.01511e+07 0 
-6.01511e+07 -4.98005e+06 0 
0 0 0 
-2.57235e+07 -5.28759e+07 0 
-5.28759e+07 -1.88417e+07 0 
0 0 0 
-3.97606e+07 -6.78417e+07 0 
-6.78417e+07 -4.53e+07 0 
0 0 0 
-9.42488e+06 -6.26742e+07 0 
-6.26742e+07 884838 0 
0 0 0 
-1.44977e+07 -4.20939e+07 0 
-4.20939e+07 -4.09918e+07 0 
0 0 0 
-1.72555e+07 -4.80364e+07 0 
-4.80364e+07 -1.11087e+07 0 
0 0 0 
-3.72063e+07 -3.90503e+07 0 
-3.90503e+07 -9.97997e+07 0 
0 0 0 
1.56763e+07 -1.96638e+07 0 
-1.96638e+07 5.10664e+07 0 
0 0 0 
-1.46724e+07 -6.70053e+06 0 
-6.70053e+06 -3.82476e+07 0 
0 0 0 
-6.89085e+06 -5.6009e+06 0 
-5.6009e+06 -5.34492e+06 0 
0 0 0 
-4.84746e+07 1.60511e+07 0 
1.60511e+07 -1.18039e+08 0 
0 0 0 
-316534 2.93861e+07 0 
2.93861e+07 -1.73024e+07 0 
0 0 0 
3.03488e+07 3.59087e+07 0 
3.59087e+07 4.14567e+06 0 
0 0 0 
7.39246e+07 2.79507e+07 0 
2.79507e+07 8.70581e+07 0 
0 0 0 
5.3226e+07 2.93881e+07 0 
2.93881e+07 1.03132e+07 0 
0 0 0 
3.22416e+07 2.48328e+07 0 
2.48328e+07 -1.0046e+07 0 
0 0 0 
1.27769e+07 3.52003e+07 0 
3.52003e+07 -2.99466e+07 0 
0 0 0 
3.32653e+07 2.84014e+07 0 
2.84014e+07 2.60142e+07 0 
0 0 0 
5.14945e+07 2.05602e+07 0 
2.05602e+07 5.59849e+07 0 
0 0 0 
4.12213e+07 1.69603e+07 0 
1.69603e+07 2.93019e+07 0 
0 0 0 
4.04897e+07 1.60488e+07 0 
1.60488e+07 2.10034e+07 0 
0 0 0 
1.00446e+06 2.99235e+07 0 
2.99235e+07 -2.65165e+07 0 
0 0 0 
1.37674e+07 2.31054e+07 0 
2.31054e+07 9.70671e+06 0 
0 0 0 
1.26783e+07 1.06851e+07 0 
1.06851e+07 -6.19809e+06 0 
0 0 0 
-6.57469e+06 891905 0 
891905 2.39439e+07 0 
0 0 0 
-2.17788e+07 -111524 0 
-111524 -8.0117e+06 0 
0 0 0 
370305 1.84488e+06 0 
1.84488e+06 4.53754e+07 0 
0 0 0 
-7.53508e+06 1.03828e+07 0 
1.03828e+07 -1.24177e+07 0 
0 0 0 
-9.11542e+06 4.30357e+06 0 
4.30357e+06 -1.78001e+07 0 
0 0 0 
-243421 5.87283e+06 0 
5.87283e+06 2.59178e+06 0 
0 0 0 
1.20317e+07 -283663 0 
-283663 2.17271e+07 0 
0 0 0 
4.79551e+06 2.48572e+06 0 
2.48572e+06 5.33308e+06 0 
0 0 0 
-7.49438e+06 1.47056e+06 0 
1.47056e+06 -2.4543e+07 0 
0 0 0 
4.22424e+06 -3.56638e+06 0 
-3.56638e+06 -788785 0 
0 0 0 
7.35012e+06 3.66001e+06 0 
3.66001e+06 -1.66154e+07 0 
0 0 0 
3.12298e+07 -2.78344e+06 0 
-2.78344e+06 4.16198e+07 0 
0 0 0 
4.82779e+06 -1.69669e+06 0 
-1.69669e+06 8.798e+06 0 
0 0 0 
-1.06389e+07 6.30648e+06 0 
6.30648e+06 -2.61065e+07 0 
0 0 0 
-2.22142e+06 -3.61023e+06 0 
-3.61023e+06 -2.971e+07 0 
0 0 0 
2.23867e+07 1.43976e+06 0 
1.43976e+06 3.36433e+07 0 
0 0 0 
3.54908e+07 6.07074e+06 0 
6.07074e+06 3.19745e+07 0 
0 0 0 
2.52716e+07 1.1143e+07 0 
1.1143e+07 1.65199e+07 0 
0 0 0 
-1.33808e+07 8.87081e+06 0 
8.87081e+06 -2.93316e+07 0 
0 0 0 
-3.05575e+07 2.88391e+06 0 
2.88391e+06 -3.54341e+07 0 
0 0 0 
-2.7395e+07 -1.79775e+06 0 
-1.79775e+06 -1.31726e+07 0 
0 0 0 
-2.02036e+06 -1.26968e+07 0 
-1.26968e+07 2.85903e+07 0 
0 0 0 
-2.17311e+07 4.10339e+06 0 
4.10339e+06 4.19992e+06 0 
0 0 0 
-3.54442e+07 5.57682e+06 0 
5.57682e+06 -3.00549e+07 0 
0 0 0 
-3.53204e+07 -2.54339e+06 0 
-2.54339e+06 -4.55769e+07 0 
0 0 0 
-9.56887e+06 4.41967e+06 0 
4.41967e+06 5.24679e+06 0 
0 0 0 
9.58014e+06 7.85201e+06 0 
7.85201e+06 4.66544e+07 0 
0 0 0 
-6.00597e+06 3.16989e+06 0 
3.16989e+06 -3.69265e+06 0 
0 0 0 
-8.25166e+06 -901369 0 
-901369 -3.97859e+07 0 
0 0 0 
-1.14211e+06 4.42306e+06 0 
4.42306e+06 -1.9102e+07 0 
0 0 0 
1.48658e+07 -3.87171e+06 0 
-3.87171e+06 6.58758e+07 0 
0 0 0 
-2.6585e+07 -7.4034e+06 0 
-7.4034e+06 -1.69331e+07 0 
0 0 0 
-1.36055e+07 2.38156e+06 0 
2.38156e+06 1.45456e+07 0 
0 0 0 
-3.21509e+07 2.09336e+06 0 
2.09336e+06 -5.07081e+07 0 
0 0 0 
-5.30592e+06 -3.65272e+06 0 
-3.65272e+06 -1.23266e+06 0 
0 0 0 
-1.77059e+06 661598 0 
661598 -1.94406e+07 0 
0 0 0 
3.45224e+07 -4.14299e+06 0 
-4.14299e+06 7.57093e+07 0 
0 0 0 
0 0 0 
0 0 0 
0 0 0 
4.1111e+06 3.25477e+06 0 
3.25477e+06 -4.69442e+06 0 
0 0 0 
-2.87428e+07 9.26811e+06 0 
9.26811e+06 -1.33471e+07 0 
0 0 0 
794206 1.56182e+06 0 
1.56182e+06 5.02023e+06 0 
0 0 0 
8.26949e+06 564863 0 
564863 1.02291e+07 0 
0 0 0 
2.04163e+07 5.06847e+06 0 
5.06847e+06 3.98332e+07 0 
0 0 0 
3.92604e+07 830149 0 
830149 5.14657e+07 0 
0 0 0 
1.58946e+07 1.7261e+06 0 
1.7261e+06 3.39307e+07 0 
0 0 0 
-5.36093e+06 -4.31933e+06 0 
-4.31933e+06 581858 0 
0 0 0 
2.11431e+06 -5.41738e+06 0 
-5.41738e+06 -5.36807e+06 0 
0 0 0 
-2.92801e+07 -6.6149e+06 0 
-6.6149e+06 -1.93537e+07 0 
0 0 0 
2.95918e+07 -5.73132e+06 0 
-5.73132e+06 5.89224e+06 0 
0 0 0 
-2.82428e+07 -6.12683e+06 0 
-6.12683e+06 -1.55828e+06 0 
0 0 0 
2.24485e+07 484838 0 
484838 3.56253e+06 0 
0 0 0 
-3.06973e+07 3.31173e+06 0 
3.31173e+06 -1.47573e+07 0 
0 0 0 
9.34951e+06 1.56161e+07 0 
1.56161e+07 -1.80282e+07 0 
0 0 0 
-4.9354e+07 1.04773e+07 0 
1.04773e+07 -4.02741e+07 0 
0 0 0 
-7.71718e+06 -1.67918e+06 0 
-1.67918e+06 -2.62408e+07 0 
0 0 0 
-9.67874e+06 4.48506e+06 0 
4.48506e+06 -1.64118e+07 0 
0 0 0 
4.57955e+06 -2.5074e+06 0 
-2.5074e+06 -5.04279e+06 0 
0 0 0 
4.25641e+07 -5.66533e+06 0 
-5.66533e+06 3.08427e+07 0 
0 0 0 
9.30196e+06 -9.72005e+06 0 
-9.72005e+06 2.51113e+07 0 
0 0 0 
-1.16804e+06 -3.4791e+06 0 
-3.4791e+06 7.53774e+06 0 
0 0 0 
-3.22957e+07 -6.44883e+06 0 
-6.44883e+06 -2.12968e+07 0 
0 0 0 
-2.38325e+07 -6.82921e+06 0 
-6.82921e+06 -3.31398e+07 0 
0 0 0 
-8.16335e+06 -6.71104e+06 0 
-6.71104e+06 -2.24683e+07 0 
0 0 0 
4.69887e+06 -8.10156e+06 0 
-8.10156e+06 376020 0 
0 0 0 
2.49225e+07 -1.24423e+07 0 
-1.24423e+07 3.82701e+07 0 
0 0 0 
2.96825e+07 -2.6838e+06 0 
-2.6838e+06 5.07259e+07 0 
0 0 0 
2.66085e+07 4.2506e+06 0 
4.2506e+06 5.60984e+07 0 
0 0 0 
1.83287e+06 2.73333e+06 0 
2.73333e+06 3.5558e+07 0 
0 0 0 
-1.96241e+07 7.17237e+06 0 
7.17237e+06 3.57132e+06 0 
0 0 0 
-1.10978e+07 8.26372e+06 0 
8.26372e+06 269693 0 
0 0 0 
9.79745e+06 3.72531e+06 0 
3.72531e+06 -5.30589e+06 0 
0 0 0 
-1.81462e+06 -4.65247e+06 0 
-4.65247e+06 100729 0 
0 0 0 
3.9197e+07 417767 0 
417767 1.68626e+07 0 
0 0 0 
-1.73134e+07 -1.18713e+07 0 
-1.18713e+07 -6.89473e+06 0 
0 0 0 
1.21662e+07 -2.62039e+06 0 
-2.62039e+06 9.86006e+06 0 
0 0 0 
-1.84246e+07 -8.48022e+06 0 
-8.48022e+06 -4.17221e+06 0 
0 0 0 
1.4486e+07 -8.75301e+06 0 
-8.75301e+06 4.89473e+06 0 
0 0 0 
-1.3895e+07 -8.33575e+06 0 
-8.33575e+06 -1.33037e+07 0 
0 0 0 
6.22821e+06 -6.5577e+06 0 
-6.5577e+06 -8.07817e+06 0 
0 0 0 
-2.50459e+07 -5.27576e+06 0 
-5.27576e+06 -2.06325e+07 0 
0 0 0 
-3.58502e+07 2.71847e+06 0 
2.71847e+06 -3.12094e+07 0 
0 0 0 
-1.26794e+07 5.84408e+06 0 
5.84408e+06 -5.33245e+06 0 
0 0 0 
5.66651e+06 8.36578e+06 0 
8.36578e+06 9.88519e+06 0 
0 0 0 
2.04609e+07 5.95259e+06 0 
5.95259e+06 1.59512e+07 0 
0 0 0 
2.6184e+07 -106493 0 
-106493 1.64929e+07 0 
0 0 0 
-1.31996e+07 -5.36574e+06 0 
-5.36574e+06 -1.19854e+07 0 
0 0 0 
-2.21992e+07 8.57724e+06 0 
8.57724e+06 -2.80528e+07 0 
0 0 0 
-1.35484e+07 -3.24278e+06 0 
-3.24278e+06 -3.28752e+07 0 
0 0 0 
-5.8728e+06 -5.67555e+06 0 
-5.67555e+06 -1.54919e+07 0 
0 0 0 
8.14961e+06 -1.78762e+06 0 
-1.78762e+06 4.66478e+06 0 
0 0 0 
2.31957e+07 -8.53025e+06 0 
-8.53025e+06 1.49571e+07 0 
0 0 0 
-1.41528e+07 1.99078e+06 0 
1.99078e+06 1.1219e+07 0 
0 0 0 
-1.87808e+06 8.5825e+06 0 
8.5825e+06 1.38345e+07 0 
0 0 0 
-2.4819e+06 1.30866e+07 0 
1.30866e+07 -1.4464e+07 0 
0 0 0 
-1.13446e+07 1.0102e+07 0 
1.0102e+07 -3.17652e+07 0 
0 0 0 
-1.60525e+07 1.43247e+06 0 
1.43247e+06 -5.12621e+07 0 
0 0 0 
376556 -6.90951e+06 0 
-6.90951e+06 -6.12278e+07 0 
0 0 0 
-6.29112e+07 -5.24251e+06 0 
-5.24251e+06 -8.88897e+07 0 
0 0 0 
-6.76427e+06 -840911 0 
-840911 -5.3111e+07 0 
0 0 0 
-4.35505e+07 -6.60908e+06 0 
-6.60908e+06 -5.54857e+07 0 
0 0 0 
1.6929e+07 -1.93457e+06 0 
-1.93457e+06 -1.79653e+07 0 
0 0 0 
6.43754e+06 -925622 0 
-925622 1.75474e+06 0 
0 0 0 
1.92639e+06 -4.85568e+06 0 
-4.85568e+06 1.46617e+07 0 
0 0 0 
-1.88342e+06 3.12978e+06 0 
3.12978e+06 1.54829e+07 0 
0 0 0 
-9.23362e+06 -3.23189e+06 0 
-3.23189e+06 7.1076e+06 0 
0 0 0 
9.96366e+06 2.52224e+06 0 
2.52224e+06 1.77444e+07 0 
0 0 0 
2.42428e+07 -5.42715e+06 0 
-5.42715e+06 2.1707e+07 0 
0 0 0 
-1.11595e+07 710312 0 
710312 1.2005e+06 0 
0 0 0 
-1.47137e+07 -193170 0 
-193170 -2.00428e+07 0 
0 0 0 
-3.4336e+07 -3.80477e+06 0 
-3.80477e+06 -3.55499e+07 0 
0 0 0 
1.39775e+07 -4.11954e+06 0 
-4.11954e+06 -3.38078e+07 0 
0 0 0 
-4.31549e+07 4.58389e+06 0 
4.58389e+06 -4.49327e+07 0 
0 0 0 
3.0232e+07 -175466 0 
-175466 -7.71632e+06 0 
0 0 0 
-1.35207e+07 872207 0 
872207 -1.48975e+07 0 
0 0 0 
1.09574e+07 -31798 0 
-31798 -8.45175e+06 0 
0 0 0 
-2.09168e+07 3.48583e+06 0 
3.48583e+06 -3.28721e+07 0 
0 0 0 
-1.80527e+07 -5.27971e+06 0 
-5.27971e+06 -3.46989e+07 0 
0 0 0 
-3.39786e+07 1.07547e+07 0 
1.07547e+07 -4.63087e+07 0 
0 0 0 
1.39624e+07 2.26131e+06 0 
2.26131e+06 -2.47305e+07 0 
0 0 0 
6.42122e+06 1.24418e+06 0 
1.24418e+06 -8.83736e+06 0 
0 0 0 
-9.60027e+06 2.65313e+06 0 
2.65313e+06 -9.46641e+06 0 
0 0 0 
2.03484e+06 -360285 0 
-360285 6.03549e+06 0 
0 0 0 
-4.56043e+07 -7.53501e+06 0 
-7.53501e+06 -1.21401e+07 0 
0 0 0 
2.56392e+07 2.02578e+06 0 
2.02578e+06 5.86221e+06 0 
0 0 0 
1.58843e+07 -2.5828e+06 0 
-2.5828e+06 3.93152e+06 0 
0 0 0 
-6.64918e+06 3.82434e+06 0 
3.82434e+06 -1.52651e+07 0 
0 0 0 
-4.21234e+06 4.58e+06 0 
4.58e+06 -2.9346e+06 0 
0 0 0 
5.92687e+06 1.03671e+07 0 
1.03671e+07 1.15053e+07 0 
0 0 0 
-1.97631e+06 1.40664e+07 0 
1.40664e+07 8.99512e+06 0 
0 0 0 
1.81117e+07 1.21994e+07 0 
1.21994e+07 3.95418e+06 0 
0 0 0 
-2.9029e+07 1.09241e+07 0 
1.09241e+07 -2.37104e+07 0 
0 0 0 
7.43813e+06 -2.6127e+06 0 
-2.6127e+06 -1.00643e+07 0 
0 0 0 
-816401 8.17722e+06 0 
8.17722e+06 -2.13805e+07 0 
0 0 0 
0 0 0 
0 0 0 
0 0 0 
2.44049e+06 7.32957e+06 0 
7.32957e+06 -7.29889e+06 0 
0 0 0 
-6.80946e+06 6.19194e+06 0 
6.19194e+06 -2.04176e+07 0 
0 0 0 
1.38303e+07 1.61586e+07 0 
1.61586e+07 2.57985e+07 0 
0 0 0 
5.08803e+06 4.2079e+06 0 
4.2079e+06 3.35936e+07 0 
0 0 0 
-6.15929e+07 4.09872e+06 0 
4.09872e+06 -4.37096e+07 0 
0 0 0 
-7.97047e+07 4.81108e+06 0 
4.81108e+06 -3.39573e+07 0 
0 0 0 
-9.87158e+07 1.3184e+07 0 
1.3184e+07 -1.01899e+08 0 
0 0 0 
-4.92602e+07 3.26204e+07 0 
3.26204e+07 1.62617e+06 0 
0 0 0 
-7.26091e+07 3.07115e+07 0 
3.07115e+07 -2.55122e+07 0 
0 0 0 
-7.21225e+07 1.92585e+07 0 
1.92585e+07 4.3282e+07 0 
0 0 0 
-1.239e+08 1.03979e+07 0 
1.03979e+07 -7.20893e+07 0 
0 0 0 
-1.15388e+08 9.29574e+06 0 
9.29574e+06 -3.2396e+07 0 
0 0 0 
-1.28165e+08 1.90707e+07 0 
1.90707e+07 -7.91474e+07 0 
0 0 0 
-1.08291e+08 1.93405e+07 0 
1.93405e+07 -3.09548e+07 0 
0 0 0 
-1.01102e+08 2.08666e+07 0 
2.08666e+07 -3.34667e+07 0 
0 0 0 
-1.05604e+08 1.66043e+07 0 
1.66043e+07 -7.70144e+07 0 
0 0 0 
-9.63431e+07 3.01106e+07 0 
3.01106e+07 -6.24249e+06 0 
0 0 0 
-1.08478e+08 2.52114e+07 0 
2.52114e+07 1.32884e+07 0 
0 0 0 
-1.36814e+08 1.72e+07 0 
1.72e+07 -4.48313e+07 0 
0 0 0 
-1.5522e+08 8.09964e+06 0 
8.09964e+06 -8.15091e+07 0 
0 0 0 
-1.50226e+08 -3.38787e+06 0 
-3.38787e+06 -6.32332e+07 0 
0 0 0 
-1.29613e+08 8.62535e+06 0 
8.62535e+06 -3.76616e+07 0 
0 0 0 
-1.22763e+08 2.21569e+06 0 
2.21569e+06 -2.76802e+06 0 
0 0 0 
-1.50264e+08 2.53148e+06 0 
2.53148e+06 -2.99712e+07 0 
0 0 0 
-1.5103e+08 -1.22907e+07 0 
-1.22907e+07 -6.30405e+07 0 
0 0 0 
-1.58248e+08 -2.03482e+07 0 
-2.03482e+07 -7.63845e+07 0 
0 0 0 
-1.44807e+08 -1.64933e+07 0 
-1.64933e+07 -4.13386e+07 0 
0 0 0 
-1.17391e+08 -1.65515e+07 0 
-1.65515e+07 -1.20552e+07 0 
0 0 0 
-9.29092e+07 -2.43375e+07 0 
-2.43375e+07 -2.13115e+07 0 
0 0 0 
-9.17253e+07 -2.99292e+07 0 
-2.99292e+07 -2.87483e+07 0 
0 0 0 
-7.82793e+07 -3.42142e+07 0 
-3.42142e+07 6.37475e+06 0 
0 0 0 
-9.32682e+07 -2.57514e+07 0 
-2.57514e+07 -2.84044e+07 0 
0 0 0 
-9.52748e+07 -5.26309e+07 0 
-5.26309e+07 -3.63514e+07 0 
0 0 0 
-9.32352e+07 -4.98541e+07 0 
-4.98541e+07 -5.29804e+07 0 
0 0 0 
-6.55133e+07 -5.3638e+07 0 
-5.3638e+07 -4.61309e+07 0 
0 0 0 
-1.65136e+07 -3.74577e+07 0 
-3.74577e+07 1.36796e+07 0 
0 0 0 
1.01041e+06 -2.49777e+07 0 
-2.49777e+07 -1.46274e+07 0 
0 0 0 
4.95007e+07 -2.25436e+07 0 
-2.25436e+07 7.17539e+06 0 
0 0 0 
5.28625e+07 -1.09628e+07 0 
-1.09628e+07 -4.8065e+07 0 
0 0 0 
1.17033e+08 -5.84728e+06 0 
-5.84728e+06 8.54701e+07 0 
0 0 0 
8.89307e+07 -1.18114e+07 0 
-1.18114e+07 -1.33033e+07 0 
0 0 0 
1.09037e+08 -1.54135e+07 0 
-1.54135e+07 5.66697e+07 0 
0 0 0 
7.51997e+07 7.54376e+06 0 
7.54376e+06 -4.52431e+07 0 
0 0 0 
9.02004e+07 1.40009e+07 0 
1.40009e+07 1.50943e+07 0 
0 0 0 
9.66942e+07 2.76274e+07 0 
2.76274e+07 4.53971e+07 0 
0 0 0 
9.70526e+07 3.54411e+07 0 
3.54411e+07 7.35845e+07 0 
0 0 0 
5.81325e+07 2.42859e+07 0 
2.42859e+07 1.95419e+07 0 
0 0 0 
3.36021e+07 1.63902e+07 0 
1.63902e+07 -1.07629e+07 0 
0 0 0 
3.53906e+07 2.7501e+07 0 
2.7501e+07 -9.74798e+06 0 
0 0 0 
4.31182e+07 2.90764e+07 0 
2.90764e+07 1.52402e+07 0 
0 0 0 
2.38188e+07 2.00938e+07 0 
2.00938e+07 3.04854e+07 0 
0 0 0 
1.20851e+07 1.8616e+07 0 
1.8616e+07 1.88226e+07 0 
0 0 0 
1.05229e+07 5.27476e+06 0 
5.27476e+06 9.78998e+06 0 
0 0 0 
7.07449e+06 7.17718e+06 0 
7.17718e+06 -1.65978e+06 0 
0 0 0 
-1.41939e+07 2.30717e+07 0 
2.30717e+07 -1.91519e+07 0 
0 0 0 
-1.85418e+07 1.30879e+07 0 
1.30879e+07 -1.17737e+07 0 
0 0 0 
4.37941e+06 1.04118e+07 0 
1.04118e+07 -3.02767e+06 0 
0 0 0 
2.82269e+07 1.67444e+07 0 
1.67444e+07 2.10215e+07 0 
0 0 0 
5.84539e+07 -746280 0 
-746280 5.54736e+07 0 
0 0 0 
2.56563e+07 -3.91473e+06 0 
-3.91473e+06 6.34324e+06 0 
0 0 0 
2.25616e+07 9.2724e+06 0 
9.2724e+06 443811 0 
0 0 0 
2.13308e+07 -76539.4 0 
-76539.4 6.55212e+06 0 
0 0 0 
4.98961e+06 -3.86135e+06 0 
-3.86135e+06 7.46515e+06 0 
0 0 0 
1.11525e+07 2.7346e+06 0 
2.7346e+06 1.16058e+07 0 
0 0 0 
-9.50008e+06 6.81648e+06 0 
6.81648e+06 -2.6502e+07 0 
0 0 0 
5.88434e+06 1.7085e+06 0 
1.7085e+06 4.21799e+06 0 
0 0 0 
8.98898e+06 -2.38286e+06 0 
-2.38286e+06 -2.89358e+07 0 
0 0 0 
2.81822e+07 -1.02698e+07 0 
-1.02698e+07 3.97268e+07 0 
0 0 0 
2.90632e+07 -4.75762e+06 0 
-4.75762e+06 2.26243e+07 0 
0 0 0 
426207 2.93934e+06 0 
2.93934e+06 -2.91532e+07 0 
0 0 0 
-2.84067e+06 2.60794e+06 0 
2.60794e+06 -1.56608e+07 0 
0 0 0 
1.24548e+07 3.291e+06 0 
3.291e+06 2.02891e+07 0 
0 0 0 
-1.51563e+06 -947864 0 
-947864 4.03482e+07 0 
0 0 0 
-2.21616e+07 -1.72973e+06 0 
-1.72973e+06 -6.29651e+06 0 
0 0 0 
-3.46461e+07 2.94807e+06 0 
2.94807e+06 -3.51308e+07 0 
0 0 0 
-4.04934e+07 4.53493e+06 0 
4.53493e+06 -4.86784e+07 0 
0 0 0 
-1.74544e+07 765784 0 
765784 -1.16144e+07 0 
0 0 0 
6.39868e+06 -5.43097e+06 0 
-5.43097e+06 3.21383e+07 0 
0 0 0 
2.45027e+07 -1.51116e+06 0 
-1.51116e+06 2.4949e+07 0 
0 0 0 
-1.53851e+06 2.44609e+06 0 
2.44609e+06 -2.00413e+07 0 
0 0 0 
-6.69754e+06 7.7326e+06 0 
7.7326e+06 -2.50875e+07 0 
0 0 0 
1.32485e+07 6.04728e+06 0 
6.04728e+06 1.74259e+07 0 
0 0 0 
1.56872e+07 1.58512e+06 0 
1.58512e+06 3.80032e+07 0 
0 0 0 
7.58908e+06 7.58478e+06 0 
7.58478e+06 -1.73219e+06 0 
0 0 0 
-7.67043e+06 -193027 0 
-193027 -2.80414e+07 0 
0 0 0 
-1.69182e+07 9.1144e+06 0 
9.1144e+06 -3.58305e+07 0 
0 0 0 
2.52426e+07 -2.96906e+06 0 
-2.96906e+06 5.81758e+07 0 
0 0 0 
1.76892e+07 -5.2304e+06 0 
-5.2304e+06 5.43389e+06 0 
0 0 0 
1.28084e+07 -3.094e+06 0 
-3.094e+06 1.87831e+07 0 
0 0 0 
-1.09953e+07 2.10545e+06 0 
2.10545e+06 -2.92901e+07 0 
0 0 0 
-6.84881e+06 7.62986e+06 0 
7.62986e+06 -2.80605e+06 0 
0 0 0 
-1.01295e+07 9.32062e+06 0 
9.32062e+06 -1.98775e+07 0 
0 0 0 
1.6296e+07 -1.16336e+06 0 
-1.16336e+06 4.23051e+07 0 
0 0 0 
8.06634e+06 -6.2206e+06 0 
-6.2206e+06 9.0868e+06 0 
0 0 0 
0 0 0 
0 0 0 
0 0 0 
1.15571e+06 -1.04651e+06 0 
-1.04651e+06 -579897 0 
0 0 0 
-1.0485e+07 4.72334e+06 0 
4.72334e+06 -1.19793e+07 0 
0 0 0 
-1.08656e+07 3.924e+06 0 
3.924e+06 -2.3505e+07 0 
0 0 0 
-5.71823e+06 3.55076e+06 0 
3.55076e+06 -2.24259e+07 0 
0 0 0 
-1.07163e+06 4.74697e+06 0 
4.74697e+06 -2.46906e+07 0 
0 0 0 
805356 -6.82595e+06 0 
-6.82595e+06 -1.74735e+07 0 
0 0 0 
-8.07958e+06 -3.04464e+06 0 
-3.04464e+06 -1.55759e+07 0 
0 0 0 
2.50228e+06 -8.53415e+06 0 
-8.53415e+06 -8.71324e+06 0 
0 0 0 
-2.8867e+06 -2.39802e+06 0 
-2.39802e+06 -8.00139e+06 0 
0 0 0 
-2.00495e+07 -6.86768e+06 0 
-6.86768e+06 -7.20888e+06 0 
0 0 0 
3.139e+07 2.86789e+06 0 
2.86789e+06 1.10519e+07 0 
0 0 0 
-3.02882e+07 -9.93906e+06 0 
-9.93906e+06 -480514 0 
0 0 0 
4.4588e+07 -5.27589e+06 0 
-5.27589e+06 2.83196e+07 0 
0 0 0 
-2.63015e+07 -3.53041e+06 0 
-3.53041e+06 -2.17356e+06 0 
0 0 0 
2.17864e+07 -8.35549e+06 0 
-8.35549e+06 1.00162e+07 0 
0 0 0 
-4.3039e+07 2.39427e+06 0 
2.39427e+06 -3.18192e+07 0 
0 0 0 
-9.00169e+06 3.0805e+06 0 
3.0805e+06 -1.81167e+07 0 
0 0 0 
-1.78644e+07 3.72139e+06 0 
3.72139e+06 -1.63906e+07 0 
0 0 0 
9.02126e+06 -895619 0 
-895619 1.20683e+07 0 
0 0 0 
3.06108e+07 -705151 0 
-705151 2.20542e+07 0 
0 0 0 
2.24936e+06 -1.13107e+07 0 
-1.13107e+07 3.81017e+06 0 
0 0 0 
9.87433e+06 -6.87594e+06 0 
-6.87594e+06 5.45893e+06 0 
0 0 0 
-2.98997e+07 -3.76941e+06 0 
-3.76941e+06 -4.82975e+06 0 
0 0 0 
-2.68371e+06 3.48801e+06 0 
3.48801e+06 9.13982e+06 0 
0 0 0 
3.72667e+06 6.67087e+06 0 
6.67087e+06 2.91589e+07 0 
0 0 0 
2.00228e+07 7.44552e+06 0 
7.44552e+06 4.84416e+07 0 
0 0 0 
1.87183e+07 5.09075e+06 0 
5.09075e+06 3.72737e+07 0 
0 0 0 
3.36075e+07 366220 0 
366220 2.94405e+07 0 
0 0 0 
-2.58052e+06 -8.7752e+06 0 
-8.7752e+06 -8.11112e+06 0 
0 0 0 
774920 -7.0871e+06 0 
-7.0871e+06 -3.58187e+06 0 
0 0 0 
-1.47231e+07 307427 0 
307427 1.88821e+06 0 
0 0 0 
-5.3767e+06 6.84384e+06 0 
6.84384e+06 -4.789e+06 0 
0 0 0 
-9.32195e+06 2.13941e+06 0 
2.13941e+06 4.26109e+06 0 
0 0 0 
9.7852e+06 8.53349e+06 0 
8.53349e+06 9.56438e+06 0 
0 0 0 
2.54306e+07 -6.82271e+06 0 
-6.82271e+06 5.12765e+06 0 
0 0 0 
-2.35519e+07 -3.26408e+06 0 
-3.26408e+06 -9.82172e+06 0 
0 0 0 
3.46153e+06 -4.86019e+06 0 
-4.86019e+06 -1.55473e+07 0 
0 0 0 
-2.33474e+07 -4.02484e+06 0 
-4.02484e+06 -3.44357e+07 0 
0 0 0 
-2.78396e+06 -9.20929e+06 0 
-9.20929e+06 -1.65078e+07 0 
0 0 0 
8.16037e+06 -6.43666e+06 0 
-6.43666e+06 8.08203e+06 0 
0 0 0 
1.52028e+07 -6.03281e+06 0 
-6.03281e+06 2.86319e+07 0 
0 0 0 
-569014 -5.10632e+06 0 
-5.10632e+06 2.97145e+07 0 
0 0 0 
-8.47436e+06 3.38254e+06 0 
3.38254e+06 3.22618e+07 0 
0 0 0 
6.47191e+06 9.01955e+06 0 
9.01955e+06 2.57393e+07 0 
0 0 0 
4.70835e+06 4.37075e+06 0 
4.37075e+06 1.75892e+07 0 
0 0 0 
2.05659e+07 1.32521e+06 0 
1.32521e+06 2.40184e+07 0 
0 0 0 
1.77452e+07 -3.10155e+06 0 
-3.10155e+06 1.89319e+07 0 
0 0 0 
2.13677e+06 -6.87129e+06 0 
-6.87129e+06 1.08563e+07 0 
0 0 0 
-1.21142e+07 -203528 0 
-203528 -7.62681e+06 0 
0 0 0 
-2.18088e+07 4.58699e+06 0 
4.58699e+06 -2.1284e+07 0 
0 0 0 
-5.13796e+06 -2.48006e+06 0 
-2.48006e+06 -2.45683e+07 0 
0 0 0 
-8.779e+06 -2.14171e+06 0 
-2.14171e+06 -2.98023e+07 0 
0 0 0 
1.71116e+07 -8.27124e+06 0 
-8.27124e+06 -1.58379e+07 0 
0 0 0 
-3.21725e+07 3.40257e+06 0 
3.40257e+06 -4.44885e+07 0 
0 0 0 
-1.51583e+06 5.78661e+06 0 
5.78661e+06 -4.53423e+07 0 
0 0 0 
-1.45826e+07 -2.11658e+06 0 
-2.11658e+06 -3.75239e+07 0 
0 0 0 
-2.90813e+07 4.6972e+06 0 
4.6972e+06 -4.69395e+07 0 
0 0 0 
-8.84162e+06 772219 0 
772219 -3.44638e+07 0 
0 0 0 
-3.65394e+06 -7.04885e+06 0 
-7.04885e+06 -2.97858e+07 0 
0 0 0 
-2.9668e+07 -7.22414e+06 0 
-7.22414e+06 -3.32908e+07 0 
0 0 0 
-1.2477e+06 585956 0 
585956 -1.76089e+07 0 
0 0 0 
-2.80022e+07 1.50016e+06 0 
1.50016e+06 -2.45667e+07 0 
0 0 0 
2.60345e+07 1.16384e+07 0 
1.16384e+07 -1.02783e+06 0 
0 0 0 
-1.38758e+07 1.5375e+06 0 
1.5375e+06 -2.25934e+07 0 
0 0 0 
5.50841e+06 -203174 0 
-203174 -2.79331e+07 0 
0 0 0 
-3.30238e+07 -6.63412e+06 0 
-6.63412e+06 -3.42456e+07 0 
0 0 0 
-6.57393e+06 -1.84212e+06 0 
-1.84212e+06 -2.23106e+07 0 
0 0 0 
-1.0995e+07 649820 0 
649820 -1.49545e+07 0 
0 0 0 
1.53105e+07 -1.07208e+07 0 
-1.07208e+07 2.37038e+06 0 
0 0 0 
1.11335e+06 -5.76168e+06 0 
-5.76168e+06 1.12696e+07 0 
0 0 0 
-5.59453e+06 -7.41104e+06 0 
-7.41104e+06 2.00025e+07 0 
0 0 0 
-7.16038e+06 1.04262e+06 0 
1.04262e+06 2.73735e+07 0 
0 0 0 
3.85688e+07 -4.35222e+06 0 
-4.35222e+06 6.47337e+07 0 
0 0 0 
4.78844e+06 3.47188e+06 0 
3.47188e+06 5.08641e+07 0 
0 0 0 
3.96051e+07 -1.28959e+06 0 
-1.28959e+06 7.79287e+07 0 
0 0 0 
2.88031e+07 2.02767e+06 0 
2.02767e+06 7.68501e+07 0 
0 0 0 
2.50536e+07 -6.48345e+06 0 
-6.48345e+06 6.06681e+07 0 
0 0 0 
8.92814e+06 -3.49289e+06 0 
-3.49289e+06 5.0406e+07 0 
0 0 0 
7.1033e+06 -2.908e+06 0 
-2.908e+06 3.95799e+07 0 
0 0 0 
9.89292e+06 -1.58392e+06 0 
-1.58392e+06 3.06971e+07 0 
0 0 0 
2.44023e+07 5.95294e+06 0 
5.95294e+06 4.16817e+07 0 
0 0 0 
1.79395e+07 -1.6887e+06 0 
-1.6887e+06 3.74745e+07 0 
0 0 0 
8.44852e+06 551469 0 
551469 1.83897e+07 0 
0 0 0 
-2.19191e+07 -3.05183e+06 0 
-3.05183e+06 -6.3755e+06 0 
0 0 0 
-1.49542e+07 -1.10206e+06 0 
-1.10206e+06 7.65317e+06 0 
0 0 0 
1.61169e+07 2.19978e+06 0 
2.19978e+06 3.00935e+07 0 
0 0 0 
3.73308e+07 -5.62408e+06 0 
-5.62408e+06 4.45691e+07 0 
0 0 0 
1.35613e+07 -583896 0 
-583896 5.54395e+07 0 
0 0 0 
2.12392e+07 1.74157e+06 0 
1.74157e+06 3.57219e+07 0 
0 0 0 
1.25491e+06 193279 0 
193279 7.95662e+06 0 
0 0 0 
5.36264e+06 1.83835e+06 0 
1.83835e+06 -4.40926e+06 0 
0 0 0 
-1.0667e+07 -1.26196e+07 0 
-1.26196e+07 -3.58579e+07 0 
0 0 0 
-2.27196e+07 627725 0 
627725 -4.85411e+07 0 
0 0 0 
-2.2463e+07 -8.15718e+06 0 
-8.15718e+06 -3.74978e+07 0 
0 0 0 
-2.07514e+07 1.04358e+06 0 
1.04358e+06 -3.22704e+07 0 
0 0 0 
-5.63204e+06 3.68644e+06 0 
3.68644e+06 -2.15322e+07 0 
0 0 0 
0 0 0 
0 0 0 
0 0 0 
-7.35619e+06 4.6265e+06 0 
4.6265e+06 -1.2262e+06 0 
0 0 0 
-1.41891e+07 2.23804e+06 0 
2.23804e+06 -3.42793e+07 0 
0 0 0 
1.18217e+07 7.20349e+06 0 
7.20349e+06 4.47475e+07 0 
0 0 0 
-9.91344e+06 -1.28608e+07 0 
-1.28608e+07 5.31279e+06 0 
0 0 0 
-1.70726e+07 -7.86164e+06 0 
-7.86164e+06 -1.48262e+07 0 
0 0 0 
-2.46618e+07 -1.89745e+06 0 
-1.89745e+06 -1.78895e+07 0 
0 0 0 
-5.23481e+07 1.02111e+07 0 
1.02111e+07 -6.61321e+07 0 
0 0 0 
-4.22482e+07 2.27624e+07 0 
2.27624e+07 8.26355e+06 0 
0 0 0 
-5.6812e+07 1.54931e+07 0 
1.54931e+07 -1.70328e+07 0 
0 0 0 
-6.63913e+07 5.92841e+06 0 
5.92841e+06 1.80538e+07 0 
0 0 0 
-1.11152e+08 8.77444e+06 0 
8.77444e+06 -5.67385e+07 0 
0 0 0 
-1.0362e+08 4.86109e+06 0 
4.86109e+06 -3.67262e+07 0 
0 0 0 
-1.11358e+08 9.348e+06 0 
9.348e+06 -4.76806e+07 0 
0 0 0 
-1.21602e+08 2.14725e+07 0 
2.14725e+07 -5.55928e+07 0 
0 0 0 
-1.21943e+08 8.24855e+06 0 
8.24855e+06 -3.67414e+07 0 
0 0 0 
-1.37418e+08 1.98351e+07 0 
1.98351e+07 -6.71012e+07 0 
0 0 0 
-1.34138e+08 2.33809e+07 0 
2.33809e+07 -1.21649e+07 0 
0 0 0 
-1.6752e+08 1.57964e+07 0 
1.57964e+07 -3.05294e+07 0 
0 0 0 
-2.10298e+08 -157591 0 
-157591 -8.09892e+07 0 
0 0 0 
-2.24836e+08 1.11129e+06 0 
1.11129e+06 -1.02406e+08 0 
0 0 0 
-1.82002e+08 1.18802e+06 0 
1.18802e+06 -8.85774e+07 0 
0 0 0 
-1.39068e+08 7.88562e+06 0 
7.88562e+06 -2.21936e+07 0 
0 0 0 
-1.39127e+08 464890 0 
464890 -1.92836e+07 0 
0 0 0 
-1.71653e+08 -5.50276e+06 0 
-5.50276e+06 -4.80609e+07 0 
0 0 0 
-2.07844e+08 -3.46706e+06 0 
-3.46706e+06 -8.23113e+07 0 
0 0 0 
-1.883e+08 -5.44007e+06 0 
-5.44007e+06 -8.31526e+07 0 
0 0 0 
-1.47109e+08 4.78875e+06 0 
4.78875e+06 -3.27895e+07 0 
0 0 0 
-1.41597e+08 -1.18471e+06 0 
-1.18471e+06 -4.18887e+07 0 
0 0 0 
-1.43663e+08 -9.02313e+06 0 
-9.02313e+06 -2.90112e+07 0 
0 0 0 
-1.34563e+08 -1.36504e+07 0 
-1.36504e+07 -5.11976e+07 0 
0 0 0 
-1.05085e+08 -2.37245e+07 0 
-2.37245e+07 1.39521e+06 0 
0 0 0 
-1.20825e+08 -2.83694e+07 0 
-2.83694e+07 -6.04522e+07 0 
0 0 0 
-9.52477e+07 -3.10987e+07 0 
-3.10987e+07 -4.51046e+07 0 
0 0 0 
-4.19563e+07 -2.51196e+07 0 
-2.51196e+07 -3.0183e+07 0 
0 0 0 
374198 -1.6276e+07 0 
-1.6276e+07 -7.95176e+06 0 
0 0 0 
3.84344e+07 -2.30393e+07 0 
-2.30393e+07 2.84137e+07 0 
0 0 0 
3.39337e+07 -2.07412e+07 0 
-2.07412e+07 4.72401e+06 0 
0 0 0 
2.76451e+07 -2.26359e+07 0 
-2.26359e+07 9.0833e+06 0 
0 0 0 
3.34726e+07 -9.93655e+06 0 
-9.93655e+06 -3.09434e+07 0 
0 0 0 
7.95544e+07 969052 0 
969052 6.02678e+07 0 
0 0 0 
6.8518e+07 3.65232e+06 0 
3.65232e+06 -1.22129e+07 0 
0 0 0 
1.01509e+08 5.0696e+06 0 
5.0696e+06 4.94613e+07 0 
0 0 0 
9.39523e+07 1.05645e+07 0 
1.05645e+07 -1.22942e+07 0 
0 0 0 
1.25817e+08 3.14852e+07 0 
3.14852e+07 3.39924e+07 0 
0 0 0 
1.4077e+08 2.72723e+07 0 
2.72723e+07 7.16198e+07 0 
0 0 0 
1.17951e+08 1.21924e+07 0 
1.21924e+07 6.48911e+07 0 
0 0 0 
1.01105e+08 1.07265e+07 0 
1.07265e+07 3.31754e+07 0 
0 0 0 
7.92093e+07 1.21136e+06 0 
1.21136e+06 6.88417e+06 0 
0 0 0 
4.78529e+07 2.0882e+07 0 
2.0882e+07 5.15604e+06 0 
0 0 0 
3.66861e+07 1.94432e+07 0 
1.94432e+07 1.22027e+07 0 
0 0 0 
4.6384e+07 6.14804e+06 0 
6.14804e+06 1.98426e+07 0 
0 0 0 
4.64565e+07 1.65887e+07 0 
1.65887e+07 3.22195e+07 0 
0 0 0 
3.75475e+07 8.33375e+06 0 
8.33375e+06 6.49893e+06 0 
0 0 0 
3.32029e+07 4.86912e+06 0 
4.86912e+06 2.06582e+07 0 
0 0 0 
4.14092e+06 6.94362e+06 0 
6.94362e+06 -7.93911e+06 0 
0 0 0 
1.10855e+06 1.09488e+07 0 
1.09488e+07 -1.19978e+07 0 
0 0 0 
6.09481e+06 5.76356e+06 0 
5.76356e+06 -1.87692e+06 0 
0 0 0 
4.6375e+06 1.68998e+07 0 
1.68998e+07 1.21211e+07 0 
0 0 0 
-7.25446e+06 6.95282e+06 0 
6.95282e+06 1.3008e+07 0 
0 0 0 
-8.26046e+06 -6.54645e+06 0 
-6.54645e+06 -1.37368e+06 0 
0 0 0 
-1.99063e+07 3.45069e+06 0 
3.45069e+06 -7.59477e+06 0 
0 0 0 
-1.06338e+07 -4.51817e+06 0 
-4.51817e+06 6.62563e+06 0 
0 0 0 
-5.79318e+06 -396456 0 
-396456 -1.75302e+07 0 
0 0 0 
627490 -848976 0 
-848976 2.1071e+07 0 
0 0 0 
-1.90776e+07 -3.45396e+06 0 
-3.45396e+06 -2.75409e+07 0 
0 0 0 
-2.15036e+07 4.56534e+06 0 
4.56534e+06 -1.5442e+07 0 
0 0 0 
-3.29795e+07 6.26223e+06 0 
6.26223e+06 -2.99608e+07 0 
0 0 0 
-3.59857e+06 7.31475e+06 0 
7.31475e+06 1.40262e+07 0 
0 0 0 
9.64242e+06 -2.75113e+06 0 
-2.75113e+06 1.90685e+07 0 
0 0 0 
-1.18237e+07 -2.74817e+06 0 
-2.74817e+06 -2.76234e+07 0 
0 0 0 
296560 1.27692e+07 0 
1.27692e+07 -8.87313e+06 0 
0 0 0 
2.60746e+07 4.13361e+06 0 
4.13361e+06 2.612e+07 0 
0 0 0 
3.39695e+07 -4.08703e+06 0 
-4.08703e+06 3.44866e+07 0 
0 0 0 
6.86548e+06 -1.02412e+07 0 
-1.02412e+07 8.63414e+06 0 
0 0 0 
-1.59261e+07 -6.38972e+06 0 
-6.38972e+06 -1.94814e+07 0 
0 0 0 
-2.85005e+07 3.60618e+06 0 
3.60618e+06 -4.71386e+07 0 
0 0 0 
-1.51113e+07 1.06994e+07 0 
1.06994e+07 2.53457e+06 0 
0 0 0 
4.83339e+06 8.90567e+06 0 
8.90567e+06 2.13004e+07 0 
0 0 0 
1.95698e+06 4.16871e+06 0 
4.16871e+06 1.23948e+07 0 
0 0 0 
-508895 683844 0 
683844 -8.49199e+06 0 
0 0 0 
5.27288e+06 1.14131e+07 0 
1.14131e+07 -1.19071e+07 0 
0 0 0 
1.90617e+07 7.1244e+06 0 
7.1244e+06 1.53972e+07 0 
0 0 0 
2.93168e+07 3.74604e+06 0 
3.74604e+06 2.49013e+07 0 
0 0 0 
5.41869e+06 -3.44258e+06 0 
-3.44258e+06 1.77616e+06 0 
0 0 0 
-8.31996e+06 -3.60648e+06 0 
-3.60648e+06 -1.13174e+07 0 
0 0 0 
-1.16745e+07 9.68652e+06 0 
9.68652e+06 -3.61666e+07 0 
0 0 0 
2.93392e+06 3.13374e+06 0 
3.13374e+06 3.0006e+07 0 
0 0 0 
-7.01278e+06 -8.48676e+06 0 
-8.48676e+06 -6.42542e+06 0 
0 0 0 
1.23319e+07 -6.33187e+06 0 
-6.33187e+06 1.70874e+07 0 
0 0 0 
-3.99692e+06 -5.73017e+06 0 
-5.73017e+06 -8.10471e+06 0 
0 0 0 
-7.7078e+06 -618740 0 
-618740 -299107 0 
0 0 0 
-1.40853e+07 3.98473e+06 0 
3.98473e+06 -1.99769e+07 0 
0 0 0 
-5.81843e+06 3.22646e+06 0 
3.22646e+06 2.07209e+07 0 
0 0 0 
-2.42206e+07 -5.13726e+06 0 
-5.13726e+06 -1.05296e+07 0 
0 0 0 
-1.95671e+07 -4.7288e+06 0 
-4.7288e+06 -2.00277e+07 0 
0 0 0 
0 0 0 
0 0 0 
0 0 0 
-1.94868e+06 741616 0 
741616 -1.11474e+06 0 
0 0 0 
-1.86975e+06 2.73835e+06 0 
2.73835e+06 -6.08914e+06 0 
0 0 0 
4.54359e+06 -3.40942e+06 0 
-3.40942e+06 -2.44099e+06 0 
0 0 0 
-1.09811e+07 1.22769e+06 0 
1.22769e+06 -3.70258e+06 0 
0 0 0 
8.54271e+06 1.48141e+06 0 
1.48141e+06 -2.24888e+06 0 
0 0 0 
-1.1568e+07 567806 0 
567806 -1.51004e+07 0 
0 0 0 
-389781 8087.72 0 
8087.72 -1.50791e+07 0 
0 0 0 
-2.20028e+06 -3.34718e+06 0 
-3.34718e+06 -1.49655e+07 0 
0 0 0 
-6.844e+06 -4.08818e+06 0 
-4.08818e+06 -1.31883e+07 0 
0 0 0 
-5.31485e+06 -1.38901e+06 0 
-1.38901e+06 -1.15619e+07 0 
0 0 0 
3.4276e+06 -4.36937e+06 0 
-4.36937e+06 -8.14375e+06 0 
0 0 0 
-1.80884e+07 630477 0 
630477 -1.98141e+07 0 
0 0 0 
1.84883e+07 -9.89267e+06 0 
-9.89267e+06 288255 0 
0 0 0 
-1.30499e+07 -4.86042e+06 0 
-4.86042e+06 -750514 0 
0 0 0 
8.70393e+06 -8.13305e+06 0 
-8.13305e+06 1.32023e+07 0 
0 0 0 
2.93218e+06 -3.02359e+06 0 
-3.02359e+06 2.04311e+07 0 
0 0 0 
-2.21822e+06 396618 0 
396618 1.48754e+07 0 
0 0 0 
-6.88518e+06 8.41501e+06 0 
8.41501e+06 4.92928e+06 0 
0 0 0 
-2.15559e+06 1.29908e+07 0 
1.29908e+07 -1.45877e+07 0 
0 0 0 
6.22082e+06 -281755 0 
-281755 -2.00184e+07 0 
0 0 0 
-5.0669e+06 -5.01787e+06 0 
-5.01787e+06 -1.19104e+07 0 
0 0 0 
6.30807e+06 -6.97138e+06 0 
-6.97138e+06 5.68987e+06 0 
0 0 0 
-550379 -4.79774e+06 0 
-4.79774e+06 1.31621e+07 0 
0 0 0 
-5.05861e+06 408070 0 
408070 1.70998e+07 0 
0 0 0 
6.08812e+06 1.08843e+07 0 
1.08843e+07 5.98915e+06 0 
0 0 0 
-9.40594e+06 3.73265e+06 0 
3.73265e+06 -1.7088e+07 0 
0 0 0 
6.34025e+06 1.5879e+06 0 
1.5879e+06 -1.30658e+07 0 
0 0 0 
-3.63019e+06 -5.62546e+06 0 
-5.62546e+06 -1.06153e+07 0 
0 0 0 
5.98255e+06 -7.66838e+06 0 
-7.66838e+06 8.8776e+06 0 
0 0 0 
981532 -2.00436e+06 0 
-2.00436e+06 9.38524e+06 0 
0 0 0 
9.5457e+06 -8.0031e+06 0 
-8.0031e+06 9.28524e+06 0 
0 0 0 
-1.20993e+07 -3.11745e+06 0 
-3.11745e+06 4.06907e+06 0 
0 0 0 
2.47984e+06 3.16322e+06 0 
3.16322e+06 -2.40896e+06 0 
0 0 0 
-6.57625e+06 -1.23552e+06 0 
-1.23552e+06 -1.34078e+07 0 
0 0 0 
9.01433e+06 -5.14135e+06 0 
-5.14135e+06 -4.22759e+06 0 
0 0 0 
-1.08822e+07 -5.83805e+06 0 
-5.83805e+06 -4.62602e+06 0 
0 0 0 
7.39583e+06 -5.19243e+06 0 
-5.19243e+06 1.16362e+07 0 
0 0 0 
-1.18877e+06 -1.70528e+06 0 
-1.70528e+06 1.59123e+07 0 
0 0 0 
3.28684e+06 2.35626e+06 0 
2.35626e+06 1.4562e+07 0 
0 0 0 
9.65455e+06 863836 0 
863836 9.29697e+06 0 
0 0 0 
1.6883e+06 -3.09777e+06 0 
-3.09777e+06 -328057 0 
0 0 0 
54906.2 -6.73907e+06 0 
-6.73907e+06 2.13652e+06 0 
0 0 0 
-1.26811e+07 2.75329e+06 0 
2.75329e+06 -4.94399e+06 0 
0 0 0 
2.85101e+06 991709 0 
991709 -6.17057e+06 0 
0 0 0 
-1.32107e+07 5.70987e+06 0 
5.70987e+06 -1.79879e+07 0 
0 0 0 
2.07718e+06 1.11969e+06 0 
1.11969e+06 -1.9441e+07 0 
0 0 0 
1.28855e+06 -4.62231e+06 0 
-4.62231e+06 -1.56075e+07 0 
0 0 0 
-2.36195e+06 -1.09519e+07 0 
-1.09519e+07 -613193 0 
0 0 0 
4.87734e+06 -5.9087e+06 0 
-5.9087e+06 2.01199e+07 0 
0 0 0 
523574 -1.51421e+06 0 
-1.51421e+06 2.42624e+07 0 
0 0 0 
6.77147e+06 1.53837e+06 0 
1.53837e+06 3.15434e+07 0 
0 0 0 
1.36834e+07 4.12963e+06 0 
4.12963e+06 3.61699e+07 0 
0 0 0 
2.57223e+07 -3.20747e+06 0 
-3.20747e+06 4.28192e+07 0 
0 0 0 
1.10164e+07 -6.43216e+06 0 
-6.43216e+06 4.76655e+07 0 
0 0 0 
2.05719e+07 -1.30279e+06 0 
-1.30279e+06 4.71785e+07 0 
0 0 0 
8.53204e+06 -5.66298e+06 0 
-5.66298e+06 3.38567e+07 0 
0 0 0 
7.19539e+06 -3.25499e+06 0 
-3.25499e+06 3.20806e+07 0 
0 0 0 
3.90638e+06 1.95383e+06 0 
1.95383e+06 2.11662e+07 0 
0 0 0 
1.61426e+07 -7.76694e+06 0 
-7.76694e+06 3.00214e+07 0 
0 0 0 
-7.88341e+06 3.7252e+06 0 
3.7252e+06 2.97035e+07 0 
0 0 0 
2.4284e+07 3.21156e+06 0 
3.21156e+06 3.38261e+07 0 
0 0 0 
-5.14005e+06 3.84855e+06 0 
3.84855e+06 1.94898e+07 0 
0 0 0 
1.6981e+07 5.53841e+06 0 
5.53841e+06 1.23891e+07 0 
0 0 0 
-3.58437e+06 -2.87101e+06 0 
-2.87101e+06 -3.46905e+06 0 
0 0 0 
3.62661e+06 -3.80209e+06 0 
-3.80209e+06 3.32849e+06 0 
0 0 0 
-9.90127e+06 1.33594e+06 0 
1.33594e+06 -2.58967e+06 0 
0 0 0 
4.22976e+06 -834441 0 
-834441 4.92785e+06 0 
0 0 0 
-1.06319e+07 9.64772e+06 0 
9.64772e+06 -8.42872e+06 0 
0 0 0 
7.35447e+06 -1.85736e+06 0 
-1.85736e+06 -5.04543e+06 0 
0 0 0 
-7.20859e+06 6.11186e+06 0 
6.11186e+06 -1.04093e+07 0 
0 0 0 
-110252 -4.16577e+06 0 
-4.16577e+06 -6.83321e+06 0 
0 0 0 
-1.87339e+07 1.13103e+07 0 
1.13103e+07 -1.21373e+07 0 
0 0 0 
1.29483e+07 3.1136e+06 0 
3.1136e+06 -9.77605e+06 0 
0 0 0 
-2.29249e+07 7.31149e+06 0 
7.31149e+06 -2.19603e+07 0 
0 0 0 
3.1961e+06 1.02759e+07 0 
1.02759e+07 -3.20746e+07 0 
0 0 0 
-1.29105e+07 -2.65736e+06 0 
-2.65736e+06 -4.41455e+07 0 
0 0 0 
-1.30585e+07 -2.28185e+06 0 
-2.28185e+06 -3.34951e+07 0 
0 0 0 
-8.18922e+06 -801166 0 
-801166 -2.4651e+07 0 
0 0 0 
-7.59535e+06 -1.39976e+06 0 
-1.39976e+06 -1.60284e+07 0 
0 0 0 
-4.47403e+06 1.58296e+06 0 
1.58296e+06 -6.5121e+06 0 
0 0 0 
4.97622e+06 4.65476e+06 0 
4.65476e+06 -1.44631e+07 0 
0 0 0 
-7.89445e+06 -7.74157e+06 0 
-7.74157e+06 -2.25224e+07 0 
0 0 0 
967209 -5.77907e+06 0 
-5.77907e+06 -9.17409e+06 0 
0 0 0 
-1.77667e+07 -4.20544e+06 0 
-4.20544e+06 -7.42823e+06 0 
0 0 0 
-621033 7.51915e+06 0 
7.51915e+06 -4.05588e+06 0 
0 0 0 
-8.37248e+06 3.31163e+06 0 
3.31163e+06 -1.11172e+07 0 
0 0 0 
6.69354e+06 6.61258e+06 0 
6.61258e+06 -1.03736e+07 0 
0 0 0 
-3.6616e+06 -2.09334e+06 0 
-2.09334e+06 -2.42021e+07 0 
0 0 0 
-4.30649e+06 -8.06417e+06 0 
-8.06417e+06 -1.63076e+07 0 
0 0 0 
-2.06416e+06 -4.64522e+06 0 
-4.64522e+06 -8.71547e+06 0 
0 0 0 
1.17735e+06 -8.51234e+06 0 
-8.51234e+06 -6.22441e+06 0 
0 0 0 
2.48215e+06 -1.43033e+07 0 
-1.43033e+07 1.58899e+07 0 
0 0 0 
9.05562e+06 -3.53284e+06 0 
-3.53284e+06 2.8184e+07 0 
0 0 0 
-3.40031e+06 -3.50928e+06 0 
-3.50928e+06 1.6744e+07 0 
0 0 0 
1.82394e+07 -2.38725e+06 0 
-2.38725e+06 1.87325e+07 0 
0 0 0 
-2.068e+07 3.34723e+06 0 
3.34723e+06 -1.1131e+07 0 
0 0 0 
-1.6433e+07 -1.54491e+06 0 
-1.54491e+06 -3.97606e+06 0 
0 0 0 
0 0 0 
0 0 0 
0 0 0 
-1.52473e+06 47798.8 0 
47798.8 1.06429e+06 0 
0 0 0 
-2.20894e+07 9.10576e+06 0 
9.10576e+06 -2.50099e+07 0 
0 0 0 
-2.69316e+07 6.3981e+06 0 
6.3981e+06 1.2839e+07 0 
0 0 0 
-2.71582e+07 -1.10175e+07 0 
-1.10175e+07 -5.06772e+06 0 
0 0 0 
-5.8335e+06 -9.35598e+06 0 
-9.35598e+06 -6.30965e+06 0 
0 0 0 
1.1055e+07 -6.252e+06 0 
-6.252e+06 2.95274e+06 0 
0 0 0 
2.96691e+06 6.62853e+06 0 
6.62853e+06 -2.32293e+07 0 
0 0 0 
-1.14049e+07 1.66492e+07 0 
1.66492e+07 9.35621e+06 0 
0 0 0 
-5.04936e+07 6.93985e+06 0 
6.93985e+06 -1.43236e+07 0 
0 0 0 
-4.83719e+07 -6.88242e+06 0 
-6.88242e+06 -1.07277e+06 0 
0 0 0 
-5.25076e+07 -5.75626e+06 0 
-5.75626e+06 -2.1413e+07 0 
0 0 0 
-6.87205e+07 224856 0 
224856 -3.51262e+07 0 
0 0 0 
-7.32902e+07 988914 0 
988914 -1.41318e+07 0 
0 0 0 
-1.07096e+08 7.00135e+06 0 
7.00135e+06 -5.20724e+07 0 
0 0 0 
-1.30859e+08 1.16756e+07 0 
1.16756e+07 -4.43587e+07 0 
0 0 0 
-1.54051e+08 1.00623e+07 0 
1.00623e+07 -4.44298e+07 0 
0 0 0 
-1.68209e+08 -171035 0 
-171035 -4.59395e+07 0 
0 0 0 
-1.73054e+08 -6.29071e+06 0 
-6.29071e+06 -5.02909e+07 0 
0 0 0 
-1.74285e+08 -8.2587e+06 0 
-8.2587e+06 -6.83057e+07 0 
0 0 0 
-1.76524e+08 6.39891e+06 0 
6.39891e+06 -7.23589e+07 0 
0 0 0 
-2.10393e+08 2.23427e+07 0 
2.23427e+07 -8.27954e+07 0 
0 0 0 
-2.32425e+08 1.56644e+07 0 
1.56644e+07 -6.34722e+07 0 
0 0 0 
-2.38764e+08 2.02507e+06 0 
2.02507e+06 -5.99726e+07 0 
0 0 0 
-2.22278e+08 -1.27245e+07 0 
-1.27245e+07 -8.03042e+07 0 
0 0 0 
-1.95329e+08 -148717 0 
-148717 -6.20673e+07 0 
0 0 0 
-1.97707e+08 -797629 0 
-797629 -7.7952e+07 0 
0 0 0 
-1.90481e+08 5.18042e+06 0 
5.18042e+06 -5.0242e+07 0 
0 0 0 
-1.96021e+08 -5.23284e+06 0 
-5.23284e+06 -6.89123e+07 0 
0 0 0 
-1.716e+08 -6.46322e+06 0 
-6.46322e+06 -4.73206e+07 0 
0 0 0 
-1.51063e+08 -1.30452e+07 0 
-1.30452e+07 -4.80971e+07 0 
0 0 0 
-1.04951e+08 -2.08385e+07 0 
-2.08385e+07 -2.90172e+07 0 
0 0 0 
-5.4624e+07 -1.96263e+07 0 
-1.96263e+07 -2.31041e+07 0 
0 0 0 
-1.31089e+07 -1.08673e+07 0 
-1.08673e+07 -1.87536e+07 0 
0 0 0 
1.89447e+07 -2.12551e+06 0 
-2.12551e+06 9.86821e+06 0 
0 0 0 
4.22284e+07 -6.82785e+06 0 
-6.82785e+06 8.68653e+06 0 
0 0 0 
7.70969e+07 -2.5629e+06 0 
-2.5629e+06 2.78064e+07 0 
0 0 0 
1.14339e+08 -8.55303e+06 0 
-8.55303e+06 3.61796e+07 0 
0 0 0 
1.5259e+08 -1.68278e+06 0 
-1.68278e+06 4.81137e+07 0 
0 0 0 
1.66907e+08 4.083e+06 0 
4.083e+06 4.60414e+07 0 
0 0 0 
1.76421e+08 6.07726e+06 0 
6.07726e+06 7.06112e+07 0 
0 0 0 
1.70462e+08 -233162 0 
-233162 5.2511e+07 0 
0 0 0 
1.75659e+08 3.49766e+06 0 
3.49766e+06 5.4423e+07 0 
0 0 0 
1.62734e+08 1.36201e+07 0 
1.36201e+07 3.93219e+07 0 
0 0 0 
1.33289e+08 2.24637e+07 0 
2.24637e+07 5.00824e+07 0 
0 0 0 
9.28607e+07 1.44577e+07 0 
1.44577e+07 3.10495e+07 0 
0 0 0 
8.15437e+07 7.57134e+06 0 
7.57134e+06 3.85166e+07 0 
0 0 0 
6.16105e+07 5.09099e+06 0 
5.09099e+06 2.11726e+07 0 
0 0 0 
6.41985e+07 -2.11173e+06 0 
-2.11173e+06 1.34981e+07 0 
0 0 0 
7.6752e+07 9.13556e+06 0 
9.13556e+06 2.46374e+07 0 
0 0 0 
5.42747e+07 1.31747e+07 0 
1.31747e+07 1.3037e+07 0 
0 0 0 
3.86326e+07 1.12384e+07 0 
1.12384e+07 1.43999e+07 0 
0 0 0 
2.84813e+07 7.99909e+06 0 
7.99909e+06 1.97911e+07 0 
0 0 0 
5.67782e+06 5.39842e+06 0 
5.39842e+06 -2.18718e+06 0 
0 0 0 
1.38132e+07 -2.63878e+06 0 
-2.63878e+06 1.0264e+07 0 
0 0 0 
2.03113e+07 2.5641e+06 0 
2.5641e+06 708614 0 
0 0 0 
8.92752e+06 9.26585e+06 0 
9.26585e+06 -3.49012e+06 0 
0 0 0 
-3.02584e+06 1.09167e+07 0 
1.09167e+07 -2.65806e+06 0 
0 0 0 
-1.4614e+07 1.01035e+07 0 
1.01035e+07 3.4453e+06 0 
0 0 0 
-2.59578e+07 1.44964e+06 0 
1.44964e+06 -3.40782e+06 0 
0 0 0 
-2.12675e+07 -1.84175e+06 0 
-1.84175e+06 -1.06961e+07 0 
0 0 0 
-1.25923e+07 2.36224e+06 0 
2.36224e+06 -4.59415e+06 0 
0 0 0 
-9.49508e+06 -1.86585e+06 0 
-1.86585e+06 8.67642e+06 0 
0 0 0 
-9.24776e+06 -5.49062e+06 0 
-5.49062e+06 -1.54101e+07 0 
0 0 0 
6.9614e+06 -71354.7 0 
-71354.7 1.03908e+07 0 
0 0 0 
7.74758e+06 -3.95299e+06 0 
-3.95299e+06 -3.48187e+06 0 
0 0 0 
1.02189e+07 5.06411e+06 0 
5.06411e+06 -4.17751e+06 0 
0 0 0 
1.19141e+07 4.74077e+06 0 
4.74077e+06 5.62527e+06 0 
0 0 0 
1.87643e+06 9.63883e+06 0 
9.63883e+06 -1.98244e+06 0 
0 0 0 
1.07353e+06 1.69794e+06 0 
1.69794e+06 7.90747e+06 0 
0 0 0 
6.83336e+06 2.38112e+06 0 
2.38112e+06 -5.78879e+06 0 
0 0 0 
-3.72967e+06 1.44377e+07 0 
1.44377e+07 -6.37504e+06 0 
0 0 0 
-2.03476e+07 8.69484e+06 0 
8.69484e+06 3.86259e+06 0 
0 0 0 
-1.77099e+07 -3.01851e+06 0 
-3.01851e+06 247471 0 
0 0 0 
6.55691e+06 -7.8381e+06 0 
-7.8381e+06 3.47434e+06 0 
0 0 0 
2.5399e+07 -3.41896e+06 0 
-3.41896e+06 5.34239e+06 0 
0 0 0 
2.23999e+07 6.34471e+06 0 
6.34471e+06 -9.97399e+06 0 
0 0 0 
2.51126e+07 9.80856e+06 0 
9.80856e+06 1.9384e+07 0 
0 0 0 
8.24176e+06 5.06756e+06 0 
5.06756e+06 6.47366e+06 0 
0 0 0 
5.71997e+06 -3.12797e+06 0 
-3.12797e+06 7.51218e+06 0 
0 0 0 
1.66242e+06 -306583 0 
-306583 -2.91927e+06 0 
0 0 0 
-8.94589e+06 2.17607e+06 0 
2.17607e+06 -7.843e+06 0 
0 0 0 
-1.65702e+07 2.55344e+06 0 
2.55344e+06 1.15932e+06 0 
0 0 0 
-2.53839e+07 -2.69238e+06 0 
-2.69238e+06 -9.72036e+06 0 
0 0 0 
-1.63298e+07 -4.67747e+06 0 
-4.67747e+06 -2.5723e+06 0 
0 0 0 
-4.13307e+06 -6.07617e+06 0 
-6.07617e+06 -2.63241e+06 0 
0 0 0 
-7.45476e+06 3.79238e+06 0 
3.79238e+06 -1.40962e+07 0 
0 0 0 
-1.0977e+06 1.08376e+06 0 
1.08376e+06 5.17811e+06 0 
0 0 0 
-1.94678e+06 4.60429e+06 0 
4.60429e+06 -5.46701e+06 0 
0 0 0 
2.16341e+06 121734 0 
121734 1.06924e+07 0 
0 0 0 
7.6856e+06 -4.14506e+06 0 
-4.14506e+06 -237916 0 
0 0 0 
1.54298e+07 -1.03415e+06 0 
-1.03415e+06 6.94661e+06 0 
0 0 0 
5.64921e+06 1.57984e+06 0 
1.57984e+06 -2.90699e+06 0 
0 0 0 
8.42178e+06 -4.14202e+06 0 
-4.14202e+06 1.44831e+07 0 
0 0 0 
8.81282e+06 -6.48218e+06 0 
-6.48218e+06 -4.88219e+06 0 
0 0 0 
7.39381e+06 2.32961e+06 0 
2.32961e+06 -2.52247e+06 0 
0 0 0 
5.34533e+06 -600761 0 
-600761 5.74101e+06 0 
0 0 0 
0 0 0 
0 0 0 
0 0 0 
0 0 0 
0 0 0 
0 0 0 
0 0 0 
0 0 0 
0 0 0 
0 0 0 
0 0 0 
0 0 0 
0 0 0 
0 0 0 
0 0 0 
0 0 0 
0 0 0 
0 0 0 
0 0 0 
0 0 0 
0 0 0 
0 0 0 
0 0 0 
0 0 0 
0 0 0 
0 0 0 
0 0 0 
0 0 0 
0 0 0 
0 0 0 
0 0 0 
0 0 0 
0 0 0 
0 0 0 
0 0 0 
0 0 0 
0 0 0 
0 0 0 
0 0 0 
0 0 0 
0 0 0 
0 0 0 
0 0 0 
0 0 0 
0 0 0 
0 0 0 
0 0 0 
0 0 0 
0 0 0 
0 0 0 
0 0 0 
0 0 0 
0 0 0 
0 0 0 
0 0 0 
0 0 0 
0 0 0 
0 0 0 
0 0 0 
0 0 0 
0 0 0 
0 0 0 
0 0 0 
0 0 0 
0 0 0 
0 0 0 
0 0 0 
0 0 0 
0 0 0 
0 0 0 
0 0 0 
0 0 0 
0 0 0 
0 0 0 
0 0 0 
0 0 0 
0 0 0 
0 0 0 
0 0 0 
0 0 0 
0 0 0 
0 0 0 
0 0 0 
0 0 0 
0 0 0 
0 0 0 
0 0 0 
0 0 0 
0 0 0 
0 0 0 
0 0 0 
0 0 0 
0 0 0 
0 0 0 
0 0 0 
0 0 0 
0 0 0 
0 0 0 
0 0 0 
0 0 0 
0 0 0 
0 0 0 
0 0 0 
0 0 0 
0 0 0 
0 0 0 
0 0 0 
0 0 0 
0 0 0 
0 0 0 
0 0 0 
0 0 0 
0 0 0 
0 0 0 
0 0 0 
0 0 0 
0 0 0 
0 0 0 
0 0 0 
0 0 0 
0 0 0 
0 0 0 
0 0 0 
0 0 0 
0 0 0 
0 0 0 
0 0 0 
0 0 0 
0 0 0 
0 0 0 
0 0 0 
0 0 0 
0 0 0 
0 0 0 
0 0 0 
0 0 0 
0 0 0 
0 0 0 
0 0 0 
0 0 0 
0 0 0 
0 0 0 
0 0 0 
0 0 0 
0 0 0 
0 0 0 
0 0 0 
0 0 0 
0 0 0 
0 0 0 
0 0 0 
0 0 0 
0 0 0 
0 0 0 
0 0 0 
0 0 0 
0 0 0 
0 0 0 
0 0 0 
0 0 0 
0 0 0 
0 0 0 
0 0 0 
0 0 0 
0 0 0 
0 0 0 
0 0 0 
0 0 0 
0 0 0 
0 0 0 
0 0 0 
0 0 0 
0 0 0 
0 0 0 
0 0 0 
0 0 0 
0 0 0 
0 0 0 
0 0 0 
0 0 0 
0 0 0 
0 0 0 
0 0 0 
0 0 0 
0 0 0 
0 0 0 
0 0 0 
0 0 0 
0 0 0 
0 0 0 
0 0 0 
0 0 0 
0 0 0 
0 0 0 
0 0 0 
0 0 0 
0 0 0 
0 0 0 
0 0 0 
0 0 0 
0 0 0 
0 0 0 
0 0 0 
0 0 0 
0 0 0 
0 0 0 
0 0 0 
0 0 0 
0 0 0 
0 0 0 
0 0 0 
0 0 0 
0 0 0 
0 0 0 
0 0 0 
0 0 0 
0 0 0 
0 0 0 
0 0 0 
0 0 0 
0 0 0 
0 0 0 
0 0 0 
0 0 0 
0 0 0 
0 0 0 
0 0 0 
0 0 0 
0 0 0 
0 0 0 
0 0 0 
0 0 0 
0 0 0 
0 0 0 
0 0 0 
0 0 0 
0 0 0 
0 0 0 
0 0 0 
0 0 0 
0 0 0 
0 0 0 
0 0 0 
0 0 0 
0 0 0 
0 0 0 
0 0 0 
0 0 0 
0 0 0 
0 0 0 
0 0 0 
0 0 0 
0 0 0 
0 0 0 
0 0 0 
0 0 0 
0 0 0 
0 0 0 
0 0 0 
0 0 0 
0 0 0 
0 0 0 
0 0 0 
0 0 0 
0 0 0 
0 0 0 
0 0 0 
0 0 0 
0 0 0 
0 0 0 
0 0 0 
0 0 0 
0 0 0 
0 0 0 
0 0 0 
0 0 0 
0 0 0 
0 0 0 
0 0 0 
0 0 0 
0 0 0 
0 0 0 
0 0 0 
0 0 0 
0 0 0 
0 0 0 
0 0 0 
0 0 0 
0 0 0 
0 0 0 
0 0 0 
2.24326e+06 295844 0 
295844 -1.23701e+06 0 
0 0 0 
0 0 0 
0 0 0 
0 0 0 
0 0 0 
0 0 0 
0 0 0 
0 0 0 
0 0 0 
0 0 0 
0 0 0 
0 0 0 
0 0 0 
0 0 0 
0 0 0 
0 0 0 
0 0 0 
0 0 0 
0 0 0 
0 0 0 
0 0 0 
0 0 0 
0 0 0 
0 0 0 
0 0 0 
0 0 0 
0 0 0 
0 0 0 
0 0 0 
0 0 0 
0 0 0 
0 0 0 
0 0 0 
0 0 0 
0 0 0 
0 0 0 
0 0 0 
0 0 0 
0 0 0 
0 0 0 
0 0 0 
0 0 0 
0 0 0 
0 0 0 
0 0 0 
0 0 0 
0 0 0 
0 0 0 
0 0 0 
0 0 0 
0 0 0 
0 0 0 
0 0 0 
0 0 0 
0 0 0 
0 0 0 
0 0 0 
0 0 0 
0 0 0 
0 0 0 
0 0 0 
0 0 0 
0 0 0 
0 0 0 
0 0 0 
0 0 0 
0 0 0 
0 0 0 
0 0 0 
0 0 0 
0 0 0 
0 0 0 
0 0 0 
0 0 0 
0 0 0 
0 0 0 
0 0 0 
0 0 0 
0 0 0 
0 0 0 
0 0 0 
0 0 0 
0 0 0 
0 0 0 
0 0 0 
0 0 0 
0 0 0 
0 0 0 
0 0 0 
0 0 0 
0 0 0 
0 0 0 
0 0 0 
0 0 0 
0 0 0 
0 0 0 
0 0 0 
0 0 0 
0 0 0 
0 0 0 
0 0 0 
0 0 0 
0 0 0 
0 0 0 
0 0 0 
0 0 0 
0 0 0 
0 0 0 
0 0 0 
0 0 0 
0 0 0 
0 0 0 
0 0 0 
0 0 0 
0 0 0 
0 0 0 
0 0 0 
0 0 0 
0 0 0 
0 0 0 
0 0 0 
0 0 0 
0 0 0 
0 0 0 
0 0 0 
0 0 0 
0 0 0 
0 0 0 
0 0 0 
0 0 0 
0 0 0 
0 0 0 
0 0 0 
0 0 0 
0 0 0 
0 0 0 
0 0 0 
0 0 0 
0 0 0 
0 0 0 
0 0 0 
0 0 0 
0 0 0 
0 0 0 
0 0 0 
0 0 0 
0 0 0 
0 0 0 
0 0 0 
0 0 0 
0 0 0 
0 0 0 
0 0 0 
0 0 0 
0 0 0 
0 0 0 
0 0 0 
0 0 0 
0 0 0 
0 0 0 
0 0 0 
0 0 0 
0 0 0 
0 0 0 
0 0 0 
0 0 0 
0 0 0 
0 0 0 
0 0 0 
0 0 0 
0 0 0 
0 0 0 
0 0 0 
0 0 0 
0 0 0 
0 0 0 
0 0 0 
0 0 0 
0 0 0 
0 0 0 
0 0 0 
0 0 0 
0 0 0 
0 0 0 
0 0 0 
0 0 0 
0 0 0 
0 0 0 
0 0 0 
0 0 0 
0 0 0 
0 0 0 
0 0 0 
0 0 0 
0 0 0 
0 0 0 
0 0 0 
0 0 0 
0 0 0 
0 0 0 
0 0 0 
0 0 0 
0 0 0 
0 0 0 
0 0 0 
0 0 0 
0 0 0 
0 0 0 
0 0 0 
0 0 0 
0 0 0 
0 0 0 
0 0 0 
0 0 0 
0 0 0 
0 0 0 
0 0 0 
0 0 0 
0 0 0 
0 0 0 
0 0 0 
0 0 0 
0 0 0 
0 0 0 
0 0 0 
0 0 0 
0 0 0 
0 0 0 
0 0 0 
0 0 0 
0 0 0 
0 0 0 
0 0 0 
0 0 0 
0 0 0 
0 0 0 
0 0 0 
0 0 0 
0 0 0 
0 0 0 
0 0 0 
0 0 0 
0 0 0 
0 0 0 
0 0 0 
0 0 0 
0 0 0 
0 0 0 
0 0 0 
0 0 0 
0 0 0 
0 0 0 
0 0 0 
0 0 0 
0 0 0 
0 0 0 
0 0 0 
0 0 0 
0 0 0 
0 0 0 
0 0 0 
0 0 0 
0 0 0 
0 0 0 
0 0 0 
0 0 0 
0 0 0 
0 0 0 
0 0 0 
0 0 0 
0 0 0 
0 0 0 
0 0 0 
0 0 0 
0 0 0 
0 0 0 
0 0 0 
0 0 0 
0 0 0 
0 0 0 
0 0 0 
0 0 0 
0 0 0 
0 0 0 
0 0 0 
0 0 0 
0 0 0 
0 0 0 
0 0 0 
0 0 0 
0 0 0 
0 0 0 
0 0 0 
0 0 0 
0 0 0 
0 0 0 
0 0 0 
0 0 0 
0 0 0 
0 0 0 
0 0 0 
0 0 0 
0 0 0 
0 0 0 
0 0 0 
0 0 0 
0 0 0 
0 0 0 
0 0 0 
0 0 0 
0 0 0 
0 0 0 
0 0 0 
0 0 0 
0 0 0 
0 0 0 
0 0 0 
0 0 0 
0 0 0 
0 0 0 
0 0 0 
0 0 0 
0 0 0 
0 0 0 
0 0 0 
0 0 0 
0 0 0 
0 0 0 
0 0 0 
0 0 0 
0 0 0 
0 0 0 
0 0 0 
0 0 0 
0 0 0 
0 0 0 
0 0 0 
0 0 0 
0 0 0 
0 0 0 
0 0 0 
0 0 0 
0 0 0 
0 0 0 
0 0 0 
0 0 0 
0 0 0 
0 0 0 
0 0 0 
0 0 0 
0 0 0 
0 0 0 
0 0 0 
0 0 0 
0 0 0 
0 0 0 
0 0 0 
0 0 0 
0 0 0 
0 0 0 
0 0 0 
0 0 0 
0 0 0 
0 0 0 
0 0 0 
0 0 0 
0 0 0 
0 0 0 
0 0 0 
0 0 0 
0 0 0 
0 0 0 
0 0 0 
0 0 0 
0 0 0 
0 0 0 
0 0 0 
0 0 0 
0 0 0 
0 0 0 
0 0 0 
0 0 0 
0 0 0 
0 0 0 
0 0 0 
0 0 0 
0 0 0 
0 0 0 
0 0 0 
0 0 0 
0 0 0 
0 0 0 
0 0 0 
0 0 0 
0 0 0 
0 0 0 
0 0 0 
0 0 0 
0 0 0 
0 0 0 
0 0 0 
0 0 0 
0 0 0 
0 0 0 
0 0 0 
0 0 0 
0 0 0 
0 0 0 
0 0 0 
0 0 0 
0 0 0 
0 0 0 
0 0 0 
0 0 0 
0 0 0 
0 0 0 
0 0 0 
0 0 0 
0 0 0 
0 0 0 
0 0 0 
0 0 0 
0 0 0 
0 0 0 
0 0 0 
0 0 0 
0 0 0 
0 0 0 
0 0 0 
0 0 0 
0 0 0 
0 0 0 
0 0 0 
0 0 0 
0 0 0 
0 0 0 
0 0 0 
0 0 0 
0 0 0 
0 0 0 
0 0 0 
0 0 0 
0 0 0 
0 0 0 
0 0 0 
0 0 0 
0 0 0 
0 0 0 
0 0 0 
0 0 0 
0 0 0 
0 0 0 
0 0 0 
0 0 0 
0 0 0 
0 0 0 
0 0 0 
0 0 0 
0 0 0 
0 0 0 
0 0 0 
0 0 0 
0 0 0 
0 0 0 
0 0 0 
0 0 0 
0 0 0 
0 0 0 
0 0 0 
0 0 0 
0 0 0 
0 0 0 
0 0 0 
0 0 0 
0 0 0 
0 0 0 
0 0 0 
0 0 0 
0 0 0 
0 0 0 
0 0 0 
0 0 0 
0 0 0 
0 0 0 
0 0 0 
0 0 0 
0 0 0 
0 0 0 
0 0 0 
0 0 0 
0 0 0 
0 0 0 
0 0 0 
0 0 0 
0 0 0 
0 0 0 
0 0 0 
0 0 0 
0 0 0 
0 0 0 
0 0 0 
0 0 0 
0 0 0 
0 0 0 
0 0 0 
0 0 0 
0 0 0 
0 0 0 
0 0 0 
0 0 0 
0 0 0 
0 0 0 
0 0 0 
0 0 0 
0 0 0 
0 0 0 
0 0 0 
0 0 0 
0 0 0 
0 0 0 
0 0 0 
0 0 0 
0 0 0 
0 0 0 
0 0 0 
0 0 0 
0 0 0 
0 0 0 
0 0 0 
0 0 0 
0 0 0 
0 0 0 
0 0 0 
0 0 0 
0 0 0 
0 0 0 
0 0 0 
0 0 0 
0 0 0 
0 0 0 
0 0 0 
0 0 0 
0 0 0 
0 0 0 
0 0 0 
0 0 0 
0 0 0 
0 0 0 
0 0 0 
0 0 0 
0 0 0 
0 0 0 
0 0 0 
0 0 0 
0 0 0 
0 0 0 
0 0 0 
0 0 0 
0 0 0 
0 0 0 
0 0 0 
0 0 0 
0 0 0 
0 0 0 
0 0 0 
0 0 0 
0 0 0 
0 0 0 
0 0 0 
0 0 0 
0 0 0 
0 0 0 
0 0 0 
0 0 0 
0 0 0 
0 0 0 
0 0 0 
0 0 0 
0 0 0 
0 0 0 
0 0 0 
0 0 0 
0 0 0 
0 0 0 
0 0 0 
0 0 0 
0 0 0 
0 0 0 
0 0 0 
0 0 0 
0 0 0 
0 0 0 
0 0 0 
0 0 0 
0 0 0 
0 0 0 
0 0 0 
0 0 0 
0 0 0 
0 0 0 
0 0 0 
0 0 0 
0 0 0 
0 0 0 
0 0 0 
0 0 0 
0 0 0 
0 0 0 
0 0 0 
0 0 0 
0 0 0 
0 0 0 
0 0 0 
0 0 0 
0 0 0 
0 0 0 
0 0 0 
0 0 0 
0 0 0 
0 0 0 
0 0 0 
0 0 0 
0 0 0 
0 0 0 
0 0 0 
0 0 0 
0 0 0 
0 0 0 
0 0 0 
0 0 0 
0 0 0 
0 0 0 
0 0 0 
0 0 0 
0 0 0 
0 0 0 
0 0 0 
0 0 0 
0 0 0 
0 0 0 
0 0 0 
0 0 0 
0 0 0 
0 0 0 
0 0 0 
0 0 0 
0 0 0 
0 0 0 
0 0 0 
0 0 0 
0 0 0 
0 0 0 
0 0 0 
0 0 0 
0 0 0 
0 0 0 
0 0 0 
0 0 0 
0 0 0 
0 0 0 
0 0 0 
0 0 0 
0 0 0 
0 0 0 
0 0 0 
0 0 0 
0 0 0 
0 0 0 
0 0 0 
0 0 0 
0 0 0 
0 0 0 
0 0 0 
0 0 0 
0 0 0 
0 0 0 
0 0 0 
0 0 0 
0 0 0 
0 0 0 
0 0 0 
0 0 0 
0 0 0 
0 0 0 
0 0 0 
0 0 0 
0 0 0 
0 0 0 
0 0 0 
0 0 0 
0 0 0 
0 0 0 
0 0 0 
0 0 0 
0 0 0 
0 0 0 
0 0 0 
0 0 0 
0 0 0 
0 0 0 
0 0 0 
0 0 0 
0 0 0 
0 0 0 
0 0 0 
0 0 0 
0 0 0 
0 0 0 
0 0 0 
0 0 0 
0 0 0 
0 0 0 
0 0 0 
0 0 0 
0 0 0 
0 0 0 
0 0 0 
0 0 0 
0 0 0 
0 0 0 
0 0 0 
0 0 0 
0 0 0 
0 0 0 
0 0 0 
0 0 0 
0 0 0 
0 0 0 
0 0 0 
0 0 0 
0 0 0 
0 0 0 
0 0 0 
0 0 0 
0 0 0 
0 0 0 
0 0 0 
0 0 0 
0 0 0 
0 0 0 
0 0 0 
0 0 0 
0 0 0 
0 0 0 
0 0 0 
0 0 0 
0 0 0 
0 0 0 
0 0 0 
0 0 0 
0 0 0 
0 0 0 
0 0 0 
0 0 0 
0 0 0 
0 0 0 
0 0 0 
0 0 0 
0 0 0 
0 0 0 
0 0 0 
0 0 0 
0 0 0 
0 0 0 
0 0 0 
0 0 0 
0 0 0 
0 0 0 
0 0 0 
0 0 0 
0 0 0 
0 0 0 
0 0 0 
0 0 0 
0 0 0 
0 0 0 
0 0 0 
0 0 0 
0 0 0 
0 0 0 
0 0 0 
0 0 0 
0 0 0 
0 0 0 
0 0 0 
0 0 0 
0 0 0 
0 0 0 
0 0 0 
0 0 0 
0 0 0 
0 0 0 
0 0 0 
0 0 0 
0 0 0 
0 0 0 
0 0 0 
0 0 0 
0 0 0 
0 0 0 
0 0 0 
0 0 0 
0 0 0 
0 0 0 
0 0 0 
0 0 0 
0 0 0 
0 0 0 
0 0 0 
0 0 0 
0 0 0 
0 0 0 
0 0 0 
0 0 0 
0 0 0 
0 0 0 
0 0 0 
0 0 0 
0 0 0 
0 0 0 
0 0 0 
0 0 0 
0 0 0 
0 0 0 
0 0 0 
0 0 0 
0 0 0 
0 0 0 
0 0 0 
0 0 0 
0 0 0 
0 0 0 
0 0 0 
0 0 0 
0 0 0 
0 0 0 
0 0 0 
0 0 0 
0 0 0 
0 0 0 
0 0 0 
0 0 0 
0 0 0 
0 0 0 
0 0 0 
0 0 0 
0 0 0 
0 0 0 
0 0 0 
0 0 0 
0 0 0 
0 0 0 
0 0 0 
0 0 0 
0 0 0 
0 0 0 
0 0 0 
0 0 0 
0 0 0 
0 0 0 
0 0 0 
0 0 0 
0 0 0 
0 0 0 
0 0 0 
0 0 0 
0 0 0 
0 0 0 
0 0 0 
0 0 0 
0 0 0 
0 0 0 
0 0 0 
0 0 0 
0 0 0 
0 0 0 
0 0 0 
0 0 0 
0 0 0 
0 0 0 
0 0 0 
0 0 0 
0 0 0 
0 0 0 
0 0 0 
0 0 0 
0 0 0 
0 0 0 
0 0 0 
0 0 0 
0 0 0 
0 0 0 
0 0 0 
0 0 0 
0 0 0 
0 0 0 
0 0 0 
0 0 0 
0 0 0 
0 0 0 
0 0 0 
0 0 0 
0 0 0 
0 0 0 
0 0 0 
0 0 0 
0 0 0 
0 0 0 
0 0 0 
0 0 0 
0 0 0 
0 0 0 
0 0 0 
0 0 0 
0 0 0 
0 0 0 
0 0 0 
0 0 0 
0 0 0 
0 0 0 
0 0 0 
0 0 0 
0 0 0 
0 0 0 
0 0 0 
0 0 0 
0 0 0 
0 0 0 
0 0 0 
0 0 0 
0 0 0 
0 0 0 
0 0 0 
0 0 0 
0 0 0 
0 0 0 
0 0 0 
0 0 0 
0 0 0 
0 0 0 
0 0 0 
0 0 0 
0 0 0 
0 0 0 
0 0 0 
0 0 0 
0 0 0 
0 0 0 
0 0 0 
0 0 0 
0 0 0 
0 0 0 
0 0 0 
0 0 0 
0 0 0 
0 0 0 
0 0 0 
0 0 0 
0 0 0 
0 0 0 
0 0 0 
0 0 0 
0 0 0 
0 0 0 
0 0 0 
0 0 0 
0 0 0 
0 0 0 
0 0 0 
0 0 0 
0 0 0 
0 0 0 
0 0 0 

